       N       E                     dE             d eps       ncg     rms          rms(c)
DAV:   1    -0.477072584470E+04   -0.47707E+04   -0.34460E+04 56223   0.128E+03
DAV:   2    -0.571369145058E+04   -0.94297E+03   -0.79670E+03 42300   0.410E+02
DAV:   3    -0.596529219396E+04   -0.25160E+03   -0.23269E+03 45102   0.123E+02
DAV:   4    -0.598443602816E+04   -0.19144E+02   -0.18854E+02 52131   0.384E+01
DAV:   5    -0.567132170807E+02    0.59277E+04   -0.31535E+01 61911   0.406E+01    0.111E+01
DAV:   6    -0.563424944011E+02    0.37072E+00   -0.29289E+00 59184   0.635E+00    0.784E+00
DAV:   7    -0.562379105038E+02    0.10458E+00   -0.70190E-01 64647   0.650E+00    0.558E+00
DAV:   8    -0.562171505932E+02    0.20760E-01   -0.23886E-01 65358   0.244E+00    0.335E+00
DAV:   9    -0.561970763356E+02    0.20074E-01   -0.16225E-02 56817   0.477E-01    0.187E+00
DAV:  10    -0.561913955619E+02    0.56808E-02   -0.62041E-03 61173   0.258E-01    0.937E-01
DAV:  11    -0.561900604642E+02    0.13351E-02   -0.11846E-03 61407   0.132E-01    0.490E-01
DAV:  12    -0.561897426565E+02    0.31781E-03   -0.40026E-04 54630   0.666E-02    0.262E-01
DAV:  13    -0.561897204943E+02    0.22162E-04   -0.13504E-04 54036   0.332E-02    0.143E-01
DAV:  14    -0.561897579805E+02   -0.37486E-04   -0.50766E-05 48645   0.194E-02    0.794E-02
DAV:  15    -0.561897920311E+02   -0.34051E-04   -0.17965E-05 51471   0.123E-02    0.452E-02
DAV:  16    -0.561898140953E+02   -0.22064E-04   -0.82479E-06 48195   0.854E-03    0.267E-02
DAV:  17    -0.561898268727E+02   -0.12777E-04   -0.36664E-06 46674   0.639E-03    0.165E-02
DAV:  18    -0.561898338436E+02   -0.69710E-05   -0.14727E-06 42156   0.455E-03    0.106E-02
DAV:  19    -0.561898375221E+02   -0.36785E-05   -0.10939E-06 42606   0.521E-03    0.694E-03
DAV:  20    -0.561898394317E+02   -0.19096E-05   -0.60234E-07 38367   0.584E-03    0.461E-03
DAV:  21    -0.561898404212E+02   -0.98948E-06   -0.57976E-07 32301   0.613E-03
   1 F= -.56189840E+02 E0= -.56189840E+02  d E =-.159047E-13
