 vasp.6.4.2 20Jul23 (build Oct 17 2023 11:49:23) complex                         
 executed on             LinuxGNU date 2024.11.22  09:02:21
 running   60 mpi-ranks, with    1 threads/rank, on    1 nodes
 distrk:  each k-point on   12 cores,    5 groups
 distr:  one band on NCORE=   4 cores,    3 groups


--------------------------------------------------------------------------------------------------------


 INCAR:
   AEXX = 0.25
   ALGO = Normal
   EDIFF = 1e-06
   EDIFFG = -0.01
   ENCUT = 500.0
   GGA = Pe
   HFSCREEN = 0.208
   IBRION = 1
   ISMEAR = 0
   ISPIN = 1
   ISYM = 3
   KSPACING = 0.15
   LASPH = True
   LHFCALC = True
   LMAXMIX = 4
   LORBIT = 14
   LREAL = False
   NCORE = 4
   NBANDS = 140
   KPAR = 5
   NEDOS = 3000
   NELM = 200
   NELMIN = 2
   NSW = 0
   PREC = Accurate
   PRECFOCK = Fast
   SIGMA = 0.02
   TIME = 0.3

 POTCAR:    PAW_PBE Cu 22Jun2005                  
 POTCAR:    PAW_PBE Ge_d 03Jul2007                
 POTCAR:    PAW_PBE Se 06Sep2000                  
 POTCAR:    PAW_PBE Cu 22Jun2005                  
   SHA256 =  0e71e558f37a4e8407882b4609ceaae59938afaad9ced71dfe8490308a0ab630 Cu/POTCAR             
   COPYR  = (c) Copyright 22Jun2005 Georg Kresse                                                    
   COPYR  = This file is part of the software VASP. Any use, copying, and all other rights are regul
   COPYR  = If you do not have a valid VASP license, you may not use, copy or distribute this file. 
   VRHFIN =Cu: d10 p1                                                                               
   LEXCH  = PE                                                                                      
   EATOM  =  1390.9808 eV,  102.2342 Ry                                                             
                                                                                                    
   TITEL  = PAW_PBE Cu 22Jun2005                                                                    
   LULTRA =        F    use ultrasoft PP ?                                                          
   IUNSCR =        1    unscreen: 0-lin 1-nonlin 2-no                                               
   RPACOR =    2.000    partial core radius                                                         
   POMASS =   63.546; ZVAL   =   11.000    mass and valenz                                          
   RCORE  =    2.300    outmost cutoff radius                                                       
   RWIGS  =    2.200; RWIGS  =    1.164    wigner-seitz radius (au A)                               
   ENMAX  =  295.446; ENMIN  =  221.585 eV                                                          
   ICORE  =        3    local potential                                                             
   LCOR   =        T    correct aug charges                                                         
   LPAW   =        T    paw PP                                                                      
   EAUG   =  586.980                                                                                
   DEXC   =    0.000                                                                                
   RMAX   =    2.344    core radius for proj-oper                                                   
   RAUG   =    1.300    factor for augmentation sphere                                              
   RDEP   =    2.302    radius for radial grids                                                     
   RDEPT  =    1.771    core radius for aug-charge                                                  
                                                                                                    
   Atomic configuration                                                                             
    9 entries                                                                                       
     n  l   j            E        occ.                                                              
     1  0  0.50     -8850.2468   2.0000                                                             
     2  0  0.50     -1062.3498   2.0000                                                             
     2  1  1.50      -916.8226   6.0000                                                             
     3  0  0.50      -114.6929   2.0000                                                             
     3  1  1.50       -72.1325   6.0000                                                             
     3  2  2.50        -5.0394  10.0000                                                             
     4  0  0.50        -4.6097   1.0000                                                             
     4  1  0.50        -4.0817   0.0000                                                             
     4  3  2.50        -1.3606   0.0000                                                             
   Description                                                                                      
     l       E           TYP  RCUT    TYP  RCUT                                                     
     2     -5.0393973     23  2.200                                                                 
     2     10.8846608     23  2.200                                                                 
     0     -4.6097109     23  2.200                                                                 
     0      8.2520465     23  2.200                                                                 
     1     -2.7211652     23  2.200                                                                 
     1     21.7055443     23  2.200                                                                 
     3      2.7211652     23  2.300                                                                 
  local pseudopotential read in
  partial core-charges read in
  partial kinetic energy density read in
  atomic valenz-charges read in
  non local Contribution for L=           2  read in
    real space projection operators read in
  non local Contribution for L=           2  read in
    real space projection operators read in
  non local Contribution for L=           0  read in
    real space projection operators read in
  non local Contribution for L=           0  read in
    real space projection operators read in
  non local Contribution for L=           1  read in
    real space projection operators read in
  non local Contribution for L=           1  read in
    real space projection operators read in
    PAW grid and wavefunctions read in

   number of l-projection  operators is LMAX  =           6
   number of lm-projection operators is LMMAX =          18

 POTCAR:    PAW_PBE Ge_d 03Jul2007                
   SHA256 =  944b26c40d2d7c4f4eb1ff3a2e8dbfdd7129146276cd341854bfd5c0e57780ed Ge_d/POTCAR           
   COPYR  = (c) Copyright 03Jul2007 Georg Kresse                                                    
   COPYR  = This file is part of the software VASP. Any use, copying, and all other rights are regul
   COPYR  = If you do not have a valid VASP license, you may not use, copy or distribute this file. 
   VRHFIN =Ge: 3d4s4p                                                                               
   LEXCH  = PE                                                                                      
   EATOM  =  2596.2402 eV,  190.8183 Ry                                                             
                                                                                                    
   TITEL  = PAW_PBE Ge_d 03Jul2007                                                                  
   LULTRA =        F    use ultrasoft PP ?                                                          
   IUNSCR =        1    unscreen: 0-lin 1-nonlin 2-no                                               
   RPACOR =    2.000    partial core radius                                                         
   POMASS =   72.610; ZVAL   =   14.000    mass and valenz                                          
   RCORE  =    2.300    outmost cutoff radius                                                       
   RWIGS  =    2.300; RWIGS  =    1.217    wigner-seitz radius (au A)                               
   ENMAX  =  310.294; ENMIN  =  232.720 eV                                                          
   ICORE  =        3    local potential                                                             
   LCOR   =        T    correct aug charges                                                         
   LPAW   =        T    paw PP                                                                      
   EAUG   =  531.356                                                                                
   DEXC   =    0.000                                                                                
   RMAX   =    2.342    core radius for proj-oper                                                   
   RAUG   =    1.300    factor for augmentation sphere                                              
   RDEP   =    2.318    radius for radial grids                                                     
   RDEPT  =    1.783    core radius for aug-charge                                                  
                                                                                                    
   Atomic configuration                                                                             
    9 entries                                                                                       
     n  l   j            E        occ.                                                              
     1  0  0.50    -10959.8463   2.0000                                                             
     2  0  0.50     -1371.6056   2.0000                                                             
     2  1  1.50     -1198.4791   6.0000                                                             
     3  0  0.50      -168.4733   2.0000                                                             
     3  1  1.50      -115.6019   6.0000                                                             
     3  2  2.50       -29.3106  10.0000                                                             
     4  0  0.50       -11.7309   2.0000                                                             
     4  1  0.50        -3.8952   2.0000                                                             
     4  3  2.50        -4.0817   0.0000                                                             
   Description                                                                                      
     l       E           TYP  RCUT    TYP  RCUT                                                     
     2    -29.3105938     23  2.200                                                                 
     2    -13.6058260     23  2.200                                                                 
     0    -11.7309493     23  2.300                                                                 
     0     -7.4578696     23  2.300                                                                 
     1     -3.8952261     23  2.300                                                                 
     1      6.1178114     23  2.300                                                                 
     3     -1.3605826     23  2.300                                                                 
  local pseudopotential read in
  partial core-charges read in
  partial kinetic energy density read in
  atomic valenz-charges read in
  non local Contribution for L=           2  read in
    real space projection operators read in
  non local Contribution for L=           2  read in
    real space projection operators read in
  non local Contribution for L=           0  read in
    real space projection operators read in
  non local Contribution for L=           0  read in
    real space projection operators read in
  non local Contribution for L=           1  read in
    real space projection operators read in
  non local Contribution for L=           1  read in
    real space projection operators read in
    PAW grid and wavefunctions read in

   number of l-projection  operators is LMAX  =           6
   number of lm-projection operators is LMMAX =          18

 POTCAR:    PAW_PBE Se 06Sep2000                  
   SHA256 =  eabb916e6b4c819dc065ce039373bc328651da483898f08fb9e49c498452bf12 Se/POTCAR             
   COPYR  = (c) Copyright 06Sep2000 Georg Kresse                                                    
   COPYR  = This file is part of the software VASP. Any use, copying, and all other rights are regul
   COPYR  = If you do not have a valid VASP license, you may not use, copy or distribute this file. 
   VRHFIN =Se: s2p4                                                                                 
   LEXCH  = PE                                                                                      
   EATOM  =   257.1286 eV,   18.8984 Ry                                                             
                                                                                                    
   TITEL  = PAW_PBE Se 06Sep2000                                                                    
   LULTRA =        F    use ultrasoft PP ?                                                          
   IUNSCR =        1    unscreen: 0-lin 1-nonlin 2-no                                               
   RPACOR =    1.900    partial core radius                                                         
   POMASS =   78.960; ZVAL   =    6.000    mass and valenz                                          
   RCORE  =    2.100    outmost cutoff radius                                                       
   RWIGS  =    2.200; RWIGS  =    1.164    wigner-seitz radius (au A)                               
   ENMAX  =  211.555; ENMIN  =  158.666 eV                                                          
   ICORE  =        3    local potential                                                             
   LCOR   =        T    correct aug charges                                                         
   LPAW   =        T    paw PP                                                                      
   EAUG   =  446.842                                                                                
   DEXC   =    0.000                                                                                
   RMAX   =    2.147    core radius for proj-oper                                                   
   RAUG   =    1.300    factor for augmentation sphere                                              
   RDEP   =    2.177    radius for radial grids                                                     
   RDEPT  =    1.928    core radius for aug-charge                                                  
                                                                                                    
   Atomic configuration                                                                             
   10 entries                                                                                       
     n  l   j            E        occ.                                                              
     1  0  0.50    -12503.4787   2.0000                                                             
     2  0  0.50     -1606.9547   2.0000                                                             
     2  1  1.50     -1413.3140   6.0000                                                             
     3  0  0.50      -213.4885   2.0000                                                             
     3  1  1.50      -152.9538   6.0000                                                             
     3  2  2.50       -53.1221  10.0000                                                             
     4  0  0.50       -17.2865   2.0000                                                             
     4  1  0.50        -6.5110   4.0000                                                             
     4  2  2.50        -6.8029   0.0000                                                             
     4  3  2.50        -6.8029   0.0000                                                             
   Description                                                                                      
     l       E           TYP  RCUT    TYP  RCUT                                                     
     0    -17.2865377     23  2.100                                                                 
     0    -15.3094411     23  2.100                                                                 
     1     -6.5110275     23  2.100                                                                 
     1     -0.0695192     23  2.100                                                                 
     2     -6.8029130     23  2.100                                                                 
     3     -1.3605826      7  2.100                                                                 
  local pseudopotential read in
  partial core-charges read in
  partial kinetic energy density read in
  atomic valenz-charges read in
  non local Contribution for L=           0  read in
    real space projection operators read in
  non local Contribution for L=           0  read in
    real space projection operators read in
  non local Contribution for L=           1  read in
    real space projection operators read in
  non local Contribution for L=           1  read in
    real space projection operators read in
  non local Contribution for L=           2  read in
    real space projection operators read in
    PAW grid and wavefunctions read in

   number of l-projection  operators is LMAX  =           5
   number of lm-projection operators is LMMAX =          13

  PAW_PBE Cu 22Jun2005                  :
 energy of atom  1       EATOM=-1390.9808
 kinetic energy error for atom=    0.0043 (will be added to EATOM!!)
  PAW_PBE Ge_d 03Jul2007                :
 energy of atom  2       EATOM=-2596.2402
 kinetic energy error for atom=    0.0033 (will be added to EATOM!!)
  PAW_PBE Se 06Sep2000                  :
 energy of atom  3       EATOM= -257.1286
 kinetic energy error for atom=    0.0008 (will be added to EATOM!!)


 POSCAR: Cu4 Ge2 Se6
  positions in direct lattice
  No initial velocities read in
 exchange correlation table for  LEXCH =        8
   RHO(1)=    0.500       N(1)  =     2000
   RHO(2)=  100.500       N(2)  =     4000



--------------------------------------------------------------------------------------------------------


 ion  position               nearest neighbor table
   1  0.667  0.827  0.006-  10 2.41   9 2.42   8 2.42  12 2.46
   2  0.173  0.333  0.506-   9 2.41  10 2.42   7 2.42  11 2.46
   3  0.848  0.979  0.509-  10 2.41   7 2.41   8 2.42  11 2.50
   4  0.021  0.152  0.009-   9 2.41   8 2.41   7 2.42  12 2.50
   5  0.492  0.680  0.486-   7 2.34  10 2.34  11 2.45  12 2.48
   6  0.320  0.508  0.986-   8 2.34   9 2.34  12 2.45  11 2.48
   7  0.127  0.041  0.384-   5 2.34   3 2.41   2 2.42   4 2.42
   8  0.959  0.873  0.884-   6 2.34   4 2.41   1 2.42   3 2.42
   9  0.300  0.210  0.878-   6 2.34   2 2.41   4 2.41   1 2.42
  10  0.790  0.700  0.378-   5 2.34   1 2.41   3 2.41   2 2.42
  11  0.466  0.372  0.369-   5 2.45   2 2.46   6 2.48   3 2.50
  12  0.628  0.534  0.869-   6 2.45   1 2.46   5 2.48   4 2.50

  LATTYP: Found a base centered monoclinic cell.
 ALAT       =     6.8069765136
 B/A-ratio  =     1.7510094454
 C/A-ratio  =     1.0012394670
 COS(beta)  =    -0.3190950994
  
  Lattice vectors:
  
 A1 = (   3.4034882568,  -5.9595400849,   0.0000000000)
 A2 = (   3.4034882568,   5.9595400849,   0.0000000000)
 A3 = (  -2.1747650600,   0.0000000000,   6.4591221237)


Analysis of symmetry for initial positions (statically):
=====================================================================
 Subroutine PRICEL returns:
 Original cell was already a primitive cell.
 

 Routine SETGRP: Setting up the symmetry group for a 
 base centered monoclinic supercell.


 Subroutine GETGRP returns: Found  2 space group operations
 (whereof  1 operations were pure point group operations)
 out of a pool of  4 trial point group operations.


The static configuration has the point symmetry C_1 .
 The point group associated with its full space group is C_1h.


Analysis of symmetry for dynamics (positions and initial velocities):
=====================================================================
 Subroutine PRICEL returns:
 Original cell was already a primitive cell.
 

 Routine SETGRP: Setting up the symmetry group for a 
 base centered monoclinic supercell.


 Subroutine GETGRP returns: Found  2 space group operations
 (whereof  1 operations were pure point group operations)
 out of a pool of  4 trial point group operations.


The dynamic configuration has the point symmetry C_1 .
 The point group associated with its full space group is C_1h.


 Subroutine INISYM returns: Found  2 space group operations
 (whereof  1 operations are pure point group operations),
 and found     1 'primitive' translations


----------------------------------------------------------------------------------------

                                     Primitive cell                                     

  volume of cell :     262.0237

  direct lattice vectors                    reciprocal lattice vectors
     3.403488257  5.959540085  0.000000000     0.146908102  0.083899092  0.049463472
    -3.403488257  5.959540085  0.000000000    -0.146908102  0.083899092 -0.049463472
    -2.174765060  0.000000000  6.459122124     0.000000000 -0.000000000  0.154819801

  length of vectors
     6.862933071  6.862933071  6.815413537     0.176260271  0.176260271  0.154819801

  position of ions in fractional coordinates (direct lattice)
     0.667058182  0.827350478  0.005758876
     0.172649522  0.332941818  0.505758876
     0.848037610  0.979262418  0.509481946
     0.020737582  0.151962390  0.009481946
     0.491679328  0.680019346  0.486110707
     0.319980654  0.508320672  0.986110707
     0.127447510  0.041424284  0.384152719
     0.958575716  0.872552490  0.884152719
     0.299805730  0.209598501  0.878351642
     0.790401499  0.700194270  0.378351642
     0.465969500  0.371629932  0.369329674
     0.628370068  0.534030500  0.869329674

  ion indices of the primitive-cell ions
   primitive index   ion index
                 1           1
                 2           2
                 3           3
                 4           4
                 5           5
                 6           6
                 7           7
                 8           8
                 9           9
                10          10
                11          11
                12          12

----------------------------------------------------------------------------------------



 KPOINTS: M -> L -> V                             

Read explicit list of k-points.

 Found    150 k-points:

 Following reciprocal coordinates:
            Coordinates               Weight
  0.000000  0.000000  0.000000      0.005102
  0.142857  0.000000  0.000000      0.010204
  0.285714  0.000000  0.000000      0.010204
  0.428571  0.000000  0.000000      0.010204
  0.000000  0.250000  0.000000      0.010204
  0.142857  0.250000  0.000000      0.020408
  0.285714  0.250000  0.000000      0.020408
  0.428571  0.250000  0.000000      0.020408
  0.000000  0.500000  0.000000      0.005102
  0.142857  0.500000  0.000000      0.010204
  0.285714  0.500000  0.000000      0.010204
  0.428571  0.500000  0.000000      0.010204
  0.000000  0.000000  0.142857      0.010204
  0.142857  0.000000  0.142857      0.010204
  0.285714  0.000000  0.142857      0.010204
  0.428571  0.000000  0.142857      0.010204
 -0.428571  0.000000  0.142857      0.010204
 -0.285714  0.000000  0.142857      0.010204
 -0.142857  0.000000  0.142857      0.010204
  0.000000  0.250000  0.142857      0.020408
  0.142857  0.250000  0.142857      0.020408
  0.285714  0.250000  0.142857      0.020408
  0.428571  0.250000  0.142857      0.020408
 -0.428571  0.250000  0.142857      0.020408
 -0.285714  0.250000  0.142857      0.020408
 -0.142857  0.250000  0.142857      0.020408
  0.000000  0.500000  0.142857      0.010204
  0.142857  0.500000  0.142857      0.010204
  0.285714  0.500000  0.142857      0.010204
  0.428571  0.500000  0.142857      0.010204
 -0.428571  0.500000  0.142857      0.010204
 -0.285714  0.500000  0.142857      0.010204
 -0.142857  0.500000  0.142857      0.010204
  0.000000  0.000000  0.285714      0.010204
  0.142857  0.000000  0.285714      0.010204
  0.285714  0.000000  0.285714      0.010204
  0.428571  0.000000  0.285714      0.010204
 -0.428571  0.000000  0.285714      0.010204
 -0.285714  0.000000  0.285714      0.010204
 -0.142857  0.000000  0.285714      0.010204
  0.000000  0.250000  0.285714      0.020408
  0.142857  0.250000  0.285714      0.020408
  0.285714  0.250000  0.285714      0.020408
  0.428571  0.250000  0.285714      0.020408
 -0.428571  0.250000  0.285714      0.020408
 -0.285714  0.250000  0.285714      0.020408
 -0.142857  0.250000  0.285714      0.020408
  0.000000  0.500000  0.285714      0.010204
  0.142857  0.500000  0.285714      0.010204
  0.285714  0.500000  0.285714      0.010204
  0.428571  0.500000  0.285714      0.010204
 -0.428571  0.500000  0.285714      0.010204
 -0.285714  0.500000  0.285714      0.010204
 -0.142857  0.500000  0.285714      0.010204
  0.000000  0.000000  0.428571      0.010204
  0.142857  0.000000  0.428571      0.010204
  0.285714  0.000000  0.428571      0.010204
  0.428571  0.000000  0.428571      0.010204
 -0.428571  0.000000  0.428571      0.010204
 -0.285714  0.000000  0.428571      0.010204
 -0.142857  0.000000  0.428571      0.010204
  0.000000  0.250000  0.428571      0.020408
  0.142857  0.250000  0.428571      0.020408
  0.285714  0.250000  0.428571      0.020408
  0.428571  0.250000  0.428571      0.020408
 -0.428571  0.250000  0.428571      0.020408
 -0.285714  0.250000  0.428571      0.020408
 -0.142857  0.250000  0.428571      0.020408
  0.000000  0.500000  0.428571      0.010204
  0.142857  0.500000  0.428571      0.010204
  0.285714  0.500000  0.428571      0.010204
  0.428571  0.500000  0.428571      0.010204
 -0.428571  0.500000  0.428571      0.010204
 -0.285714  0.500000  0.428571      0.010204
 -0.142857  0.500000  0.428571      0.010204
  0.343750  0.343750  0.500000      0.000000
  0.359375  0.359375  0.500000      0.000000
  0.375000  0.375000  0.500000      0.000000
  0.390625  0.390625  0.500000      0.000000
  0.406250  0.406250  0.500000      0.000000
  0.421875  0.421875  0.500000      0.000000
  0.437500  0.437500  0.500000      0.000000
  0.453125  0.453125  0.500000      0.000000
  0.468750  0.468750  0.500000      0.000000
  0.484375  0.484375  0.500000      0.000000
  0.500000  0.500000  0.500000      0.000000
  0.500000  0.485294  0.500000      0.000000
  0.500000  0.470588  0.500000      0.000000
  0.500000  0.455882  0.500000      0.000000
  0.500000  0.441176  0.500000      0.000000
  0.500000  0.426471  0.500000      0.000000
  0.500000  0.411765  0.500000      0.000000
  0.500000  0.397059  0.500000      0.000000
  0.500000  0.382353  0.500000      0.000000
  0.500000  0.367647  0.500000      0.000000
  0.500000  0.352941  0.500000      0.000000
  0.500000  0.338235  0.500000      0.000000
  0.500000  0.323529  0.500000      0.000000
  0.500000  0.308824  0.500000      0.000000
  0.500000  0.294118  0.500000      0.000000
  0.500000  0.279412  0.500000      0.000000
  0.500000  0.264706  0.500000      0.000000
  0.500000  0.250000  0.500000      0.000000
  0.500000  0.235294  0.500000      0.000000
  0.500000  0.220588  0.500000      0.000000
  0.500000  0.205882  0.500000      0.000000
  0.500000  0.191176  0.500000      0.000000
  0.500000  0.176471  0.500000      0.000000
  0.500000  0.161765  0.500000      0.000000
  0.500000  0.147059  0.500000      0.000000
  0.500000  0.132353  0.500000      0.000000
  0.500000  0.117647  0.500000      0.000000
  0.500000  0.102941  0.500000      0.000000
  0.500000  0.088235  0.500000      0.000000
  0.500000  0.073529  0.500000      0.000000
  0.500000  0.058824  0.500000      0.000000
  0.500000  0.044118  0.500000      0.000000
  0.500000  0.029412  0.500000      0.000000
  0.500000  0.014706  0.500000      0.000000
  0.500000  0.000000  0.500000      0.000000
  0.500000  0.000000  0.483333      0.000000
  0.500000  0.000000  0.466667      0.000000
  0.500000  0.000000  0.450000      0.000000
  0.500000  0.000000  0.433333      0.000000
  0.500000  0.000000  0.416667      0.000000
  0.500000  0.000000  0.400000      0.000000
  0.500000  0.000000  0.383333      0.000000
  0.500000  0.000000  0.366667      0.000000
  0.500000  0.000000  0.350000      0.000000
  0.500000  0.000000  0.333333      0.000000
  0.500000  0.000000  0.316667      0.000000
  0.500000  0.000000  0.300000      0.000000
  0.500000  0.000000  0.283333      0.000000
  0.500000  0.000000  0.266667      0.000000
  0.500000  0.000000  0.250000      0.000000
  0.500000  0.000000  0.233333      0.000000
  0.500000  0.000000  0.216667      0.000000
  0.500000  0.000000  0.200000      0.000000
  0.500000  0.000000  0.183333      0.000000
  0.500000  0.000000  0.166667      0.000000
  0.500000  0.000000  0.150000      0.000000
  0.500000  0.000000  0.133333      0.000000
  0.500000  0.000000  0.116667      0.000000
  0.500000  0.000000  0.100000      0.000000
  0.500000  0.000000  0.083333      0.000000
  0.500000  0.000000  0.066667      0.000000
  0.500000  0.000000  0.050000      0.000000
  0.500000  0.000000  0.033333      0.000000
  0.500000  0.000000  0.016667      0.000000
  0.500000  0.000000 -0.000000      0.000000

 Following cartesian coordinates:
            Coordinates               Weight
  0.000000  0.000000  0.000000      0.005102
  0.020987  0.011986  0.007066      0.010204
  0.041974  0.023971  0.014132      0.010204
  0.062961  0.035957  0.021199      0.010204
 -0.036727  0.020975 -0.012366      0.010204
 -0.015740  0.032960 -0.005300      0.020408
  0.005247  0.044946  0.001767      0.020408
  0.026234  0.056932  0.008833      0.020408
 -0.073454  0.041950 -0.024732      0.005102
 -0.052467  0.053935 -0.017666      0.010204
 -0.031480  0.065921 -0.010599      0.010204
 -0.010493  0.077906 -0.003533      0.010204
  0.000000  0.000000  0.022117      0.010204
  0.020987  0.011986  0.029183      0.010204
  0.041974  0.023971  0.036250      0.010204
  0.062961  0.035957  0.043316      0.010204
 -0.062961 -0.035957  0.000918      0.010204
 -0.041974 -0.023971  0.007985      0.010204
 -0.020987 -0.011986  0.015051      0.010204
 -0.036727  0.020975  0.009751      0.020408
 -0.015740  0.032960  0.016817      0.020408
  0.005247  0.044946  0.023884      0.020408
  0.026234  0.056932  0.030950      0.020408
 -0.099688 -0.014982 -0.011447      0.020408
 -0.078701 -0.002996 -0.004381      0.020408
 -0.057714  0.008989  0.002685      0.020408
 -0.073454  0.041950 -0.002615      0.010204
 -0.052467  0.053935  0.004452      0.010204
 -0.031480  0.065921  0.011518      0.010204
 -0.010493  0.077906  0.018584      0.010204
 -0.136415  0.005993 -0.023813      0.010204
 -0.115428  0.017978 -0.016747      0.010204
 -0.094441  0.029964 -0.009681      0.010204
  0.000000  0.000000  0.044234      0.010204
  0.020987  0.011986  0.051300      0.010204
  0.041974  0.023971  0.058367      0.010204
  0.062961  0.035957  0.065433      0.010204
 -0.062961 -0.035957  0.023036      0.010204
 -0.041974 -0.023971  0.030102      0.010204
 -0.020987 -0.011986  0.037168      0.010204
 -0.036727  0.020975  0.031868      0.020408
 -0.015740  0.032960  0.038935      0.020408
  0.005247  0.044946  0.046001      0.020408
  0.026234  0.056932  0.053067      0.020408
 -0.099688 -0.014982  0.010670      0.020408
 -0.078701 -0.002996  0.017736      0.020408
 -0.057714  0.008989  0.024802      0.020408
 -0.073454  0.041950  0.019502      0.010204
 -0.052467  0.053935  0.026569      0.010204
 -0.031480  0.065921  0.033635      0.010204
 -0.010493  0.077906  0.040701      0.010204
 -0.136415  0.005993 -0.001696      0.010204
 -0.115428  0.017978  0.005370      0.010204
 -0.094441  0.029964  0.012436      0.010204
  0.000000  0.000000  0.066351      0.010204
  0.020987  0.011986  0.073418      0.010204
  0.041974  0.023971  0.080484      0.010204
  0.062961  0.035957  0.087550      0.010204
 -0.062961 -0.035957  0.045153      0.010204
 -0.041974 -0.023971  0.052219      0.010204
 -0.020987 -0.011986  0.059285      0.010204
 -0.036727  0.020975  0.053985      0.020408
 -0.015740  0.032960  0.061052      0.020408
  0.005247  0.044946  0.068118      0.020408
  0.026234  0.056932  0.075184      0.020408
 -0.099688 -0.014982  0.032787      0.020408
 -0.078701 -0.002996  0.039853      0.020408
 -0.057714  0.008989  0.046919      0.020408
 -0.073454  0.041950  0.041620      0.010204
 -0.052467  0.053935  0.048686      0.010204
 -0.031480  0.065921  0.055752      0.010204
 -0.010493  0.077906  0.062818      0.010204
 -0.136415  0.005993  0.020421      0.010204
 -0.115428  0.017978  0.027487      0.010204
 -0.094441  0.029964  0.034553      0.010204
  0.000000  0.057681  0.077410      0.000000
  0.000000  0.060302  0.077410      0.000000
  0.000000  0.062924  0.077410      0.000000
 -0.000000  0.065546  0.077410      0.000000
 -0.000000  0.068168  0.077410      0.000000
  0.000000  0.070790  0.077410      0.000000
  0.000000  0.073412  0.077410      0.000000
 -0.000000  0.076034  0.077410      0.000000
  0.000000  0.078655  0.077410      0.000000
 -0.000000  0.081277  0.077410      0.000000
  0.000000  0.083899  0.077410      0.000000
  0.002160  0.082665  0.078137      0.000000
  0.004321  0.081431  0.078865      0.000000
  0.006481  0.080198  0.079592      0.000000
  0.008642  0.078964  0.080320      0.000000
  0.010802  0.077730  0.081047      0.000000
  0.012962  0.076496  0.081774      0.000000
  0.015123  0.075262  0.082502      0.000000
  0.017283  0.074029  0.083229      0.000000
  0.019444  0.072795  0.083957      0.000000
  0.021604  0.071561  0.084684      0.000000
  0.023765  0.070327  0.085411      0.000000
  0.025925  0.069093  0.086139      0.000000
  0.028085  0.067860  0.086866      0.000000
  0.030246  0.066626  0.087594      0.000000
  0.032406  0.065392  0.088321      0.000000
  0.034567  0.064158  0.089048      0.000000
  0.036727  0.062924  0.089776      0.000000
  0.038887  0.061691  0.090503      0.000000
  0.041048  0.060457  0.091231      0.000000
  0.043208  0.059223  0.091958      0.000000
  0.045369  0.057989  0.092685      0.000000
  0.047529  0.056755  0.093413      0.000000
  0.049690  0.055521  0.094140      0.000000
  0.051850  0.054288  0.094868      0.000000
  0.054010  0.053054  0.095595      0.000000
  0.056171  0.051820  0.096322      0.000000
  0.058331  0.050586  0.097050      0.000000
  0.060492  0.049352  0.097777      0.000000
  0.062652  0.048119  0.098505      0.000000
  0.064812  0.046885  0.099232      0.000000
  0.066973  0.045651  0.099959      0.000000
  0.069133  0.044417  0.100687      0.000000
  0.071294  0.043183  0.101414      0.000000
  0.073454  0.041950  0.102142      0.000000
  0.073454  0.041950  0.099561      0.000000
  0.073454  0.041950  0.096981      0.000000
  0.073454  0.041950  0.094401      0.000000
  0.073454  0.041950  0.091820      0.000000
  0.073454  0.041950  0.089240      0.000000
  0.073454  0.041950  0.086660      0.000000
  0.073454  0.041950  0.084079      0.000000
  0.073454  0.041950  0.081499      0.000000
  0.073454  0.041950  0.078919      0.000000
  0.073454  0.041950  0.076338      0.000000
  0.073454  0.041950  0.073758      0.000000
  0.073454  0.041950  0.071178      0.000000
  0.073454  0.041950  0.068597      0.000000
  0.073454  0.041950  0.066017      0.000000
  0.073454  0.041950  0.063437      0.000000
  0.073454  0.041950  0.060856      0.000000
  0.073454  0.041950  0.058276      0.000000
  0.073454  0.041950  0.055696      0.000000
  0.073454  0.041950  0.053115      0.000000
  0.073454  0.041950  0.050535      0.000000
  0.073454  0.041950  0.047955      0.000000
  0.073454  0.041950  0.045374      0.000000
  0.073454  0.041950  0.042794      0.000000
  0.073454  0.041950  0.040214      0.000000
  0.073454  0.041950  0.037633      0.000000
  0.073454  0.041950  0.035053      0.000000
  0.073454  0.041950  0.032473      0.000000
  0.073454  0.041950  0.029892      0.000000
  0.073454  0.041950  0.027312      0.000000
  0.073454  0.041950  0.024732      0.000000

 
 Subroutine IBZKPT_HF returns following result:
 ==============================================
 
 Found    364 k-points in 1st BZ
 the following    364 k-points will be used (e.g. in the exchange kernel)
 Following reciprocal coordinates:   # in IRBZ
  0.000000  0.000000  0.000000    0.00510204   1 t-inv F
  0.142857  0.000000  0.000000    0.00255102   2 t-inv F
  0.285714  0.000000  0.000000    0.00255102   3 t-inv F
  0.428571  0.000000  0.000000    0.00255102   4 t-inv F
  0.000000  0.250000  0.000000    0.00255102   5 t-inv F
  0.142857  0.250000  0.000000    0.00510204   6 t-inv F
  0.285714  0.250000  0.000000    0.00510204   7 t-inv F
  0.428571  0.250000  0.000000    0.00510204   8 t-inv F
  0.000000  0.500000  0.000000    0.00255102   9 t-inv F
  0.142857  0.500000  0.000000    0.00255102  10 t-inv F
  0.285714  0.500000  0.000000    0.00255102  11 t-inv F
  0.428571  0.500000  0.000000    0.00255102  12 t-inv F
  0.000000  0.000000  0.142857    0.00510204  13 t-inv F
  0.142857  0.000000  0.142857    0.00255102  14 t-inv F
  0.285714  0.000000  0.142857    0.00255102  15 t-inv F
  0.428571  0.000000  0.142857    0.00255102  16 t-inv F
 -0.428571  0.000000  0.142857    0.00255102  17 t-inv F
 -0.285714  0.000000  0.142857    0.00255102  18 t-inv F
 -0.142857  0.000000  0.142857    0.00255102  19 t-inv F
  0.000000  0.250000  0.142857    0.00510204  20 t-inv F
  0.142857  0.250000  0.142857    0.00510204  21 t-inv F
  0.285714  0.250000  0.142857    0.00510204  22 t-inv F
  0.428571  0.250000  0.142857    0.00510204  23 t-inv F
 -0.428571  0.250000  0.142857    0.00510204  24 t-inv F
 -0.285714  0.250000  0.142857    0.00510204  25 t-inv F
 -0.142857  0.250000  0.142857    0.00510204  26 t-inv F
  0.000000  0.500000  0.142857    0.00255102  27 t-inv F
  0.142857  0.500000  0.142857    0.00255102  28 t-inv F
  0.285714  0.500000  0.142857    0.00255102  29 t-inv F
  0.428571  0.500000  0.142857    0.00255102  30 t-inv F
 -0.428571  0.500000  0.142857    0.00255102  31 t-inv F
 -0.285714  0.500000  0.142857    0.00255102  32 t-inv F
 -0.142857  0.500000  0.142857    0.00255102  33 t-inv F
  0.000000  0.000000  0.285714    0.00510204  34 t-inv F
  0.142857  0.000000  0.285714    0.00255102  35 t-inv F
  0.285714  0.000000  0.285714    0.00255102  36 t-inv F
  0.428571  0.000000  0.285714    0.00255102  37 t-inv F
 -0.428571  0.000000  0.285714    0.00255102  38 t-inv F
 -0.285714  0.000000  0.285714    0.00255102  39 t-inv F
 -0.142857  0.000000  0.285714    0.00255102  40 t-inv F
  0.000000  0.250000  0.285714    0.00510204  41 t-inv F
  0.142857  0.250000  0.285714    0.00510204  42 t-inv F
  0.285714  0.250000  0.285714    0.00510204  43 t-inv F
  0.428571  0.250000  0.285714    0.00510204  44 t-inv F
 -0.428571  0.250000  0.285714    0.00510204  45 t-inv F
 -0.285714  0.250000  0.285714    0.00510204  46 t-inv F
 -0.142857  0.250000  0.285714    0.00510204  47 t-inv F
  0.000000  0.500000  0.285714    0.00255102  48 t-inv F
  0.142857  0.500000  0.285714    0.00255102  49 t-inv F
  0.285714  0.500000  0.285714    0.00255102  50 t-inv F
  0.428571  0.500000  0.285714    0.00255102  51 t-inv F
 -0.428571  0.500000  0.285714    0.00255102  52 t-inv F
 -0.285714  0.500000  0.285714    0.00255102  53 t-inv F
 -0.142857  0.500000  0.285714    0.00255102  54 t-inv F
  0.000000  0.000000  0.428571    0.00510204  55 t-inv F
  0.142857  0.000000  0.428571    0.00255102  56 t-inv F
  0.285714  0.000000  0.428571    0.00255102  57 t-inv F
  0.428571  0.000000  0.428571    0.00255102  58 t-inv F
 -0.428571  0.000000  0.428571    0.00255102  59 t-inv F
 -0.285714  0.000000  0.428571    0.00255102  60 t-inv F
 -0.142857  0.000000  0.428571    0.00255102  61 t-inv F
  0.000000  0.250000  0.428571    0.00510204  62 t-inv F
  0.142857  0.250000  0.428571    0.00510204  63 t-inv F
  0.285714  0.250000  0.428571    0.00510204  64 t-inv F
  0.428571  0.250000  0.428571    0.00510204  65 t-inv F
 -0.428571  0.250000  0.428571    0.00510204  66 t-inv F
 -0.285714  0.250000  0.428571    0.00510204  67 t-inv F
 -0.142857  0.250000  0.428571    0.00510204  68 t-inv F
  0.000000  0.500000  0.428571    0.00255102  69 t-inv F
  0.142857  0.500000  0.428571    0.00255102  70 t-inv F
  0.285714  0.500000  0.428571    0.00255102  71 t-inv F
  0.428571  0.500000  0.428571    0.00255102  72 t-inv F
 -0.428571  0.500000  0.428571    0.00255102  73 t-inv F
 -0.285714  0.500000  0.428571    0.00255102  74 t-inv F
 -0.142857  0.500000  0.428571    0.00255102  75 t-inv F
  0.343750  0.343750  0.500000    0.00000000  76 t-inv F
  0.359375  0.359375  0.500000    0.00000000  77 t-inv F
  0.375000  0.375000  0.500000    0.00000000  78 t-inv F
  0.390625  0.390625  0.500000    0.00000000  79 t-inv F
  0.406250  0.406250  0.500000    0.00000000  80 t-inv F
  0.421875  0.421875  0.500000    0.00000000  81 t-inv F
  0.437500  0.437500  0.500000    0.00000000  82 t-inv F
  0.453125  0.453125  0.500000    0.00000000  83 t-inv F
  0.468750  0.468750  0.500000    0.00000000  84 t-inv F
  0.484375  0.484375  0.500000    0.00000000  85 t-inv F
  0.500000  0.500000  0.500000    0.00000000  86 t-inv F
  0.500000  0.485294  0.500000    0.00000000  87 t-inv F
  0.500000  0.470588  0.500000    0.00000000  88 t-inv F
  0.500000  0.455882  0.500000    0.00000000  89 t-inv F
  0.500000  0.441176  0.500000    0.00000000  90 t-inv F
  0.500000  0.426471  0.500000    0.00000000  91 t-inv F
  0.500000  0.411765  0.500000    0.00000000  92 t-inv F
  0.500000  0.397059  0.500000    0.00000000  93 t-inv F
  0.500000  0.382353  0.500000    0.00000000  94 t-inv F
  0.500000  0.367647  0.500000    0.00000000  95 t-inv F
  0.500000  0.352941  0.500000    0.00000000  96 t-inv F
  0.500000  0.338235  0.500000    0.00000000  97 t-inv F
  0.500000  0.323529  0.500000    0.00000000  98 t-inv F
  0.500000  0.308824  0.500000    0.00000000  99 t-inv F
  0.500000  0.294118  0.500000    0.00000000 100 t-inv F
  0.500000  0.279412  0.500000    0.00000000 101 t-inv F
  0.500000  0.264706  0.500000    0.00000000 102 t-inv F
  0.500000  0.250000  0.500000    0.00000000 103 t-inv F
  0.500000  0.235294  0.500000    0.00000000 104 t-inv F
  0.500000  0.220588  0.500000    0.00000000 105 t-inv F
  0.500000  0.205882  0.500000    0.00000000 106 t-inv F
  0.500000  0.191176  0.500000    0.00000000 107 t-inv F
  0.500000  0.176471  0.500000    0.00000000 108 t-inv F
  0.500000  0.161765  0.500000    0.00000000 109 t-inv F
  0.500000  0.147059  0.500000    0.00000000 110 t-inv F
  0.500000  0.132353  0.500000    0.00000000 111 t-inv F
  0.500000  0.117647  0.500000    0.00000000 112 t-inv F
  0.500000  0.102941  0.500000    0.00000000 113 t-inv F
  0.500000  0.088235  0.500000    0.00000000 114 t-inv F
  0.500000  0.073529  0.500000    0.00000000 115 t-inv F
  0.500000  0.058824  0.500000    0.00000000 116 t-inv F
  0.500000  0.044118  0.500000    0.00000000 117 t-inv F
  0.500000  0.029412  0.500000    0.00000000 118 t-inv F
  0.500000  0.014706  0.500000    0.00000000 119 t-inv F
  0.500000  0.000000  0.500000    0.00000000 120 t-inv F
  0.500000  0.000000  0.483333    0.00000000 121 t-inv F
  0.500000  0.000000  0.466667    0.00000000 122 t-inv F
  0.500000  0.000000  0.450000    0.00000000 123 t-inv F
  0.500000  0.000000  0.433333    0.00000000 124 t-inv F
  0.500000  0.000000  0.416667    0.00000000 125 t-inv F
  0.500000  0.000000  0.400000    0.00000000 126 t-inv F
  0.500000  0.000000  0.383333    0.00000000 127 t-inv F
  0.500000  0.000000  0.366667    0.00000000 128 t-inv F
  0.500000  0.000000  0.350000    0.00000000 129 t-inv F
  0.500000  0.000000  0.333333    0.00000000 130 t-inv F
  0.500000  0.000000  0.316667    0.00000000 131 t-inv F
  0.500000  0.000000  0.300000    0.00000000 132 t-inv F
  0.500000  0.000000  0.283333    0.00000000 133 t-inv F
  0.500000  0.000000  0.266667    0.00000000 134 t-inv F
  0.500000  0.000000  0.250000    0.00000000 135 t-inv F
  0.500000  0.000000  0.233333    0.00000000 136 t-inv F
  0.500000  0.000000  0.216667    0.00000000 137 t-inv F
  0.500000  0.000000  0.200000    0.00000000 138 t-inv F
  0.500000  0.000000  0.183333    0.00000000 139 t-inv F
  0.500000  0.000000  0.166667    0.00000000 140 t-inv F
  0.500000  0.000000  0.150000    0.00000000 141 t-inv F
  0.500000  0.000000  0.133333    0.00000000 142 t-inv F
  0.500000  0.000000  0.116667    0.00000000 143 t-inv F
  0.500000  0.000000  0.100000    0.00000000 144 t-inv F
  0.500000  0.000000  0.083333    0.00000000 145 t-inv F
  0.500000  0.000000  0.066667    0.00000000 146 t-inv F
  0.500000  0.000000  0.050000    0.00000000 147 t-inv F
  0.500000  0.000000  0.033333    0.00000000 148 t-inv F
  0.500000  0.000000  0.016667    0.00000000 149 t-inv F
  0.500000  0.000000 -0.000000    0.00000000 150 t-inv F
  0.000000 -0.142857  0.000000    0.00255102   2 t-inv F
  0.000000 -0.285714  0.000000    0.00255102   3 t-inv F
  0.000000 -0.428571  0.000000    0.00255102   4 t-inv F
 -0.250000  0.000000  0.000000    0.00255102   5 t-inv F
 -0.250000 -0.142857  0.000000    0.00510204   6 t-inv F
 -0.250000 -0.285714  0.000000    0.00510204   7 t-inv F
 -0.250000 -0.428571  0.000000    0.00510204   8 t-inv F
 -0.500000  0.000000  0.000000    0.00255102   9 t-inv F
 -0.500000 -0.142857  0.000000    0.00255102  10 t-inv F
 -0.500000 -0.285714  0.000000    0.00255102  11 t-inv F
 -0.500000 -0.428571  0.000000    0.00255102  12 t-inv F
  0.000000 -0.142857  0.142857    0.00255102  14 t-inv F
  0.000000 -0.285714  0.142857    0.00255102  15 t-inv F
  0.000000 -0.428571  0.142857    0.00255102  16 t-inv F
  0.000000  0.428571  0.142857    0.00255102  17 t-inv F
  0.000000  0.285714  0.142857    0.00255102  18 t-inv F
  0.000000  0.142857  0.142857    0.00255102  19 t-inv F
 -0.250000  0.000000  0.142857    0.00510204  20 t-inv F
 -0.250000 -0.142857  0.142857    0.00510204  21 t-inv F
 -0.250000 -0.285714  0.142857    0.00510204  22 t-inv F
 -0.250000 -0.428571  0.142857    0.00510204  23 t-inv F
 -0.250000  0.428571  0.142857    0.00510204  24 t-inv F
 -0.250000  0.285714  0.142857    0.00510204  25 t-inv F
 -0.250000  0.142857  0.142857    0.00510204  26 t-inv F
 -0.500000  0.000000  0.142857    0.00255102  27 t-inv F
 -0.500000 -0.142857  0.142857    0.00255102  28 t-inv F
 -0.500000 -0.285714  0.142857    0.00255102  29 t-inv F
 -0.500000 -0.428571  0.142857    0.00255102  30 t-inv F
 -0.500000  0.428571  0.142857    0.00255102  31 t-inv F
 -0.500000  0.285714  0.142857    0.00255102  32 t-inv F
 -0.500000  0.142857  0.142857    0.00255102  33 t-inv F
  0.000000 -0.142857  0.285714    0.00255102  35 t-inv F
  0.000000 -0.285714  0.285714    0.00255102  36 t-inv F
  0.000000 -0.428571  0.285714    0.00255102  37 t-inv F
  0.000000  0.428571  0.285714    0.00255102  38 t-inv F
  0.000000  0.285714  0.285714    0.00255102  39 t-inv F
  0.000000  0.142857  0.285714    0.00255102  40 t-inv F
 -0.250000  0.000000  0.285714    0.00510204  41 t-inv F
 -0.250000 -0.142857  0.285714    0.00510204  42 t-inv F
 -0.250000 -0.285714  0.285714    0.00510204  43 t-inv F
 -0.250000 -0.428571  0.285714    0.00510204  44 t-inv F
 -0.250000  0.428571  0.285714    0.00510204  45 t-inv F
 -0.250000  0.285714  0.285714    0.00510204  46 t-inv F
 -0.250000  0.142857  0.285714    0.00510204  47 t-inv F
 -0.500000  0.000000  0.285714    0.00255102  48 t-inv F
 -0.500000 -0.142857  0.285714    0.00255102  49 t-inv F
 -0.500000 -0.285714  0.285714    0.00255102  50 t-inv F
 -0.500000 -0.428571  0.285714    0.00255102  51 t-inv F
 -0.500000  0.428571  0.285714    0.00255102  52 t-inv F
 -0.500000  0.285714  0.285714    0.00255102  53 t-inv F
 -0.500000  0.142857  0.285714    0.00255102  54 t-inv F
  0.000000 -0.142857  0.428571    0.00255102  56 t-inv F
  0.000000 -0.285714  0.428571    0.00255102  57 t-inv F
  0.000000 -0.428571  0.428571    0.00255102  58 t-inv F
  0.000000  0.428571  0.428571    0.00255102  59 t-inv F
  0.000000  0.285714  0.428571    0.00255102  60 t-inv F
  0.000000  0.142857  0.428571    0.00255102  61 t-inv F
 -0.250000  0.000000  0.428571    0.00510204  62 t-inv F
 -0.250000 -0.142857  0.428571    0.00510204  63 t-inv F
 -0.250000 -0.285714  0.428571    0.00510204  64 t-inv F
 -0.250000 -0.428571  0.428571    0.00510204  65 t-inv F
 -0.250000  0.428571  0.428571    0.00510204  66 t-inv F
 -0.250000  0.285714  0.428571    0.00510204  67 t-inv F
 -0.250000  0.142857  0.428571    0.00510204  68 t-inv F
 -0.500000  0.000000  0.428571    0.00255102  69 t-inv F
 -0.500000 -0.142857  0.428571    0.00255102  70 t-inv F
 -0.500000 -0.285714  0.428571    0.00255102  71 t-inv F
 -0.500000 -0.428571  0.428571    0.00255102  72 t-inv F
 -0.500000  0.428571  0.428571    0.00255102  73 t-inv F
 -0.500000  0.285714  0.428571    0.00255102  74 t-inv F
 -0.500000  0.142857  0.428571    0.00255102  75 t-inv F
 -0.142857  0.000000  0.000000    0.00255102   2 t-inv T
  0.000000  0.142857  0.000000    0.00255102   2 t-inv T
 -0.285714  0.000000  0.000000    0.00255102   3 t-inv T
  0.000000  0.285714  0.000000    0.00255102   3 t-inv T
 -0.428571  0.000000  0.000000    0.00255102   4 t-inv T
  0.000000  0.428571  0.000000    0.00255102   4 t-inv T
  0.000000 -0.250000  0.000000    0.00255102   5 t-inv T
  0.250000  0.000000  0.000000    0.00255102   5 t-inv T
 -0.142857 -0.250000  0.000000    0.00510204   6 t-inv T
  0.250000  0.142857  0.000000    0.00510204   6 t-inv T
 -0.285714 -0.250000  0.000000    0.00510204   7 t-inv T
  0.250000  0.285714  0.000000    0.00510204   7 t-inv T
 -0.428571 -0.250000  0.000000    0.00510204   8 t-inv T
  0.250000  0.428571  0.000000    0.00510204   8 t-inv T
 -0.142857 -0.500000  0.000000    0.00255102  10 t-inv T
  0.500000  0.142857  0.000000    0.00255102  10 t-inv T
 -0.285714 -0.500000  0.000000    0.00255102  11 t-inv T
  0.500000  0.285714  0.000000    0.00255102  11 t-inv T
 -0.428571 -0.500000  0.000000    0.00255102  12 t-inv T
  0.500000  0.428571  0.000000    0.00255102  12 t-inv T
  0.000000  0.000000 -0.142857    0.00510204  13 t-inv T
 -0.142857  0.000000 -0.142857    0.00255102  14 t-inv T
  0.000000  0.142857 -0.142857    0.00255102  14 t-inv T
 -0.285714  0.000000 -0.142857    0.00255102  15 t-inv T
  0.000000  0.285714 -0.142857    0.00255102  15 t-inv T
 -0.428571  0.000000 -0.142857    0.00255102  16 t-inv T
  0.000000  0.428571 -0.142857    0.00255102  16 t-inv T
  0.428571  0.000000 -0.142857    0.00255102  17 t-inv T
  0.000000 -0.428571 -0.142857    0.00255102  17 t-inv T
  0.285714  0.000000 -0.142857    0.00255102  18 t-inv T
  0.000000 -0.285714 -0.142857    0.00255102  18 t-inv T
  0.142857  0.000000 -0.142857    0.00255102  19 t-inv T
  0.000000 -0.142857 -0.142857    0.00255102  19 t-inv T
  0.000000 -0.250000 -0.142857    0.00510204  20 t-inv T
  0.250000  0.000000 -0.142857    0.00510204  20 t-inv T
 -0.142857 -0.250000 -0.142857    0.00510204  21 t-inv T
  0.250000  0.142857 -0.142857    0.00510204  21 t-inv T
 -0.285714 -0.250000 -0.142857    0.00510204  22 t-inv T
  0.250000  0.285714 -0.142857    0.00510204  22 t-inv T
 -0.428571 -0.250000 -0.142857    0.00510204  23 t-inv T
  0.250000  0.428571 -0.142857    0.00510204  23 t-inv T
  0.428571 -0.250000 -0.142857    0.00510204  24 t-inv T
  0.250000 -0.428571 -0.142857    0.00510204  24 t-inv T
  0.285714 -0.250000 -0.142857    0.00510204  25 t-inv T
  0.250000 -0.285714 -0.142857    0.00510204  25 t-inv T
  0.142857 -0.250000 -0.142857    0.00510204  26 t-inv T
  0.250000 -0.142857 -0.142857    0.00510204  26 t-inv T
  0.000000 -0.500000 -0.142857    0.00255102  27 t-inv T
  0.500000  0.000000 -0.142857    0.00255102  27 t-inv T
 -0.142857 -0.500000 -0.142857    0.00255102  28 t-inv T
  0.500000  0.142857 -0.142857    0.00255102  28 t-inv T
 -0.285714 -0.500000 -0.142857    0.00255102  29 t-inv T
  0.500000  0.285714 -0.142857    0.00255102  29 t-inv T
 -0.428571 -0.500000 -0.142857    0.00255102  30 t-inv T
  0.500000  0.428571 -0.142857    0.00255102  30 t-inv T
  0.428571 -0.500000 -0.142857    0.00255102  31 t-inv T
  0.500000 -0.428571 -0.142857    0.00255102  31 t-inv T
  0.285714 -0.500000 -0.142857    0.00255102  32 t-inv T
  0.500000 -0.285714 -0.142857    0.00255102  32 t-inv T
  0.142857 -0.500000 -0.142857    0.00255102  33 t-inv T
  0.500000 -0.142857 -0.142857    0.00255102  33 t-inv T
  0.000000  0.000000 -0.285714    0.00510204  34 t-inv T
 -0.142857  0.000000 -0.285714    0.00255102  35 t-inv T
  0.000000  0.142857 -0.285714    0.00255102  35 t-inv T
 -0.285714  0.000000 -0.285714    0.00255102  36 t-inv T
  0.000000  0.285714 -0.285714    0.00255102  36 t-inv T
 -0.428571  0.000000 -0.285714    0.00255102  37 t-inv T
  0.000000  0.428571 -0.285714    0.00255102  37 t-inv T
  0.428571  0.000000 -0.285714    0.00255102  38 t-inv T
  0.000000 -0.428571 -0.285714    0.00255102  38 t-inv T
  0.285714  0.000000 -0.285714    0.00255102  39 t-inv T
  0.000000 -0.285714 -0.285714    0.00255102  39 t-inv T
  0.142857  0.000000 -0.285714    0.00255102  40 t-inv T
  0.000000 -0.142857 -0.285714    0.00255102  40 t-inv T
  0.000000 -0.250000 -0.285714    0.00510204  41 t-inv T
  0.250000  0.000000 -0.285714    0.00510204  41 t-inv T
 -0.142857 -0.250000 -0.285714    0.00510204  42 t-inv T
  0.250000  0.142857 -0.285714    0.00510204  42 t-inv T
 -0.285714 -0.250000 -0.285714    0.00510204  43 t-inv T
  0.250000  0.285714 -0.285714    0.00510204  43 t-inv T
 -0.428571 -0.250000 -0.285714    0.00510204  44 t-inv T
  0.250000  0.428571 -0.285714    0.00510204  44 t-inv T
  0.428571 -0.250000 -0.285714    0.00510204  45 t-inv T
  0.250000 -0.428571 -0.285714    0.00510204  45 t-inv T
  0.285714 -0.250000 -0.285714    0.00510204  46 t-inv T
  0.250000 -0.285714 -0.285714    0.00510204  46 t-inv T
  0.142857 -0.250000 -0.285714    0.00510204  47 t-inv T
  0.250000 -0.142857 -0.285714    0.00510204  47 t-inv T
  0.000000 -0.500000 -0.285714    0.00255102  48 t-inv T
  0.500000  0.000000 -0.285714    0.00255102  48 t-inv T
 -0.142857 -0.500000 -0.285714    0.00255102  49 t-inv T
  0.500000  0.142857 -0.285714    0.00255102  49 t-inv T
 -0.285714 -0.500000 -0.285714    0.00255102  50 t-inv T
  0.500000  0.285714 -0.285714    0.00255102  50 t-inv T
 -0.428571 -0.500000 -0.285714    0.00255102  51 t-inv T
  0.500000  0.428571 -0.285714    0.00255102  51 t-inv T
  0.428571 -0.500000 -0.285714    0.00255102  52 t-inv T
  0.500000 -0.428571 -0.285714    0.00255102  52 t-inv T
  0.285714 -0.500000 -0.285714    0.00255102  53 t-inv T
  0.500000 -0.285714 -0.285714    0.00255102  53 t-inv T
  0.142857 -0.500000 -0.285714    0.00255102  54 t-inv T
  0.500000 -0.142857 -0.285714    0.00255102  54 t-inv T
  0.000000  0.000000 -0.428571    0.00510204  55 t-inv T
 -0.142857  0.000000 -0.428571    0.00255102  56 t-inv T
  0.000000  0.142857 -0.428571    0.00255102  56 t-inv T
 -0.285714  0.000000 -0.428571    0.00255102  57 t-inv T
  0.000000  0.285714 -0.428571    0.00255102  57 t-inv T
 -0.428571  0.000000 -0.428571    0.00255102  58 t-inv T
  0.000000  0.428571 -0.428571    0.00255102  58 t-inv T
  0.428571  0.000000 -0.428571    0.00255102  59 t-inv T
  0.000000 -0.428571 -0.428571    0.00255102  59 t-inv T
  0.285714  0.000000 -0.428571    0.00255102  60 t-inv T
  0.000000 -0.285714 -0.428571    0.00255102  60 t-inv T
  0.142857  0.000000 -0.428571    0.00255102  61 t-inv T
  0.000000 -0.142857 -0.428571    0.00255102  61 t-inv T
  0.000000 -0.250000 -0.428571    0.00510204  62 t-inv T
  0.250000  0.000000 -0.428571    0.00510204  62 t-inv T
 -0.142857 -0.250000 -0.428571    0.00510204  63 t-inv T
  0.250000  0.142857 -0.428571    0.00510204  63 t-inv T
 -0.285714 -0.250000 -0.428571    0.00510204  64 t-inv T
  0.250000  0.285714 -0.428571    0.00510204  64 t-inv T
 -0.428571 -0.250000 -0.428571    0.00510204  65 t-inv T
  0.250000  0.428571 -0.428571    0.00510204  65 t-inv T
  0.428571 -0.250000 -0.428571    0.00510204  66 t-inv T
  0.250000 -0.428571 -0.428571    0.00510204  66 t-inv T
  0.285714 -0.250000 -0.428571    0.00510204  67 t-inv T
  0.250000 -0.285714 -0.428571    0.00510204  67 t-inv T
  0.142857 -0.250000 -0.428571    0.00510204  68 t-inv T
  0.250000 -0.142857 -0.428571    0.00510204  68 t-inv T
  0.000000 -0.500000 -0.428571    0.00255102  69 t-inv T
  0.500000  0.000000 -0.428571    0.00255102  69 t-inv T
 -0.142857 -0.500000 -0.428571    0.00255102  70 t-inv T
  0.500000  0.142857 -0.428571    0.00255102  70 t-inv T
 -0.285714 -0.500000 -0.428571    0.00255102  71 t-inv T
  0.500000  0.285714 -0.428571    0.00255102  71 t-inv T
 -0.428571 -0.500000 -0.428571    0.00255102  72 t-inv T
  0.500000  0.428571 -0.428571    0.00255102  72 t-inv T
  0.428571 -0.500000 -0.428571    0.00255102  73 t-inv T
  0.500000 -0.428571 -0.428571    0.00255102  73 t-inv T
  0.285714 -0.500000 -0.428571    0.00255102  74 t-inv T
  0.500000 -0.285714 -0.428571    0.00255102  74 t-inv T
  0.142857 -0.500000 -0.428571    0.00255102  75 t-inv T
  0.500000 -0.142857 -0.428571    0.00255102  75 t-inv T
 -----------------------------------------------------------------------------
|                                                                             |
|           W    W    AA    RRRRR   N    N  II  N    N   GGGG   !!!           |
|           W    W   A  A   R    R  NN   N  II  NN   N  G    G  !!!           |
|           W    W  A    A  R    R  N N  N  II  N N  N  G       !!!           |
|           W WW W  AAAAAA  RRRRR   N  N N  II  N  N N  G  GGG   !            |
|           WW  WW  A    A  R   R   N   NN  II  N   NN  G    G                |
|           W    W  A    A  R    R  N    N  II  N    N   GGGG   !!!           |
|                                                                             |
|     The number of bands has been changed from the values supplied in        |
|     the INCAR file. This is a result of running the parallel version.       |
|     The orbitals not found in the WAVECAR file will be initialized with     |
|     random numbers, which is usually adequate. For correlated               |
|     calculations, however, you should redo the groundstate calculation.     |
|     I found NBANDS = 140. Now, NBANDS = 141.                                |
|                                                                             |
 -----------------------------------------------------------------------------



--------------------------------------------------------------------------------------------------------




 Dimension of arrays:
   k-points           NKPTS =    150   k-points in BZ     NKDIM =    364   number of bands    NBANDS=    141
   number of dos      NEDOS =   3000   number of ions     NIONS =     12
   non local maximal  LDIM  =      6   non local SUM 2l+1 LMDIM =     18
   total plane-waves  NPLWV = 125000
   max r-space proj   IRMAX =      1   max aug-charges    IRDMAX=  21002
   dimension x,y,z NGX =    50 NGY =   50 NGZ =   50
   dimension x,y,z NGXF=   100 NGYF=  100 NGZF=  100
   support grid    NGXF=   100 NGYF=  100 NGZF=  100
   ions per type =               4   2   6
   NGX,Y,Z   is equivalent  to a cutoff of  12.11, 12.11, 12.20 a.u.
   NGXF,Y,Z  is equivalent  to a cutoff of  24.22, 24.22, 24.39 a.u.

 SYSTEM =  unknown system                          
 POSCAR =  Cu4 Ge2 Se6                             

 Startparameter for this run:
   NWRITE =      2    write-flag & timer
   PREC   = accura    normal or accurate (medium, high low for compatibility)
   ISTART =      0    job   : 0-new  1-cont  2-samecut
   ICHARG =      2    charge: 1-file 2-atom 10-const
   ISPIN  =      1    spin polarized calculation?
   LNONCOLLINEAR =      F non collinear calculations
   LSORBIT =      F    spin-orbit coupling
   INIWAV =      1    electr: 0-lowe 1-rand  2-diag
   LASPH  =      T    aspherical Exc in radial PAW
 Electronic Relaxation 1
   ENCUT  =  500.0 eV  36.75 Ry    6.06 a.u.  12.51 12.51 12.43*2*pi/ulx,y,z
   ENINI  =  500.0     initial cutoff
   ENAUG  =  587.0 eV  augmentation charge cutoff
   NELM   =    200;   NELMIN=  2; NELMDL= -5     # of ELM steps 
   EDIFF  = 0.1E-05   stopping-criterion for ELM
   LREAL  =      F    real-space projection
   NLSPLINE    = F    spline interpolate recip. space projectors
   LCOMPAT=      F    compatible to vasp.4.4
   GGA_COMPAT  = T    GGA compatible to vasp.4.4-vasp.4.6
   LMAXPAW     = -100 max onsite density
   LMAXMIX     =    4 max onsite mixed and CHGCAR
   VOSKOWN=      0    Vosko Wilk Nusair interpolation
   ROPT   =    0.00000   0.00000   0.00000
 Ionic relaxation
   EDIFFG = -.1E-01   stopping-criterion for IOM
   NSW    =      0    number of steps for IOM
   NBLOCK =      1;   KBLOCK =      1    inner block; outer block 
   IBRION =     -1    ionic relax: 0-MD 1-quasi-New 2-CG
   NFREE  =      0    steps in history (QN), initial steepest desc. (CG)
   ISIF   =      0    stress and relaxation
   IWAVPR =     10    prediction:  0-non 1-charg 2-wave 3-comb
   ISYM   =      3    0-nonsym 1-usesym 2-fastsym
   LCORR  =      T    Harris-Foulkes like correction to forces

   POTIM  = 0.5000    time-step for ionic-motion
   TEIN   =    0.0    initial temperature
   TEBEG  =    0.0;   TEEND  =   0.0 temperature during run
   SMASS  =  -3.00    Nose mass-parameter (am)
   estimated Nose-frequenzy (Omega)   =  0.10E-29 period in steps = 0.13E+47 mass=  -0.108E-26a.u.
   SCALEE = 1.0000    scale energy and forces
   NPACO  =    256;   APACO  = 10.0  distance and # of slots for P.C.
   PSTRESS=    0.0 pullay stress

  Mass of Ions in am
   POMASS =  63.55 72.61 78.96
  Ionic Valenz
   ZVAL   =  11.00 14.00  6.00
  Atomic Wigner-Seitz radii
   RWIGS  =  -1.00 -1.00 -1.00
  virtual crystal weights 
   VCA    =   1.00  1.00  1.00
   NELECT =     108.0000    total number of electrons
   NUPDOWN=      -1.0000    fix difference up-down

 DOS related values:
   EMIN   =  10.00;   EMAX   =-10.00  energy-range for DOS
   EFERMI =   0.00;   METHOD = LEGACY      
   ISMEAR =     0;   SIGMA  =   0.02  broadening in eV -4-tet -1-fermi 0-gaus

 Electronic relaxation 2 (details)
   IALGO  =     38    algorithm
   LDIAG  =      T    sub-space diagonalisation (order eigenvalues)
   LSUBROT=      F    optimize rotation matrix (better conditioning)
   TURBO    =      0    0=normal 1=particle mesh
   IRESTART =      0    0=no restart 2=restart with 2 vectors
   NREBOOT  =      0    no. of reboots
   NMIN     =      0    reboot dimension
   EREF     =   0.00    reference energy to select bands
   IMIX   =      1    mixing-type and parameters
     AMIX     =   0.40;   BMIX     =  1.00
     AMIX_MAG =   1.60;   BMIX_MAG =  1.00
     AMIN     =   0.10
     WC   =   100.;   INIMIX=   1;  MIXPRE=   1;  MAXMIX= -45

 Intra band minimization:
   WEIMIN = 0.0000     energy-eigenvalue tresh-hold
   EBREAK =  0.18E-08  absolut break condition
   DEPER  =   0.30     relativ break condition  

   TIME   =   0.30     timestep for ELM

  volume/ion in A,a.u.               =      21.84       147.35
  Fermi-wavevector in a.u.,A,eV,Ry     =   1.218342  2.302333 20.195910  1.484357
  Thomas-Fermi vector in A             =   2.353632

 Write flags
   LWAVE        =      T    write WAVECAR
   LDOWNSAMPLE  =      F    k-point downsampling of WAVECAR
   LCHARG       =      T    write CHGCAR
   LVTOT        =      F    write LOCPOT, total local potential
   LVHAR        =      F    write LOCPOT, Hartree potential only
   LELF         =      F    write electronic localiz. function (ELF)
   LORBIT       =     14    0 simple, 1 ext, 2 COOP (PROOUT), +10 PAW based schemes


 Dipole corrections
   LMONO  =      F    monopole corrections only (constant potential shift)
   LDIPOL =      F    correct potential (dipole corrections)
   IDIPOL =      0    1-x, 2-y, 3-z, 4-all directions 
   EPSILON=  1.0000000 bulk dielectric constant

 Exchange correlation treatment:
   GGA     =    PE    GGA type
   LEXCH   =     8    internal setting for exchange type
   LIBXC   =     F    Libxc                    
   VOSKOWN =     0    Vosko Wilk Nusair interpolation
   EXXOEP  =     0    0=HF, 1=EXX-LHF (local Hartree Fock) 2=EXX OEP
   LHFCALC =     T    Hartree Fock is set to
   LSYMGRAD=     F    symmetrize gradient (conserves proper symmetry)
   PRECFOCK=fast      Normal, Fast or Accurate (Low or Medium for compatibility)
   LRHFCALC=     F    long range Hartree Fock
   LRSCOR  =     F    long range correlation only (use DFT for short range part)
   LTHOMAS =     F    Thomas Fermi screening in HF
   LMODELHF=     F    short range full HF, long range fraction AEXX
   FOCKCORR=     1    mode to apply convergence corrections
   LFOCKACE=     T    use Adeptively-Compressed-Exchange operator
   ENCUT4O =  -1.0   cutoff for four orbital integrals eV
   LMAXFOCK=     4    L truncation for augmentation on plane wave grid
   LMAXFOCKAE=  -1    L truncation for all-electron charge restoration on plane wave grid
   NMAXFOCKAE=   1    number of basis functions for all-electron charge restoration
   LFOCKAEDFT=     F  apply the AE augmentation even for DFT
   NKREDX  =     1    reduce k-point grid by
   NKREDY  =     1    reduce k-point grid by
   NKREDZ  =     1    reduce k-point grid by
   SHIFTRED=     F    shift reduced grid of Gamma
   HFKIDENT=     F    idential grid for each k-point
   ODDONLY =     F    use only odd q-grid points
   EVENONLY=     F    use only even q-grid points
   HFALPHA =   -1.0000 decay constant for conv. correction
   MCALPHA =    0.0000 extent of test-charge in conv. correction in multipole expansion
   AEXX    =    0.2500 exact exchange contribution
   HFSCREEN=    0.2080 screening length (either q_TF or 0.3 A-1)
   HFSCREENC=   0.2080 screening length for correlation (either q_TF or 0.3 A-1)
   HFRCUT  =    0.0000 spherical cutoff for potential kernel
   ALDAX   =    0.7500 LDA exchange part
   AGGAX   =    0.7500 GGA exchange part
   ALDAC   =    1.0000 LDA correlation
   AGGAC   =    1.0000 GGA correlation
   ENCUTFOCK=  -1.0 apply spherical cutoff to Coloumb kernel
   NBANDSGWLOW=     1    first orbital included in HF term
   NBLOCK_FOCK=    64    blocking factor in FOCK_ACC

 Linear response parameters
   LEPSILON=     F    determine dielectric tensor
   LRPA    =     F    only Hartree local field effects (RPA)
   LNABLA  =     F    use nabla operator in PAW spheres
   LVEL    =     F    velocity operator in full k-point grid
   CSHIFT  =0.1000    complex shift for real part using Kramers Kronig
   OMEGAMAX=  -1.0    maximum frequency
   DEG_THRESHOLD= 0.2000000E-02 threshold for treating states as degnerate
   RTIME   =   -0.100 relaxation time in fs
  (WPLASMAI=    0.000 imaginary part of plasma frequency in eV, 0.658/RTIME)
   DFIELD  = 0.0000000 0.0000000 0.0000000 field for delta impulse in time

  Optional k-point grid parameters
   LKPOINTS_OPT  =     F    use optional k-point grid
   KPOINTS_OPT_MODE=     1    mode for optional k-point grid

 Orbital magnetization related:
   ORBITALMAG=     F  switch on orbital magnetization
   LCHIMAG   =     F  perturbation theory with respect to B field
   DQ        =  0.001000  dq finite difference perturbation B field
   LLRAUG    =     F  two centre corrections for induced B field
   LBONE     =     F  B-component reconstruction in AE one-centre
   LVGVCALC  =     T  calculate vGv susceptibility
   LVGVAPPL  =     F  apply vGv susceptibility instead of pGv for G=0

 Random number generation:
   RANDOM_GENERATOR = DEFAULT
   PCG_SEED         = not used


--------------------------------------------------------------------------------------------------------


 Static calculation
 charge density and potential will be updated during run
 non-spin polarized calculation
 Variant of blocked Davidson
 Davidson routine will perform the subspace rotation
 perform sub-space diagonalisation
    after iterative eigenvector-optimisation
 Kerker-like  mixing scheme
 using additional bands           87
 reciprocal scheme for non local part
 use partial core corrections
 calculate Harris-corrections to forces   (improved forces if not selfconsistent)
 use gradient corrections 
 use of overlap-Matrix (Vanderbilt PP)
 Gauss-broadening in eV      SIGMA  =   0.02


--------------------------------------------------------------------------------------------------------


  energy-cutoff  :      500.00
  volume of cell :      262.02
      direct lattice vectors                 reciprocal lattice vectors
     3.403488257  5.959540085  0.000000000     0.146908102  0.083899092  0.049463472
    -3.403488257  5.959540085  0.000000000    -0.146908102  0.083899092 -0.049463472
    -2.174765060  0.000000000  6.459122124     0.000000000 -0.000000000  0.154819801

  length of vectors
     6.862933071  6.862933071  6.815413537     0.176260271  0.176260271  0.154819801



 k-points in units of 2pi/SCALE and weight: M -> L -> V                             
   0.00000000  0.00000000  0.00000000       0.005
   0.02098687  0.01198558  0.00706621       0.010
   0.04197374  0.02397117  0.01413242       0.010
   0.06296062  0.03595675  0.02119863       0.010
  -0.03672703  0.02097477 -0.01236587       0.010
  -0.01574015  0.03296036 -0.00529966       0.020
   0.00524672  0.04494594  0.00176655       0.020
   0.02623359  0.05693153  0.00883276       0.020
  -0.07345405  0.04194955 -0.02473174       0.005
  -0.05246718  0.05393513 -0.01766553       0.010
  -0.03148031  0.06592071 -0.01059932       0.010
  -0.01049344  0.07790630 -0.00353311       0.010
   0.00000000  0.00000000  0.02211711       0.010
   0.02098687  0.01198558  0.02918332       0.010
   0.04197374  0.02397117  0.03624954       0.010
   0.06296062  0.03595675  0.04331575       0.010
  -0.06296062 -0.03595675  0.00091848       0.010
  -0.04197374 -0.02397117  0.00798469       0.010
  -0.02098687 -0.01198558  0.01505090       0.010
  -0.03672703  0.02097477  0.00975125       0.020
  -0.01574015  0.03296036  0.01681746       0.020
   0.00524672  0.04494594  0.02388367       0.020
   0.02623359  0.05693153  0.03094988       0.020
  -0.09968764 -0.01498198 -0.01144738       0.020
  -0.07870077 -0.00299640 -0.00438117       0.020
  -0.05771390  0.00898919  0.00268504       0.020
  -0.07345405  0.04194955 -0.00261462       0.010
  -0.05246718  0.05393513  0.00445159       0.010
  -0.03148031  0.06592071  0.01151780       0.010
  -0.01049344  0.07790630  0.01858401       0.010
  -0.13641467  0.00599279 -0.02381325       0.010
  -0.11542779  0.01797838 -0.01674704       0.010
  -0.09444092  0.02996396 -0.00968083       0.010
   0.00000000  0.00000000  0.04423423       0.010
   0.02098687  0.01198558  0.05130044       0.010
   0.04197374  0.02397117  0.05836665       0.010
   0.06296062  0.03595675  0.06543286       0.010
  -0.06296062 -0.03595675  0.02303560       0.010
  -0.04197374 -0.02397117  0.03010181       0.010
  -0.02098687 -0.01198558  0.03716802       0.010
  -0.03672703  0.02097477  0.03186836       0.020
  -0.01574015  0.03296036  0.03893457       0.020
   0.00524672  0.04494594  0.04600078       0.020
   0.02623359  0.05693153  0.05306699       0.020
  -0.09968764 -0.01498198  0.01066973       0.020
  -0.07870077 -0.00299640  0.01773594       0.020
  -0.05771390  0.00898919  0.02480215       0.020
  -0.07345405  0.04194955  0.01950249       0.010
  -0.05246718  0.05393513  0.02656870       0.010
  -0.03148031  0.06592071  0.03363491       0.010
  -0.01049344  0.07790630  0.04070112       0.010
  -0.13641467  0.00599279 -0.00169614       0.010
  -0.11542779  0.01797838  0.00537007       0.010
  -0.09444092  0.02996396  0.01243628       0.010
   0.00000000  0.00000000  0.06635134       0.010
   0.02098687  0.01198558  0.07341755       0.010
   0.04197374  0.02397117  0.08048376       0.010
   0.06296062  0.03595675  0.08754997       0.010
  -0.06296062 -0.03595675  0.04515271       0.010
  -0.04197374 -0.02397117  0.05221892       0.010
  -0.02098687 -0.01198558  0.05928513       0.010
  -0.03672703  0.02097477  0.05398548       0.020
  -0.01574015  0.03296036  0.06105169       0.020
   0.00524672  0.04494594  0.06811790       0.020
   0.02623359  0.05693153  0.07518411       0.020
  -0.09968764 -0.01498198  0.03278684       0.020
  -0.07870077 -0.00299640  0.03985305       0.020
  -0.05771390  0.00898919  0.04691926       0.020
  -0.07345405  0.04194955  0.04161961       0.010
  -0.05246718  0.05393513  0.04868582       0.010
  -0.03148031  0.06592071  0.05575203       0.010
  -0.01049344  0.07790630  0.06281824       0.010
  -0.13641467  0.00599279  0.02042098       0.010
  -0.11542779  0.01797838  0.02748719       0.010
  -0.09444092  0.02996396  0.03455340       0.010
  -0.00000000  0.05768063  0.07740990       0.000
  -0.00000000  0.06030247  0.07740990       0.000
   0.00000000  0.06292432  0.07740990       0.000
   0.00000000  0.06554617  0.07740990       0.000
   0.00000000  0.06816801  0.07740990       0.000
  -0.00000000  0.07078986  0.07740990       0.000
  -0.00000000  0.07341171  0.07740990       0.000
   0.00000000  0.07603355  0.07740990       0.000
  -0.00000000  0.07865540  0.07740990       0.000
   0.00000000  0.08127725  0.07740990       0.000
   0.00000000  0.08389909  0.07740990       0.000
   0.00216041  0.08266528  0.07813730       0.000
   0.00432083  0.08143147  0.07886471       0.000
   0.00648124  0.08019766  0.07959211       0.000
   0.00864165  0.07896385  0.08031952       0.000
   0.01080207  0.07773004  0.08104692       0.000
   0.01296248  0.07649623  0.08177432       0.000
   0.01512289  0.07526242  0.08250173       0.000
   0.01728331  0.07402861  0.08322913       0.000
   0.01944372  0.07279480  0.08395654       0.000
   0.02160413  0.07156099  0.08468394       0.000
   0.02376455  0.07032718  0.08541134       0.000
   0.02592496  0.06909337  0.08613875       0.000
   0.02808537  0.06785956  0.08686615       0.000
   0.03024579  0.06662575  0.08759356       0.000
   0.03240620  0.06539194  0.08832096       0.000
   0.03456661  0.06415813  0.08904836       0.000
   0.03672703  0.06292432  0.08977577       0.000
   0.03888744  0.06169051  0.09050317       0.000
   0.04104785  0.06045670  0.09123058       0.000
   0.04320827  0.05922289  0.09195798       0.000
   0.04536868  0.05798908  0.09268538       0.000
   0.04752909  0.05675527  0.09341279       0.000
   0.04968951  0.05552146  0.09414019       0.000
   0.05184992  0.05428765  0.09486760       0.000
   0.05401033  0.05305384  0.09559500       0.000
   0.05617074  0.05182003  0.09632240       0.000
   0.05833116  0.05058622  0.09704981       0.000
   0.06049157  0.04935241  0.09777721       0.000
   0.06265198  0.04811860  0.09850462       0.000
   0.06481240  0.04688479  0.09923202       0.000
   0.06697281  0.04565098  0.09995942       0.000
   0.06913322  0.04441717  0.10068683       0.000
   0.07129364  0.04318336  0.10141423       0.000
   0.07345405  0.04194955  0.10214164       0.000
   0.07345405  0.04194955  0.09956131       0.000
   0.07345405  0.04194955  0.09698098       0.000
   0.07345405  0.04194955  0.09440065       0.000
   0.07345405  0.04194955  0.09182032       0.000
   0.07345405  0.04194955  0.08923999       0.000
   0.07345405  0.04194955  0.08665966       0.000
   0.07345405  0.04194955  0.08407933       0.000
   0.07345405  0.04194955  0.08149900       0.000
   0.07345405  0.04194955  0.07891867       0.000
   0.07345405  0.04194955  0.07633834       0.000
   0.07345405  0.04194955  0.07375801       0.000
   0.07345405  0.04194955  0.07117768       0.000
   0.07345405  0.04194955  0.06859735       0.000
   0.07345405  0.04194955  0.06601702       0.000
   0.07345405  0.04194955  0.06343669       0.000
   0.07345405  0.04194955  0.06085636       0.000
   0.07345405  0.04194955  0.05827603       0.000
   0.07345405  0.04194955  0.05569570       0.000
   0.07345405  0.04194955  0.05311537       0.000
   0.07345405  0.04194955  0.05053504       0.000
   0.07345405  0.04194955  0.04795471       0.000
   0.07345405  0.04194955  0.04537438       0.000
   0.07345405  0.04194955  0.04279405       0.000
   0.07345405  0.04194955  0.04021372       0.000
   0.07345405  0.04194955  0.03763339       0.000
   0.07345405  0.04194955  0.03505306       0.000
   0.07345405  0.04194955  0.03247273       0.000
   0.07345405  0.04194955  0.02989240       0.000
   0.07345405  0.04194955  0.02731207       0.000
   0.07345405  0.04194955  0.02473174       0.000

 k-points in reciprocal lattice and weights: M -> L -> V                             
   0.00000000  0.00000000  0.00000000       0.005
   0.14285714  0.00000000  0.00000000       0.010
   0.28571429  0.00000000  0.00000000       0.010
   0.42857143  0.00000000  0.00000000       0.010
   0.00000000  0.25000000  0.00000000       0.010
   0.14285714  0.25000000  0.00000000       0.020
   0.28571429  0.25000000  0.00000000       0.020
   0.42857143  0.25000000  0.00000000       0.020
   0.00000000  0.50000000  0.00000000       0.005
   0.14285714  0.50000000  0.00000000       0.010
   0.28571429  0.50000000  0.00000000       0.010
   0.42857143  0.50000000  0.00000000       0.010
   0.00000000  0.00000000  0.14285714       0.010
   0.14285714  0.00000000  0.14285714       0.010
   0.28571429  0.00000000  0.14285714       0.010
   0.42857143  0.00000000  0.14285714       0.010
  -0.42857143  0.00000000  0.14285714       0.010
  -0.28571429  0.00000000  0.14285714       0.010
  -0.14285714  0.00000000  0.14285714       0.010
   0.00000000  0.25000000  0.14285714       0.020
   0.14285714  0.25000000  0.14285714       0.020
   0.28571429  0.25000000  0.14285714       0.020
   0.42857143  0.25000000  0.14285714       0.020
  -0.42857143  0.25000000  0.14285714       0.020
  -0.28571429  0.25000000  0.14285714       0.020
  -0.14285714  0.25000000  0.14285714       0.020
   0.00000000  0.50000000  0.14285714       0.010
   0.14285714  0.50000000  0.14285714       0.010
   0.28571429  0.50000000  0.14285714       0.010
   0.42857143  0.50000000  0.14285714       0.010
  -0.42857143  0.50000000  0.14285714       0.010
  -0.28571429  0.50000000  0.14285714       0.010
  -0.14285714  0.50000000  0.14285714       0.010
   0.00000000  0.00000000  0.28571429       0.010
   0.14285714  0.00000000  0.28571429       0.010
   0.28571429  0.00000000  0.28571429       0.010
   0.42857143  0.00000000  0.28571429       0.010
  -0.42857143  0.00000000  0.28571429       0.010
  -0.28571429  0.00000000  0.28571429       0.010
  -0.14285714  0.00000000  0.28571429       0.010
   0.00000000  0.25000000  0.28571429       0.020
   0.14285714  0.25000000  0.28571429       0.020
   0.28571429  0.25000000  0.28571429       0.020
   0.42857143  0.25000000  0.28571429       0.020
  -0.42857143  0.25000000  0.28571429       0.020
  -0.28571429  0.25000000  0.28571429       0.020
  -0.14285714  0.25000000  0.28571429       0.020
   0.00000000  0.50000000  0.28571429       0.010
   0.14285714  0.50000000  0.28571429       0.010
   0.28571429  0.50000000  0.28571429       0.010
   0.42857143  0.50000000  0.28571429       0.010
  -0.42857143  0.50000000  0.28571429       0.010
  -0.28571429  0.50000000  0.28571429       0.010
  -0.14285714  0.50000000  0.28571429       0.010
   0.00000000  0.00000000  0.42857143       0.010
   0.14285714  0.00000000  0.42857143       0.010
   0.28571429  0.00000000  0.42857143       0.010
   0.42857143  0.00000000  0.42857143       0.010
  -0.42857143  0.00000000  0.42857143       0.010
  -0.28571429  0.00000000  0.42857143       0.010
  -0.14285714  0.00000000  0.42857143       0.010
   0.00000000  0.25000000  0.42857143       0.020
   0.14285714  0.25000000  0.42857143       0.020
   0.28571429  0.25000000  0.42857143       0.020
   0.42857143  0.25000000  0.42857143       0.020
  -0.42857143  0.25000000  0.42857143       0.020
  -0.28571429  0.25000000  0.42857143       0.020
  -0.14285714  0.25000000  0.42857143       0.020
   0.00000000  0.50000000  0.42857143       0.010
   0.14285714  0.50000000  0.42857143       0.010
   0.28571429  0.50000000  0.42857143       0.010
   0.42857143  0.50000000  0.42857143       0.010
  -0.42857143  0.50000000  0.42857143       0.010
  -0.28571429  0.50000000  0.42857143       0.010
  -0.14285714  0.50000000  0.42857143       0.010
   0.34375000  0.34375000  0.50000000       0.000
   0.35937500  0.35937500  0.50000000       0.000
   0.37500000  0.37500000  0.50000000       0.000
   0.39062500  0.39062500  0.50000000       0.000
   0.40625000  0.40625000  0.50000000       0.000
   0.42187500  0.42187500  0.50000000       0.000
   0.43750000  0.43750000  0.50000000       0.000
   0.45312500  0.45312500  0.50000000       0.000
   0.46875000  0.46875000  0.50000000       0.000
   0.48437500  0.48437500  0.50000000       0.000
   0.50000000  0.50000000  0.50000000       0.000
   0.50000000  0.48529412  0.50000000       0.000
   0.50000000  0.47058824  0.50000000       0.000
   0.50000000  0.45588235  0.50000000       0.000
   0.50000000  0.44117647  0.50000000       0.000
   0.50000000  0.42647059  0.50000000       0.000
   0.50000000  0.41176471  0.50000000       0.000
   0.50000000  0.39705882  0.50000000       0.000
   0.50000000  0.38235294  0.50000000       0.000
   0.50000000  0.36764706  0.50000000       0.000
   0.50000000  0.35294118  0.50000000       0.000
   0.50000000  0.33823529  0.50000000       0.000
   0.50000000  0.32352941  0.50000000       0.000
   0.50000000  0.30882353  0.50000000       0.000
   0.50000000  0.29411765  0.50000000       0.000
   0.50000000  0.27941176  0.50000000       0.000
   0.50000000  0.26470588  0.50000000       0.000
   0.50000000  0.25000000  0.50000000       0.000
   0.50000000  0.23529412  0.50000000       0.000
   0.50000000  0.22058824  0.50000000       0.000
   0.50000000  0.20588235  0.50000000       0.000
   0.50000000  0.19117647  0.50000000       0.000
   0.50000000  0.17647059  0.50000000       0.000
   0.50000000  0.16176471  0.50000000       0.000
   0.50000000  0.14705882  0.50000000       0.000
   0.50000000  0.13235294  0.50000000       0.000
   0.50000000  0.11764706  0.50000000       0.000
   0.50000000  0.10294118  0.50000000       0.000
   0.50000000  0.08823529  0.50000000       0.000
   0.50000000  0.07352941  0.50000000       0.000
   0.50000000  0.05882353  0.50000000       0.000
   0.50000000  0.04411765  0.50000000       0.000
   0.50000000  0.02941176  0.50000000       0.000
   0.50000000  0.01470588  0.50000000       0.000
   0.50000000  0.00000000  0.50000000       0.000
   0.50000000  0.00000000  0.48333333       0.000
   0.50000000  0.00000000  0.46666667       0.000
   0.50000000  0.00000000  0.45000000       0.000
   0.50000000  0.00000000  0.43333333       0.000
   0.50000000  0.00000000  0.41666667       0.000
   0.50000000  0.00000000  0.40000000       0.000
   0.50000000  0.00000000  0.38333333       0.000
   0.50000000  0.00000000  0.36666667       0.000
   0.50000000  0.00000000  0.35000000       0.000
   0.50000000  0.00000000  0.33333333       0.000
   0.50000000  0.00000000  0.31666667       0.000
   0.50000000  0.00000000  0.30000000       0.000
   0.50000000  0.00000000  0.28333333       0.000
   0.50000000  0.00000000  0.26666667       0.000
   0.50000000  0.00000000  0.25000000       0.000
   0.50000000  0.00000000  0.23333333       0.000
   0.50000000  0.00000000  0.21666667       0.000
   0.50000000  0.00000000  0.20000000       0.000
   0.50000000  0.00000000  0.18333333       0.000
   0.50000000  0.00000000  0.16666667       0.000
   0.50000000  0.00000000  0.15000000       0.000
   0.50000000  0.00000000  0.13333333       0.000
   0.50000000  0.00000000  0.11666667       0.000
   0.50000000  0.00000000  0.10000000       0.000
   0.50000000  0.00000000  0.08333333       0.000
   0.50000000  0.00000000  0.06666667       0.000
   0.50000000  0.00000000  0.05000000       0.000
   0.50000000  0.00000000  0.03333333       0.000
   0.50000000  0.00000000  0.01666667       0.000
   0.50000000  0.00000000 -0.00000000       0.000

 position of ions in fractional coordinates (direct lattice) 
   0.66705818  0.82735048  0.00575888
   0.17264952  0.33294182  0.50575888
   0.84803761  0.97926242  0.50948195
   0.02073758  0.15196239  0.00948195
   0.49167933  0.68001935  0.48611071
   0.31998065  0.50832067  0.98611071
   0.12744751  0.04142428  0.38415272
   0.95857572  0.87255249  0.88415272
   0.29980573  0.20959850  0.87835164
   0.79040150  0.70019427  0.37835164
   0.46596950  0.37162993  0.36932967
   0.62837007  0.53403050  0.86932967

 position of ions in cartesian coordinates  (Angst):
  -0.55807715  8.90598831  0.03719728
  -1.64545968  3.01309186  3.26675834
  -1.55462563 10.88986776  3.29080611
  -0.46724310  1.02921241  0.06124505
  -1.69818962  6.98278521  3.13984842
  -2.78557215  4.93629496  6.36940949
  -0.54266287  1.00639823  2.48128933
  -1.63004540 10.91268194  5.71085039
  -1.60318922  3.03581494  5.67338052
  -0.51580669  8.88326523  2.44381946
  -0.48212166  4.99170739  2.38554547
  -1.56950419  6.92737278  5.61510653



--------------------------------------------------------------------------------------------------------


 k-point   1 :   0.0000 0.0000 0.0000  plane waves:    6635
 k-point   2 :   0.1429 0.0000 0.0000  plane waves:    6661
 k-point   3 :   0.2857 0.0000 0.0000  plane waves:    6667
 k-point   4 :   0.4286 0.0000 0.0000  plane waves:    6660
 k-point   5 :   0.0000 0.2500 0.0000  plane waves:    6656
 k-point   6 :   0.1429 0.2500 0.0000  plane waves:    6675
 k-point   7 :   0.2857 0.2500 0.0000  plane waves:    6664
 k-point   8 :   0.4286 0.2500 0.0000  plane waves:    6664
 k-point   9 :   0.0000 0.5000 0.0000  plane waves:    6660
 k-point  10 :   0.1429 0.5000 0.0000  plane waves:    6647
 k-point  11 :   0.2857 0.5000 0.0000  plane waves:    6662
 k-point  12 :   0.4286 0.5000 0.0000  plane waves:    6638
 k-point  13 :   0.0000 0.0000 0.1429  plane waves:    6671
 k-point  14 :   0.1429 0.0000 0.1429  plane waves:    6674
 k-point  15 :   0.2857 0.0000 0.1429  plane waves:    6664
 k-point  16 :   0.4286 0.0000 0.1429  plane waves:    6647
 k-point  17 :  -0.4286 0.0000 0.1429  plane waves:    6647
 k-point  18 :  -0.2857 0.0000 0.1429  plane waves:    6660
 k-point  19 :  -0.1429 0.0000 0.1429  plane waves:    6675
 k-point  20 :   0.0000 0.2500 0.1429  plane waves:    6663
 k-point  21 :   0.1429 0.2500 0.1429  plane waves:    6669
 k-point  22 :   0.2857 0.2500 0.1429  plane waves:    6665
 k-point  23 :   0.4286 0.2500 0.1429  plane waves:    6649
 k-point  24 :  -0.4286 0.2500 0.1429  plane waves:    6647
 k-point  25 :  -0.2857 0.2500 0.1429  plane waves:    6647
 k-point  26 :  -0.1429 0.2500 0.1429  plane waves:    6642
 k-point  27 :   0.0000 0.5000 0.1429  plane waves:    6641
 k-point  28 :   0.1429 0.5000 0.1429  plane waves:    6652
 k-point  29 :   0.2857 0.5000 0.1429  plane waves:    6661
 k-point  30 :   0.4286 0.5000 0.1429  plane waves:    6646
 k-point  31 :  -0.4286 0.5000 0.1429  plane waves:    6649
 k-point  32 :  -0.2857 0.5000 0.1429  plane waves:    6652
 k-point  33 :  -0.1429 0.5000 0.1429  plane waves:    6637
 k-point  34 :   0.0000 0.0000 0.2857  plane waves:    6678
 k-point  35 :   0.1429 0.0000 0.2857  plane waves:    6669
 k-point  36 :   0.2857 0.0000 0.2857  plane waves:    6643
 k-point  37 :   0.4286 0.0000 0.2857  plane waves:    6631
 k-point  38 :  -0.4286 0.0000 0.2857  plane waves:    6654
 k-point  39 :  -0.2857 0.0000 0.2857  plane waves:    6649
 k-point  40 :  -0.1429 0.0000 0.2857  plane waves:    6667
 k-point  41 :   0.0000 0.2500 0.2857  plane waves:    6653
 k-point  42 :   0.1429 0.2500 0.2857  plane waves:    6671
 k-point  43 :   0.2857 0.2500 0.2857  plane waves:    6652
 k-point  44 :   0.4286 0.2500 0.2857  plane waves:    6640
 k-point  45 :  -0.4286 0.2500 0.2857  plane waves:    6650
 k-point  46 :  -0.2857 0.2500 0.2857  plane waves:    6663
 k-point  47 :  -0.1429 0.2500 0.2857  plane waves:    6659
 k-point  48 :   0.0000 0.5000 0.2857  plane waves:    6647
 k-point  49 :   0.1429 0.5000 0.2857  plane waves:    6653
 k-point  50 :   0.2857 0.5000 0.2857  plane waves:    6652
 k-point  51 :   0.4286 0.5000 0.2857  plane waves:    6636
 k-point  52 :  -0.4286 0.5000 0.2857  plane waves:    6638
 k-point  53 :  -0.2857 0.5000 0.2857  plane waves:    6641
 k-point  54 :  -0.1429 0.5000 0.2857  plane waves:    6636
 k-point  55 :   0.0000 0.0000 0.4286  plane waves:    6668
 k-point  56 :   0.1429 0.0000 0.4286  plane waves:    6653
 k-point  57 :   0.2857 0.0000 0.4286  plane waves:    6653
 k-point  58 :   0.4286 0.0000 0.4286  plane waves:    6639
 k-point  59 :  -0.4286 0.0000 0.4286  plane waves:    6633
 k-point  60 :  -0.2857 0.0000 0.4286  plane waves:    6657
 k-point  61 :  -0.1429 0.0000 0.4286  plane waves:    6676
 k-point  62 :   0.0000 0.2500 0.4286  plane waves:    6659
 k-point  63 :   0.1429 0.2500 0.4286  plane waves:    6655
 k-point  64 :   0.2857 0.2500 0.4286  plane waves:    6647
 k-point  65 :   0.4286 0.2500 0.4286  plane waves:    6631
 k-point  66 :  -0.4286 0.2500 0.4286  plane waves:    6635
 k-point  67 :  -0.2857 0.2500 0.4286  plane waves:    6645
 k-point  68 :  -0.1429 0.2500 0.4286  plane waves:    6657
 k-point  69 :   0.0000 0.5000 0.4286  plane waves:    6640
 k-point  70 :   0.1429 0.5000 0.4286  plane waves:    6638
 k-point  71 :   0.2857 0.5000 0.4286  plane waves:    6624
 k-point  72 :   0.4286 0.5000 0.4286  plane waves:    6637
 k-point  73 :  -0.4286 0.5000 0.4286  plane waves:    6632
 k-point  74 :  -0.2857 0.5000 0.4286  plane waves:    6627
 k-point  75 :  -0.1429 0.5000 0.4286  plane waves:    6641
 k-point  76 :   0.3438 0.3438 0.5000  plane waves:    6634
 k-point  77 :   0.3594 0.3594 0.5000  plane waves:    6642
 k-point  78 :   0.3750 0.3750 0.5000  plane waves:    6640
 k-point  79 :   0.3906 0.3906 0.5000  plane waves:    6642
 k-point  80 :   0.4062 0.4062 0.5000  plane waves:    6640
 k-point  81 :   0.4219 0.4219 0.5000  plane waves:    6634
 k-point  82 :   0.4375 0.4375 0.5000  plane waves:    6634
 k-point  83 :   0.4531 0.4531 0.5000  plane waves:    6622
 k-point  84 :   0.4688 0.4688 0.5000  plane waves:    6622
 k-point  85 :   0.4844 0.4844 0.5000  plane waves:    6624
 k-point  86 :   0.5000 0.5000 0.5000  plane waves:    6624
 k-point  87 :   0.5000 0.4853 0.5000  plane waves:    6626
 k-point  88 :   0.5000 0.4706 0.5000  plane waves:    6628
 k-point  89 :   0.5000 0.4559 0.5000  plane waves:    6632
 k-point  90 :   0.5000 0.4412 0.5000  plane waves:    6631
 k-point  91 :   0.5000 0.4265 0.5000  plane waves:    6628
 k-point  92 :   0.5000 0.4118 0.5000  plane waves:    6624
 k-point  93 :   0.5000 0.3971 0.5000  plane waves:    6619
 k-point  94 :   0.5000 0.3824 0.5000  plane waves:    6619
 k-point  95 :   0.5000 0.3676 0.5000  plane waves:    6622
 k-point  96 :   0.5000 0.3529 0.5000  plane waves:    6621
 k-point  97 :   0.5000 0.3382 0.5000  plane waves:    6617
 k-point  98 :   0.5000 0.3235 0.5000  plane waves:    6622
 k-point  99 :   0.5000 0.3088 0.5000  plane waves:    6622
 k-point 100 :   0.5000 0.2941 0.5000  plane waves:    6626
 k-point 101 :   0.5000 0.2794 0.5000  plane waves:    6629
 k-point 102 :   0.5000 0.2647 0.5000  plane waves:    6627
 k-point 103 :   0.5000 0.2500 0.5000  plane waves:    6632
 k-point 104 :   0.5000 0.2353 0.5000  plane waves:    6628
 k-point 105 :   0.5000 0.2206 0.5000  plane waves:    6632
 k-point 106 :   0.5000 0.2059 0.5000  plane waves:    6628
 k-point 107 :   0.5000 0.1912 0.5000  plane waves:    6627
 k-point 108 :   0.5000 0.1765 0.5000  plane waves:    6634
 k-point 109 :   0.5000 0.1618 0.5000  plane waves:    6636
 k-point 110 :   0.5000 0.1471 0.5000  plane waves:    6640
 k-point 111 :   0.5000 0.1324 0.5000  plane waves:    6641
 k-point 112 :   0.5000 0.1176 0.5000  plane waves:    6642
 k-point 113 :   0.5000 0.1029 0.5000  plane waves:    6632
 k-point 114 :   0.5000 0.0882 0.5000  plane waves:    6641
 k-point 115 :   0.5000 0.0735 0.5000  plane waves:    6639
 k-point 116 :   0.5000 0.0588 0.5000  plane waves:    6638
 k-point 117 :   0.5000 0.0441 0.5000  plane waves:    6636
 k-point 118 :   0.5000 0.0294 0.5000  plane waves:    6631
 k-point 119 :   0.5000 0.0147 0.5000  plane waves:    6635
 k-point 120 :   0.5000 0.0000 0.5000  plane waves:    6636
 k-point 121 :   0.5000 0.0000 0.4833  plane waves:    6635
 k-point 122 :   0.5000 0.0000 0.4667  plane waves:    6636
 k-point 123 :   0.5000 0.0000 0.4500  plane waves:    6634
 k-point 124 :   0.5000 0.0000 0.4333  plane waves:    6636
 k-point 125 :   0.5000 0.0000 0.4167  plane waves:    6639
 k-point 126 :   0.5000 0.0000 0.4000  plane waves:    6641
 k-point 127 :   0.5000 0.0000 0.3833  plane waves:    6640
 k-point 128 :   0.5000 0.0000 0.3667  plane waves:    6639
 k-point 129 :   0.5000 0.0000 0.3500  plane waves:    6640
 k-point 130 :   0.5000 0.0000 0.3333  plane waves:    6641
 k-point 131 :   0.5000 0.0000 0.3167  plane waves:    6641
 k-point 132 :   0.5000 0.0000 0.3000  plane waves:    6647
 k-point 133 :   0.5000 0.0000 0.2833  plane waves:    6647
 k-point 134 :   0.5000 0.0000 0.2667  plane waves:    6645
 k-point 135 :   0.5000 0.0000 0.2500  plane waves:    6647
 k-point 136 :   0.5000 0.0000 0.2333  plane waves:    6651
 k-point 137 :   0.5000 0.0000 0.2167  plane waves:    6642
 k-point 138 :   0.5000 0.0000 0.2000  plane waves:    6640
 k-point 139 :   0.5000 0.0000 0.1833  plane waves:    6641
 k-point 140 :   0.5000 0.0000 0.1667  plane waves:    6642
 k-point 141 :   0.5000 0.0000 0.1500  plane waves:    6646
 k-point 142 :   0.5000 0.0000 0.1333  plane waves:    6651
 k-point 143 :   0.5000 0.0000 0.1167  plane waves:    6652
 k-point 144 :   0.5000 0.0000 0.1000  plane waves:    6652
 k-point 145 :   0.5000 0.0000 0.0833  plane waves:    6656
 k-point 146 :   0.5000 0.0000 0.0667  plane waves:    6654
 k-point 147 :   0.5000 0.0000 0.0500  plane waves:    6651
 k-point 148 :   0.5000 0.0000 0.0333  plane waves:    6649
 k-point 149 :   0.5000 0.0000 0.0167  plane waves:    6651
 k-point 150 :   0.5000 0.0000-0.0000  plane waves:    6660

 maximum and minimum number of plane-waves per node :      1692     1625

 maximum number of plane-waves:      6678
 maximum index in each direction: 
   IXMAX=   12   IYMAX=   12   IZMAX=   12
   IXMIN=  -13   IYMIN=  -13   IZMIN=  -12


 parallel 3D FFT for wavefunctions:
    minimum data exchange during FFTs selected (reduces bandwidth)
 parallel 3D FFT for charge:
    minimum data exchange during FFTs selected (reduces bandwidth)


 FFT grid for exact exchange (Hartree Fock) 
  NGX = 28; NGY = 28; NGZ = 28


 Radii for the augmentation spheres in the non-local exchange
 for species   1 augmentation radius   1.273 (default was   0.943)
       energy cutoff for augmentation   2000.0
 for species   2 augmentation radius   1.338 (default was   0.991)
       energy cutoff for augmentation   2000.0
 for species   3 augmentation radius   1.459 (default was   1.081)
       energy cutoff for augmentation   2000.0

 real space projection operators:
  total allocation   :       2174.61 KBytes
  max/ min on nodes  :        545.90        541.99

 Maximum index for augmentation-charges in exchange          277
  SETUP_FOCK is finished

 total amount of memory used by VASP MPI-rank0   350806. kBytes
=======================================================================

   base      :      30000. kBytes
   nonl-proj :     110551. kBytes
   fftplans  :       4335. kBytes
   grid      :       7156. kBytes
   one-center:         46. kBytes
   HF        :        194. kBytes
   nonlr-proj:        899. kBytes
   wavefun   :     197625. kBytes

     INWAV:  cpu time      0.0000: real time      0.0003
 initial charge density was supplied:
 charge density of overlapping atoms calculated
 number of electron     108.0000000 magnetization 
 keeping initial charge density in first step


--------------------------------------------------------------------------------------------------------


 Maximum index for augmentation-charges         2266 (set IRDMAX)


--------------------------------------------------------------------------------------------------------


 First call to EWALD:  gamma=   0.277
 Maximum number of real-space cells 3x 3x 3
 Maximum number of reciprocal cells 3x 3x 3

    FEWALD:  cpu time      0.0293: real time      0.0294


--------------------------------------- Ionic step        1  -------------------------------------------




--------------------------------------- Iteration      1(   1)  ---------------------------------------


    POTLOK:  cpu time      0.0687: real time      0.0701
    SETDIJ:  cpu time      0.1667: real time      0.1673
     EDDAV:  cpu time     11.9759: real time     12.0464
       DOS:  cpu time      0.0082: real time      0.0084
    --------------------------------------------
      LOOP:  cpu time     12.2195: real time     12.2923

 eigenvalue-minimisations  : 56223
 total energy-change (2. order) :-0.4770726E+04  (-0.3445969E+04)
 number of electron     108.0000000 magnetization 
 augmentation part      108.0000000 magnetization 

 Free energy of the ion-electron system (eV)
  ---------------------------------------------------
  alpha Z        PSCENC =       339.60362103
  Ewald energy   TEWEN  =     -7293.00641415
  -Hartree energ DENC   =     -4092.97412800
  -exchange      EXHF   =         0.00000000
  -V(xc)+E(xc)   XCENC  =       324.34492775
  PAW double counting   =      9847.86107400   -16681.06695459
  entropy T*S    EENTRO =        -0.00119257
  eigenvalues    EBANDS =       508.44679065
  atomic energy  EATOM  =     12276.06643119
  Solvation  Ediel_sol  =         0.00000000
  ---------------------------------------------------
  free energy    TOTEN  =     -4770.72584470 eV

  energy without entropy =    -4770.72465212  energy(sigma->0) =    -4770.72524841
  exchange ACFDT corr.  =         0.00000000  see jH, gK, PRB 81, 115126


--------------------------------------------------------------------------------------------------------




--------------------------------------- Iteration      1(   2)  ---------------------------------------


     EDDAV:  cpu time      9.6186: real time      9.6721
       DOS:  cpu time      0.0043: real time      0.0044
    --------------------------------------------
      LOOP:  cpu time      9.6229: real time      9.6765

 eigenvalue-minimisations  : 42300
 total energy-change (2. order) :-0.9429656E+03  (-0.7967027E+03)
 number of electron     108.0000000 magnetization 
 augmentation part      108.0000000 magnetization 

 Free energy of the ion-electron system (eV)
  ---------------------------------------------------
  alpha Z        PSCENC =       339.60362103
  Ewald energy   TEWEN  =     -7293.00641415
  -Hartree energ DENC   =     -4092.97412800
  -exchange      EXHF   =         0.00000000
  -V(xc)+E(xc)   XCENC  =       324.34492775
  PAW double counting   =      9847.86107400   -16681.06695459
  entropy T*S    EENTRO =        -0.00020731
  eigenvalues    EBANDS =      -434.51980050
  atomic energy  EATOM  =     12276.06643119
  Solvation  Ediel_sol  =         0.00000000
  ---------------------------------------------------
  free energy    TOTEN  =     -5713.69145058 eV

  energy without entropy =    -5713.69124327  energy(sigma->0) =    -5713.69134693
  exchange ACFDT corr.  =         0.00000000  see jH, gK, PRB 81, 115126


--------------------------------------------------------------------------------------------------------




--------------------------------------- Iteration      1(   3)  ---------------------------------------


     EDDAV:  cpu time     10.2725: real time     10.3361
       DOS:  cpu time      0.0041: real time      0.0043
    --------------------------------------------
      LOOP:  cpu time     10.2766: real time     10.3403

 eigenvalue-minimisations  : 45102
 total energy-change (2. order) :-0.2516007E+03  (-0.2326911E+03)
 number of electron     108.0000000 magnetization 
 augmentation part      108.0000000 magnetization 

 Free energy of the ion-electron system (eV)
  ---------------------------------------------------
  alpha Z        PSCENC =       339.60362103
  Ewald energy   TEWEN  =     -7293.00641415
  -Hartree energ DENC   =     -4092.97412800
  -exchange      EXHF   =         0.00000000
  -V(xc)+E(xc)   XCENC  =       324.34492775
  PAW double counting   =      9847.86107400   -16681.06695459
  entropy T*S    EENTRO =        -0.00000000
  eigenvalues    EBANDS =      -686.12075119
  atomic energy  EATOM  =     12276.06643119
  Solvation  Ediel_sol  =         0.00000000
  ---------------------------------------------------
  free energy    TOTEN  =     -5965.29219396 eV

  energy without entropy =    -5965.29219396  energy(sigma->0) =    -5965.29219396
  exchange ACFDT corr.  =         0.00000000  see jH, gK, PRB 81, 115126


--------------------------------------------------------------------------------------------------------




--------------------------------------- Iteration      1(   4)  ---------------------------------------


     EDDAV:  cpu time     11.5986: real time     11.7075
       DOS:  cpu time      0.0048: real time      0.0051
    --------------------------------------------
      LOOP:  cpu time     11.6034: real time     11.7126

 eigenvalue-minimisations  : 52131
 total energy-change (2. order) :-0.1914383E+02  (-0.1885428E+02)
 number of electron     108.0000000 magnetization 
 augmentation part      108.0000000 magnetization 

 Free energy of the ion-electron system (eV)
  ---------------------------------------------------
  alpha Z        PSCENC =       339.60362103
  Ewald energy   TEWEN  =     -7293.00641415
  -Hartree energ DENC   =     -4092.97412800
  -exchange      EXHF   =         0.00000000
  -V(xc)+E(xc)   XCENC  =       324.34492775
  PAW double counting   =      9847.86107400   -16681.06695459
  entropy T*S    EENTRO =        -0.00000000
  eigenvalues    EBANDS =      -705.26458539
  atomic energy  EATOM  =     12276.06643119
  Solvation  Ediel_sol  =         0.00000000
  ---------------------------------------------------
  free energy    TOTEN  =     -5984.43602816 eV

  energy without entropy =    -5984.43602816  energy(sigma->0) =    -5984.43602816
  exchange ACFDT corr.  =         0.00000000  see jH, gK, PRB 81, 115126


--------------------------------------------------------------------------------------------------------




--------------------------------------- Iteration      1(   5)  ---------------------------------------


    POTLOK:  cpu time      0.1490: real time      0.1500
    SETDIJ:  cpu time      0.5557: real time      0.5587
     EDDAV:  cpu time   9012.7868: real time   9072.2607
       DOS:  cpu time      0.0037: real time      0.0040
    CHARGE:  cpu time      0.4930: real time      0.4961
    MIXING:  cpu time      0.0007: real time      0.0007
    --------------------------------------------
      LOOP:  cpu time   9013.9889: real time   9073.4702

 eigenvalue-minimisations  : 61911
 total energy-change (2. order) : 0.5927723E+04  (-0.3153506E+01)
 number of electron     107.9999998 magnetization 
 augmentation part       39.0175859 magnetization 

 Free energy of the ion-electron system (eV)
  ---------------------------------------------------
  alpha Z        PSCENC =       339.60362103
  Ewald energy   TEWEN  =     -7293.00641415
  -Hartree energ DENC   =     -4092.97412800
  -exchange      EXHF   =       261.36218876
  -V(xc)+E(xc)   XCENC  =       243.13029044
  PAW double counting   =      9925.02809175   -11068.68355829
  entropy T*S    EENTRO =        -0.00000000
  eigenvalues    EBANDS =      -647.23973981
  atomic energy  EATOM  =     12276.06643119
  Solvation  Ediel_sol  =         0.00000000
  ---------------------------------------------------
  free energy    TOTEN  =       -56.71321708 eV

  energy without entropy =      -56.71321708  energy(sigma->0) =      -56.71321708
  exchange ACFDT corr.  =         0.00000000  see jH, gK, PRB 81, 115126


--------------------------------------------------------------------------------------------------------




--------------------------------------- Iteration      1(   6)  ---------------------------------------


    POTLOK:  cpu time      0.1500: real time      0.1513
    SETDIJ:  cpu time      0.5373: real time      0.5397
     EDDAV:  cpu time   8944.5236: real time   8995.6766
       DOS:  cpu time      0.0038: real time      0.0041
    CHARGE:  cpu time      0.4863: real time      0.4891
    MIXING:  cpu time      0.0007: real time      0.0007
    --------------------------------------------
      LOOP:  cpu time   8945.7017: real time   8996.8616

 eigenvalue-minimisations  : 59184
 total energy-change (2. order) : 0.3707227E+00  (-0.2928887E+00)
 number of electron     107.9999997 magnetization 
 augmentation part       38.8853213 magnetization 

 Free energy of the ion-electron system (eV)
  ---------------------------------------------------
  alpha Z        PSCENC =       339.60362103
  Ewald energy   TEWEN  =     -7293.00641415
  -Hartree energ DENC   =     -4076.01816249
  -exchange      EXHF   =       254.16030735
  -V(xc)+E(xc)   XCENC  =       243.23717681
  PAW double counting   =     10857.84530723   -12008.93475663
  entropy T*S    EENTRO =        -0.00000000
  eigenvalues    EBANDS =      -649.29600474
  atomic energy  EATOM  =     12276.06643119
  Solvation  Ediel_sol  =         0.00000000
  ---------------------------------------------------
  free energy    TOTEN  =       -56.34249440 eV

  energy without entropy =      -56.34249440  energy(sigma->0) =      -56.34249440
  exchange ACFDT corr.  =         0.00000000  see jH, gK, PRB 81, 115126


--------------------------------------------------------------------------------------------------------




--------------------------------------- Iteration      1(   7)  ---------------------------------------


    POTLOK:  cpu time      0.1496: real time      0.1510
    SETDIJ:  cpu time      0.5459: real time      0.5477
     EDDAV:  cpu time   8956.9366: real time   9008.5258
       DOS:  cpu time      0.0042: real time      0.0042
    CHARGE:  cpu time      0.5073: real time      0.5098
    MIXING:  cpu time      0.0006: real time      0.0006
    --------------------------------------------
      LOOP:  cpu time   8958.1441: real time   9009.7390

 eigenvalue-minimisations  : 64647
 total energy-change (2. order) : 0.1045839E+00  (-0.7019043E-01)
 number of electron     107.9999996 magnetization 
 augmentation part       39.2273118 magnetization 

 Free energy of the ion-electron system (eV)
  ---------------------------------------------------
  alpha Z        PSCENC =       339.60362103
  Ewald energy   TEWEN  =     -7293.00641415
  -Hartree energ DENC   =     -4056.35991607
  -exchange      EXHF   =       252.26193797
  -V(xc)+E(xc)   XCENC  =       242.89230539
  PAW double counting   =     11560.93788126   -12715.14484041
  entropy T*S    EENTRO =        -0.00000000
  eigenvalues    EBANDS =      -663.48891672
  atomic energy  EATOM  =     12276.06643119
  Solvation  Ediel_sol  =         0.00000000
  ---------------------------------------------------
  free energy    TOTEN  =       -56.23791050 eV

  energy without entropy =      -56.23791050  energy(sigma->0) =      -56.23791050
  exchange ACFDT corr.  =         0.00000000  see jH, gK, PRB 81, 115126


--------------------------------------------------------------------------------------------------------




--------------------------------------- Iteration      1(   8)  ---------------------------------------


    POTLOK:  cpu time      0.1489: real time      0.1500
    SETDIJ:  cpu time      0.5463: real time      0.5479
     EDDAV:  cpu time   8963.7955: real time   9017.8120
       DOS:  cpu time      0.0036: real time      0.0040
    CHARGE:  cpu time      0.4876: real time      0.4899
    MIXING:  cpu time      0.0007: real time      0.0007
    --------------------------------------------
      LOOP:  cpu time   8964.9827: real time   9019.0046

 eigenvalue-minimisations  : 65358
 total energy-change (2. order) : 0.2075991E-01  (-0.2388552E-01)
 number of electron     107.9999995 magnetization 
 augmentation part       39.1559353 magnetization 

 Free energy of the ion-electron system (eV)
  ---------------------------------------------------
  alpha Z        PSCENC =       339.60362103
  Ewald energy   TEWEN  =     -7293.00641415
  -Hartree energ DENC   =     -4057.85741816
  -exchange      EXHF   =       252.78768949
  -V(xc)+E(xc)   XCENC  =       243.06755230
  PAW double counting   =     12067.99675026   -13228.39808999
  entropy T*S    EENTRO =        -0.00000000
  eigenvalues    EBANDS =      -656.47727256
  atomic energy  EATOM  =     12276.06643119
  Solvation  Ediel_sol  =         0.00000000
  ---------------------------------------------------
  free energy    TOTEN  =       -56.21715059 eV

  energy without entropy =      -56.21715059  energy(sigma->0) =      -56.21715059
  exchange ACFDT corr.  =         0.00000000  see jH, gK, PRB 81, 115126


--------------------------------------------------------------------------------------------------------




--------------------------------------- Iteration      1(   9)  ---------------------------------------


    POTLOK:  cpu time      0.1489: real time      0.1501
    SETDIJ:  cpu time      0.5467: real time      0.5484
     EDDAV:  cpu time   8948.5531: real time   9000.2154
       DOS:  cpu time      0.0040: real time      0.0041
    CHARGE:  cpu time      0.5900: real time      0.5943
    MIXING:  cpu time      0.0006: real time      0.0006
    --------------------------------------------
      LOOP:  cpu time   8949.8434: real time   9001.5129

 eigenvalue-minimisations  : 56817
 total energy-change (2. order) : 0.2007426E-01  (-0.1622470E-02)
 number of electron     107.9999995 magnetization 
 augmentation part       39.1472670 magnetization 

 Free energy of the ion-electron system (eV)
  ---------------------------------------------------
  alpha Z        PSCENC =       339.60362103
  Ewald energy   TEWEN  =     -7293.00641415
  -Hartree energ DENC   =     -4055.90377332
  -exchange      EXHF   =       252.44619959
  -V(xc)+E(xc)   XCENC  =       243.07746602
  PAW double counting   =     12396.86876644   -13559.84045444
  entropy T*S    EENTRO =        -0.00000000
  eigenvalues    EBANDS =      -655.50891870
  atomic energy  EATOM  =     12276.06643119
  Solvation  Ediel_sol  =         0.00000000
  ---------------------------------------------------
  free energy    TOTEN  =       -56.19707634 eV

  energy without entropy =      -56.19707634  energy(sigma->0) =      -56.19707634
  exchange ACFDT corr.  =         0.00000000  see jH, gK, PRB 81, 115126


--------------------------------------------------------------------------------------------------------




--------------------------------------- Iteration      1(  10)  ---------------------------------------


    POTLOK:  cpu time      0.1488: real time      0.1501
    SETDIJ:  cpu time      0.5438: real time      0.5462
     EDDAV:  cpu time   8940.1674: real time   8989.1073
       DOS:  cpu time      0.0036: real time      0.0039
    CHARGE:  cpu time      0.6152: real time      0.6183
    MIXING:  cpu time      0.0006: real time      0.0006
    --------------------------------------------
      LOOP:  cpu time   8941.4794: real time   8990.4263

 eigenvalue-minimisations  : 61173
 total energy-change (2. order) : 0.5680774E-02  (-0.6204104E-03)
 number of electron     107.9999995 magnetization 
 augmentation part       39.1479386 magnetization 

 Free energy of the ion-electron system (eV)
  ---------------------------------------------------
  alpha Z        PSCENC =       339.60362103
  Ewald energy   TEWEN  =     -7293.00641415
  -Hartree energ DENC   =     -4054.62279088
  -exchange      EXHF   =       252.46498684
  -V(xc)+E(xc)   XCENC  =       243.08733299
  PAW double counting   =     12584.64473369   -13749.00897005
  entropy T*S    EENTRO =        -0.00000000
  eigenvalues    EBANDS =      -655.42032623
  atomic energy  EATOM  =     12276.06643119
  Solvation  Ediel_sol  =         0.00000000
  ---------------------------------------------------
  free energy    TOTEN  =       -56.19139556 eV

  energy without entropy =      -56.19139556  energy(sigma->0) =      -56.19139556
  exchange ACFDT corr.  =         0.00000000  see jH, gK, PRB 81, 115126


--------------------------------------------------------------------------------------------------------




--------------------------------------- Iteration      1(  11)  ---------------------------------------


    POTLOK:  cpu time      0.1490: real time      0.3482
    SETDIJ:  cpu time      0.5357: real time      0.5396
     EDDAV:  cpu time   8935.1238: real time   8985.7145
       DOS:  cpu time      0.0039: real time      0.0043
    CHARGE:  cpu time      0.5079: real time      0.5105
    MIXING:  cpu time      0.0006: real time      0.0006
    --------------------------------------------
      LOOP:  cpu time   8936.3209: real time   8987.1177

 eigenvalue-minimisations  : 61407
 total energy-change (2. order) : 0.1335098E-02  (-0.1184631E-03)
 number of electron     107.9999995 magnetization 
 augmentation part       39.1416617 magnetization 

 Free energy of the ion-electron system (eV)
  ---------------------------------------------------
  alpha Z        PSCENC =       339.60362103
  Ewald energy   TEWEN  =     -7293.00641415
  -Hartree energ DENC   =     -4054.18680895
  -exchange      EXHF   =       252.52056021
  -V(xc)+E(xc)   XCENC  =       243.10733277
  PAW double counting   =     12686.32806268   -13851.58890065
  entropy T*S    EENTRO =        -0.00000000
  eigenvalues    EBANDS =      -655.03394461
  atomic energy  EATOM  =     12276.06643119
  Solvation  Ediel_sol  =         0.00000000
  ---------------------------------------------------
  free energy    TOTEN  =       -56.19006046 eV

  energy without entropy =      -56.19006046  energy(sigma->0) =      -56.19006046
  exchange ACFDT corr.  =         0.00000000  see jH, gK, PRB 81, 115126


--------------------------------------------------------------------------------------------------------




--------------------------------------- Iteration      1(  12)  ---------------------------------------


    POTLOK:  cpu time      0.1802: real time      0.1808
    SETDIJ:  cpu time      0.5320: real time      0.5343
     EDDAV:  cpu time   8926.1102: real time   8977.4755
       DOS:  cpu time      0.0037: real time      0.0041
    CHARGE:  cpu time      0.5137: real time      0.5170
    MIXING:  cpu time      0.0006: real time      0.0006
    --------------------------------------------
      LOOP:  cpu time   8927.3404: real time   8978.7124

 eigenvalue-minimisations  : 54630
 total energy-change (2. order) : 0.3178077E-03  (-0.4002556E-04)
 number of electron     107.9999995 magnetization 
 augmentation part       39.1404637 magnetization 

 Free energy of the ion-electron system (eV)
  ---------------------------------------------------
  alpha Z        PSCENC =       339.60362103
  Ewald energy   TEWEN  =     -7293.00641415
  -Hartree energ DENC   =     -4053.80251137
  -exchange      EXHF   =       252.51758664
  -V(xc)+E(xc)   XCENC  =       243.11603785
  PAW double counting   =     12743.45564371   -13909.19650501
  entropy T*S    EENTRO =        -0.00000000
  eigenvalues    EBANDS =      -654.94363254
  atomic energy  EATOM  =     12276.06643119
  Solvation  Ediel_sol  =         0.00000000
  ---------------------------------------------------
  free energy    TOTEN  =       -56.18974266 eV

  energy without entropy =      -56.18974266  energy(sigma->0) =      -56.18974266
  exchange ACFDT corr.  =         0.00000000  see jH, gK, PRB 81, 115126


--------------------------------------------------------------------------------------------------------




--------------------------------------- Iteration      1(  13)  ---------------------------------------


    POTLOK:  cpu time      0.1491: real time      0.1496
    SETDIJ:  cpu time      0.5503: real time      0.5520
     EDDAV:  cpu time   8925.3559: real time   8976.3537
       DOS:  cpu time      0.0037: real time      0.0042
    CHARGE:  cpu time      0.4879: real time      0.4902
    MIXING:  cpu time      0.0007: real time      0.0007
    --------------------------------------------
      LOOP:  cpu time   8926.5476: real time   8977.5504

 eigenvalue-minimisations  : 54036
 total energy-change (2. order) : 0.2216215E-04  (-0.1350403E-04)
 number of electron     107.9999995 magnetization 
 augmentation part       39.1398182 magnetization 

 Free energy of the ion-electron system (eV)
  ---------------------------------------------------
  alpha Z        PSCENC =       339.60362103
  Ewald energy   TEWEN  =     -7293.00641415
  -Hartree energ DENC   =     -4053.63185602
  -exchange      EXHF   =       252.51994523
  -V(xc)+E(xc)   XCENC  =       243.12269223
  PAW double counting   =     12775.00051314   -13941.04491759
  entropy T*S    EENTRO =        -0.00000000
  eigenvalues    EBANDS =      -654.81973555
  atomic energy  EATOM  =     12276.06643119
  Solvation  Ediel_sol  =         0.00000000
  ---------------------------------------------------
  free energy    TOTEN  =       -56.18972049 eV

  energy without entropy =      -56.18972049  energy(sigma->0) =      -56.18972049
  exchange ACFDT corr.  =         0.00000000  see jH, gK, PRB 81, 115126


--------------------------------------------------------------------------------------------------------




--------------------------------------- Iteration      1(  14)  ---------------------------------------


    POTLOK:  cpu time      0.1493: real time      0.3468
    SETDIJ:  cpu time      0.5452: real time      0.5470
     EDDAV:  cpu time   8943.0290: real time   8994.1369
       DOS:  cpu time      0.0040: real time      0.0044
    CHARGE:  cpu time      0.4874: real time      0.4900
    MIXING:  cpu time      0.0006: real time      0.0006
    --------------------------------------------
      LOOP:  cpu time   8944.2155: real time   8995.5256

 eigenvalue-minimisations  : 48645
 total energy-change (2. order) :-0.3748620E-04  (-0.5076561E-05)
 number of electron     107.9999995 magnetization 
 augmentation part       39.1392031 magnetization 

 Free energy of the ion-electron system (eV)
  ---------------------------------------------------
  alpha Z        PSCENC =       339.60362103
  Ewald energy   TEWEN  =     -7293.00641415
  -Hartree energ DENC   =     -4053.56333212
  -exchange      EXHF   =       252.51915145
  -V(xc)+E(xc)   XCENC  =       243.12728239
  PAW double counting   =     12792.52374702   -13958.75512096
  entropy T*S    EENTRO =        -0.00000000
  eigenvalues    EBANDS =      -654.70512383
  atomic energy  EATOM  =     12276.06643119
  Solvation  Ediel_sol  =         0.00000000
  ---------------------------------------------------
  free energy    TOTEN  =       -56.18975798 eV

  energy without entropy =      -56.18975798  energy(sigma->0) =      -56.18975798
  exchange ACFDT corr.  =         0.00000000  see jH, gK, PRB 81, 115126


--------------------------------------------------------------------------------------------------------




--------------------------------------- Iteration      1(  15)  ---------------------------------------


    POTLOK:  cpu time      0.1493: real time      0.1501
    SETDIJ:  cpu time      0.5455: real time      0.5475
     EDDAV:  cpu time   8958.0359: real time   9009.5182
       DOS:  cpu time      0.0104: real time      0.0104
    CHARGE:  cpu time      0.5395: real time      0.5431
    MIXING:  cpu time      0.0006: real time      0.0006
    --------------------------------------------
      LOOP:  cpu time   8959.2812: real time   9010.7699

 eigenvalue-minimisations  : 51471
 total energy-change (2. order) :-0.3405059E-04  (-0.1796460E-05)
 number of electron     107.9999995 magnetization 
 augmentation part       39.1389980 magnetization 

 Free energy of the ion-electron system (eV)
  ---------------------------------------------------
  alpha Z        PSCENC =       339.60362103
  Ewald energy   TEWEN  =     -7293.00641415
  -Hartree energ DENC   =     -4053.53069809
  -exchange      EXHF   =       252.51762000
  -V(xc)+E(xc)   XCENC  =       243.13001883
  PAW double counting   =     12802.20799347   -13968.54799681
  entropy T*S    EENTRO =        -0.00000000
  eigenvalues    EBANDS =      -654.63036750
  atomic energy  EATOM  =     12276.06643119
  Solvation  Ediel_sol  =         0.00000000
  ---------------------------------------------------
  free energy    TOTEN  =       -56.18979203 eV

  energy without entropy =      -56.18979203  energy(sigma->0) =      -56.18979203
  exchange ACFDT corr.  =         0.00000000  see jH, gK, PRB 81, 115126


--------------------------------------------------------------------------------------------------------




--------------------------------------- Iteration      1(  16)  ---------------------------------------


    POTLOK:  cpu time      0.1495: real time      0.1503
    SETDIJ:  cpu time      0.5346: real time      0.5369
     EDDAV:  cpu time   8943.0136: real time   8995.5583
       DOS:  cpu time      0.0040: real time      0.0043
    CHARGE:  cpu time      0.4861: real time      0.4885
    MIXING:  cpu time      0.0007: real time      0.0007
    --------------------------------------------
      LOOP:  cpu time   8944.1884: real time   8996.7390

 eigenvalue-minimisations  : 48195
 total energy-change (2. order) :-0.2206420E-04  (-0.8247862E-06)
 number of electron     107.9999995 magnetization 
 augmentation part       39.1388298 magnetization 

 Free energy of the ion-electron system (eV)
  ---------------------------------------------------
  alpha Z        PSCENC =       339.60362103
  Ewald energy   TEWEN  =     -7293.00641415
  -Hartree energ DENC   =     -4053.52249950
  -exchange      EXHF   =       252.51737075
  -V(xc)+E(xc)   XCENC  =       243.13188838
  PAW double counting   =     12807.52964484   -13973.93415702
  entropy T*S    EENTRO =        -0.00000000
  eigenvalues    EBANDS =      -654.57569961
  atomic energy  EATOM  =     12276.06643119
  Solvation  Ediel_sol  =         0.00000000
  ---------------------------------------------------
  free energy    TOTEN  =       -56.18981410 eV

  energy without entropy =      -56.18981410  energy(sigma->0) =      -56.18981410
  exchange ACFDT corr.  =         0.00000000  see jH, gK, PRB 81, 115126


--------------------------------------------------------------------------------------------------------




--------------------------------------- Iteration      1(  17)  ---------------------------------------


    POTLOK:  cpu time      0.1488: real time      0.1498
    SETDIJ:  cpu time      0.5340: real time      0.5363
     EDDAV:  cpu time   8943.0680: real time   8993.3717
       DOS:  cpu time      0.0036: real time      0.0040
    CHARGE:  cpu time      0.4857: real time      0.4884
    MIXING:  cpu time      0.0006: real time      0.0006
    --------------------------------------------
      LOOP:  cpu time   8944.2407: real time   8994.5507

 eigenvalue-minimisations  : 46674
 total energy-change (2. order) :-0.1277736E-04  (-0.3666365E-06)
 number of electron     107.9999995 magnetization 
 augmentation part       39.1387457 magnetization 

 Free energy of the ion-electron system (eV)
  ---------------------------------------------------
  alpha Z        PSCENC =       339.60362103
  Ewald energy   TEWEN  =     -7293.00641415
  -Hartree energ DENC   =     -4053.52260099
  -exchange      EXHF   =       252.51711684
  -V(xc)+E(xc)   XCENC  =       243.13309651
  PAW double counting   =     12810.44167570   -13976.88347356
  entropy T*S    EENTRO =        -0.00000000
  eigenvalues    EBANDS =      -654.53927945
  atomic energy  EATOM  =     12276.06643119
  Solvation  Ediel_sol  =         0.00000000
  ---------------------------------------------------
  free energy    TOTEN  =       -56.18982687 eV

  energy without entropy =      -56.18982687  energy(sigma->0) =      -56.18982687
  exchange ACFDT corr.  =         0.00000000  see jH, gK, PRB 81, 115126


--------------------------------------------------------------------------------------------------------




--------------------------------------- Iteration      1(  18)  ---------------------------------------


    POTLOK:  cpu time      0.1509: real time      0.1518
    SETDIJ:  cpu time      0.5442: real time      0.5459
     EDDAV:  cpu time   8951.3235: real time   9002.6604
       DOS:  cpu time      0.0037: real time      0.0041
    CHARGE:  cpu time      0.4864: real time      0.4891
    MIXING:  cpu time      0.0006: real time      0.0006
    --------------------------------------------
      LOOP:  cpu time   8952.5093: real time   9003.8518

 eigenvalue-minimisations  : 42156
 total energy-change (2. order) :-0.6970968E-05  (-0.1472652E-06)
 number of electron     107.9999995 magnetization 
 augmentation part       39.1386883 magnetization 

 Free energy of the ion-electron system (eV)
  ---------------------------------------------------
  alpha Z        PSCENC =       339.60362103
  Ewald energy   TEWEN  =     -7293.00641415
  -Hartree energ DENC   =     -4053.52704563
  -exchange      EXHF   =       252.51705098
  -V(xc)+E(xc)   XCENC  =       243.13391725
  PAW double counting   =     12812.01093907   -13978.47462791
  entropy T*S    EENTRO =        -0.00000000
  eigenvalues    EBANDS =      -654.51370568
  atomic energy  EATOM  =     12276.06643119
  Solvation  Ediel_sol  =         0.00000000
  ---------------------------------------------------
  free energy    TOTEN  =       -56.18983384 eV

  energy without entropy =      -56.18983384  energy(sigma->0) =      -56.18983384
  exchange ACFDT corr.  =         0.00000000  see jH, gK, PRB 81, 115126


--------------------------------------------------------------------------------------------------------




--------------------------------------- Iteration      1(  19)  ---------------------------------------


    POTLOK:  cpu time      0.1491: real time      0.3662
    SETDIJ:  cpu time      0.5456: real time      0.5493
     EDDAV:  cpu time   8947.1586: real time   8998.4603
       DOS:  cpu time      0.0038: real time      0.0042
    CHARGE:  cpu time      0.4873: real time      0.4898
    MIXING:  cpu time      0.0006: real time      0.0006
    --------------------------------------------
      LOOP:  cpu time   8948.3451: real time   8999.8704

 eigenvalue-minimisations  : 42606
 total energy-change (2. order) :-0.3678504E-05  (-0.1093927E-06)
 number of electron     107.9999995 magnetization 
 augmentation part       39.1386686 magnetization 

 Free energy of the ion-electron system (eV)
  ---------------------------------------------------
  alpha Z        PSCENC =       339.60362103
  Ewald energy   TEWEN  =     -7293.00641415
  -Hartree energ DENC   =     -4053.53258677
  -exchange      EXHF   =       252.51700998
  -V(xc)+E(xc)   XCENC  =       243.13447445
  PAW double counting   =     12812.85326473   -13979.32960586
  entropy T*S    EENTRO =        -0.00000000
  eigenvalues    EBANDS =      -654.49603213
  atomic energy  EATOM  =     12276.06643119
  Solvation  Ediel_sol  =         0.00000000
  ---------------------------------------------------
  free energy    TOTEN  =       -56.18983752 eV

  energy without entropy =      -56.18983752  energy(sigma->0) =      -56.18983752
  exchange ACFDT corr.  =         0.00000000  see jH, gK, PRB 81, 115126


--------------------------------------------------------------------------------------------------------




--------------------------------------- Iteration      1(  20)  ---------------------------------------


    POTLOK:  cpu time      0.1492: real time      0.1500
    SETDIJ:  cpu time      0.5337: real time      0.5360
     EDDAV:  cpu time   8946.7772: real time   8997.3309
       DOS:  cpu time      0.0037: real time      0.0040
    CHARGE:  cpu time      0.4902: real time      0.4930
    MIXING:  cpu time      0.0006: real time      0.0006
    --------------------------------------------
      LOOP:  cpu time   8947.9545: real time   8998.5145

 eigenvalue-minimisations  : 38367
 total energy-change (2. order) :-0.1909598E-05  (-0.6023372E-07)
 number of electron     107.9999995 magnetization 
 augmentation part       39.1386542 magnetization 

 Free energy of the ion-electron system (eV)
  ---------------------------------------------------
  alpha Z        PSCENC =       339.60362103
  Ewald energy   TEWEN  =     -7293.00641415
  -Hartree energ DENC   =     -4053.53820093
  -exchange      EXHF   =       252.51699740
  -V(xc)+E(xc)   XCENC  =       243.13486646
  PAW double counting   =     12813.30569983   -13979.78950726
  entropy T*S    EENTRO =        -0.00000000
  eigenvalues    EBANDS =      -654.48333300
  atomic energy  EATOM  =     12276.06643119
  Solvation  Ediel_sol  =         0.00000000
  ---------------------------------------------------
  free energy    TOTEN  =       -56.18983943 eV

  energy without entropy =      -56.18983943  energy(sigma->0) =      -56.18983943
  exchange ACFDT corr.  =         0.00000000  see jH, gK, PRB 81, 115126


--------------------------------------------------------------------------------------------------------




--------------------------------------- Iteration      1(  21)  ---------------------------------------


    POTLOK:  cpu time      0.1489: real time      0.1497
    SETDIJ:  cpu time      0.5360: real time      0.5383
     EDDAV:  cpu time   8953.9746: real time   9003.3872
       DOS:  cpu time      0.0038: real time      0.0038
    --------------------------------------------
      LOOP:  cpu time   8954.6633: real time   9004.0790

 eigenvalue-minimisations  : 32301
 total energy-change (2. order) :-0.9894778E-06  (-0.5797632E-07)
 number of electron     107.9999995 magnetization 
 augmentation part       39.1386542 magnetization 

 Free energy of the ion-electron system (eV)
  ---------------------------------------------------
  alpha Z        PSCENC =       339.60362103
  Ewald energy   TEWEN  =     -7293.00641415
  -Hartree energ DENC   =     -4053.54307126
  -exchange      EXHF   =       252.51698458
  -V(xc)+E(xc)   XCENC  =       243.13514072
  PAW double counting   =     12813.54908488   -13980.03725175
  entropy T*S    EENTRO =        -0.00000000
  eigenvalues    EBANDS =      -654.47436566
  atomic energy  EATOM  =     12276.06643119
  Solvation  Ediel_sol  =         0.00000000
  ---------------------------------------------------
  free energy    TOTEN  =       -56.18984042 eV

  energy without entropy =      -56.18984042  energy(sigma->0) =      -56.18984042
  exchange ACFDT corr.  =         0.00000000  see jH, gK, PRB 81, 115126


--------------------------------------------------------------------------------------------------------




 average (electrostatic) potential at core
  the test charge radii are     0.9430  0.9911  1.0808
  (the norm of the test charge is              1.0000)
       1 -58.5777       2 -58.5777       3 -58.5361       4 -58.5361       5 -69.6176
       6 -69.6176       7 -50.9669       8 -50.9669       9 -50.9273      10 -50.9273
      11 -51.6990      12 -51.6990



 E-fermi :   3.5700     XC(G=0):  -7.9640     alpha+bet : -9.1369

 Fermi energy:         3.5700478744

 k-point     1 :       0.0000    0.0000    0.0000
  band No.  band energies     occupation 
      1     -25.4538      2.00000
      2     -25.4487      2.00000
      3     -25.4391      2.00000
      4     -25.4384      2.00000
      5     -25.4092      2.00000
      6     -25.4088      2.00000
      7     -25.3868      2.00000
      8     -25.3860      2.00000
      9     -25.3814      2.00000
     10     -25.3806      2.00000
     11     -12.8636      2.00000
     12     -11.5500      2.00000
     13     -11.3766      2.00000
     14     -11.1376      2.00000
     15     -10.8297      2.00000
     16     -10.8243      2.00000
     17      -6.4584      2.00000
     18      -5.5777      2.00000
     19      -2.8937      2.00000
     20      -2.3159      2.00000
     21      -2.2317      2.00000
     22      -2.1173      2.00000
     23      -1.7685      2.00000
     24      -1.3783      2.00000
     25      -1.3193      2.00000
     26      -0.9591      2.00000
     27      -0.7388      2.00000
     28      -0.6558      2.00000
     29      -0.6542      2.00000
     30      -0.6294      2.00000
     31      -0.5979      2.00000
     32      -0.5391      2.00000
     33      -0.4106      2.00000
     34      -0.4103      2.00000
     35       0.5325      2.00000
     36       0.5680      2.00000
     37       0.5981      2.00000
     38       0.6293      2.00000
     39       0.6400      2.00000
     40       0.6659      2.00000
     41       0.6958      2.00000
     42       0.7010      2.00000
     43       0.7312      2.00000
     44       0.9125      2.00000
     45       1.0952      2.00000
     46       1.1164      2.00000
     47       1.2291      2.00000
     48       1.7763      2.00000
     49       1.9385      2.00000
     50       2.3214      2.00000
     51       2.4717      2.00000
     52       3.3076      2.00000
     53       3.3230      2.00000
     54       3.4762      2.00000
     55       4.0787      0.00000
     56       4.9944      0.00000
     57       6.4460      0.00000
     58       6.7734      0.00000
     59       7.4207      0.00000
     60       7.6062      0.00000
     61       8.3325      0.00000
     62       8.4406      0.00000
     63       8.5845      0.00000
     64       9.2317      0.00000
     65       9.5482      0.00000
     66       9.6451      0.00000
     67       9.7298      0.00000
     68      10.1102      0.00000
     69      10.6892      0.00000
     70      11.2592      0.00000
     71      11.3531      0.00000
     72      11.6897      0.00000
     73      12.2497      0.00000
     74      12.3919      0.00000
     75      12.7105      0.00000
     76      12.7299      0.00000
     77      12.9348      0.00000
     78      13.1573      0.00000
     79      13.5005      0.00000
     80      13.5906      0.00000
     81      13.6305      0.00000
     82      13.8798      0.00000
     83      14.3487      0.00000
     84      14.6924      0.00000
     85      14.8465      0.00000
     86      15.0216      0.00000
     87      15.2635      0.00000
     88      15.4615      0.00000
     89      16.7178      0.00000
     90      16.7455      0.00000
     91      16.8187      0.00000
     92      16.8301      0.00000
     93      16.9654      0.00000
     94      17.3155      0.00000
     95      17.4454      0.00000
     96      17.7985      0.00000
     97      17.9671      0.00000
     98      18.4031      0.00000
     99      18.6813      0.00000
    100      18.8012      0.00000
    101      19.0257      0.00000
    102      19.3373      0.00000
    103      19.8976      0.00000
    104      20.1734      0.00000
    105      20.2511      0.00000
    106      20.7571      0.00000
    107      20.7802      0.00000
    108      20.9797      0.00000
    109      21.4065      0.00000
    110      21.7840      0.00000
    111      21.7885      0.00000
    112      22.0243      0.00000
    113      22.1972      0.00000
    114      22.3957      0.00000
    115      22.7906      0.00000
    116      22.9739      0.00000
    117      22.9939      0.00000
    118      23.0966      0.00000
    119      23.3134      0.00000
    120      24.0038      0.00000
    121      24.0169      0.00000
    122      24.5336      0.00000
    123      24.6124      0.00000
    124      25.1947      0.00000
    125      25.6807      0.00000
    126      25.6808      0.00000
    127      26.2544      0.00000
    128      26.3416      0.00000
    129      27.0205      0.00000
    130      27.0599      0.00000
    131      27.2301      0.00000
    132      27.2660      0.00000
    133      27.3961      0.00000
    134      27.4436      0.00000
    135      27.6173      0.00000
    136      27.7386      0.00000
    137      27.8095      0.00000
    138      27.9475      0.00000
    139      28.2648      0.00000
    140      28.3873      0.00000
    141      28.4458      0.00000

 k-point     2 :       0.1429    0.0000    0.0000
  band No.  band energies     occupation 
      1     -25.4537      2.00000
      2     -25.4486      2.00000
      3     -25.4390      2.00000
      4     -25.4384      2.00000
      5     -25.4092      2.00000
      6     -25.4088      2.00000
      7     -25.3867      2.00000
      8     -25.3860      2.00000
      9     -25.3813      2.00000
     10     -25.3805      2.00000
     11     -12.8233      2.00000
     12     -11.5341      2.00000
     13     -11.4096      2.00000
     14     -11.1562      2.00000
     15     -10.8804      2.00000
     16     -10.8274      2.00000
     17      -6.4429      2.00000
     18      -5.5147      2.00000
     19      -2.8561      2.00000
     20      -2.3605      2.00000
     21      -2.2252      2.00000
     22      -2.0368      2.00000
     23      -1.7283      2.00000
     24      -1.3227      2.00000
     25      -1.1623      2.00000
     26      -0.9862      2.00000
     27      -0.7768      2.00000
     28      -0.7134      2.00000
     29      -0.6689      2.00000
     30      -0.6422      2.00000
     31      -0.5859      2.00000
     32      -0.5507      2.00000
     33      -0.4344      2.00000
     34      -0.4076      2.00000
     35       0.5225      2.00000
     36       0.5581      2.00000
     37       0.5809      2.00000
     38       0.5931      2.00000
     39       0.6231      2.00000
     40       0.6428      2.00000
     41       0.6716      2.00000
     42       0.7117      2.00000
     43       0.7995      2.00000
     44       0.9544      2.00000
     45       1.1621      2.00000
     46       1.2144      2.00000
     47       1.2561      2.00000
     48       1.6954      2.00000
     49       1.8776      2.00000
     50       2.1292      2.00000
     51       2.3290      2.00000
     52       2.7781      2.00000
     53       3.1856      2.00000
     54       3.4192      2.00000
     55       4.5552      0.00000
     56       5.2686      0.00000
     57       6.6827      0.00000
     58       6.9076      0.00000
     59       7.4336      0.00000
     60       7.6940      0.00000
     61       8.2488      0.00000
     62       8.4711      0.00000
     63       8.5426      0.00000
     64       9.2687      0.00000
     65       9.4640      0.00000
     66       9.6702      0.00000
     67       9.7926      0.00000
     68      10.1517      0.00000
     69      10.6189      0.00000
     70      10.8035      0.00000
     71      11.1421      0.00000
     72      11.3576      0.00000
     73      11.8164      0.00000
     74      12.0931      0.00000
     75      12.6711      0.00000
     76      12.8083      0.00000
     77      12.9626      0.00000
     78      13.1911      0.00000
     79      13.5684      0.00000
     80      13.8161      0.00000
     81      14.0495      0.00000
     82      14.3722      0.00000
     83      14.5299      0.00000
     84      14.7040      0.00000
     85      15.0150      0.00000
     86      15.0823      0.00000
     87      15.3668      0.00000
     88      15.7322      0.00000
     89      16.3626      0.00000
     90      16.3798      0.00000
     91      16.7971      0.00000
     92      16.9538      0.00000
     93      17.0890      0.00000
     94      17.3620      0.00000
     95      17.6327      0.00000
     96      17.9524      0.00000
     97      18.2689      0.00000
     98      18.6279      0.00000
     99      18.7557      0.00000
    100      19.0080      0.00000
    101      19.3516      0.00000
    102      19.4655      0.00000
    103      19.7520      0.00000
    104      19.9345      0.00000
    105      20.3360      0.00000
    106      20.4312      0.00000
    107      20.6148      0.00000
    108      20.9362      0.00000
    109      21.1193      0.00000
    110      21.3562      0.00000
    111      21.4588      0.00000
    112      21.8011      0.00000
    113      22.0231      0.00000
    114      22.2437      0.00000
    115      22.4307      0.00000
    116      22.8948      0.00000
    117      23.1149      0.00000
    118      23.2357      0.00000
    119      23.4897      0.00000
    120      24.2852      0.00000
    121      24.8334      0.00000
    122      24.9707      0.00000
    123      25.0039      0.00000
    124      25.4714      0.00000
    125      25.5860      0.00000
    126      25.8364      0.00000
    127      26.0616      0.00000
    128      26.2605      0.00000
    129      26.4447      0.00000
    130      26.5346      0.00000
    131      26.7720      0.00000
    132      26.8864      0.00000
    133      27.0187      0.00000
    134      27.2611      0.00000
    135      27.4643      0.00000
    136      27.6359      0.00000
    137      27.7880      0.00000
    138      27.9917      0.00000
    139      28.2485      0.00000
    140      28.3811      0.00000
    141      28.5872      0.00000

 k-point     3 :       0.2857    0.0000    0.0000
  band No.  band energies     occupation 
      1     -25.4536      2.00000
      2     -25.4485      2.00000
      3     -25.4390      2.00000
      4     -25.4383      2.00000
      5     -25.4091      2.00000
      6     -25.4086      2.00000
      7     -25.3866      2.00000
      8     -25.3859      2.00000
      9     -25.3812      2.00000
     10     -25.3804      2.00000
     11     -12.7201      2.00000
     12     -11.5337      2.00000
     13     -11.4572      2.00000
     14     -11.2099      2.00000
     15     -10.9478      2.00000
     16     -10.8719      2.00000
     17      -6.4042      2.00000
     18      -5.3661      2.00000
     19      -2.7465      2.00000
     20      -2.3872      2.00000
     21      -2.2656      2.00000
     22      -1.8078      2.00000
     23      -1.5130      2.00000
     24      -1.3404      2.00000
     25      -1.0535      2.00000
     26      -0.9696      2.00000
     27      -0.9330      2.00000
     28      -0.8211      2.00000
     29      -0.7307      2.00000
     30      -0.6236      2.00000
     31      -0.5834      2.00000
     32      -0.5586      2.00000
     33      -0.4438      2.00000
     34      -0.3863      2.00000
     35       0.4836      2.00000
     36       0.5396      2.00000
     37       0.5505      2.00000
     38       0.5825      2.00000
     39       0.6094      2.00000
     40       0.6379      2.00000
     41       0.6717      2.00000
     42       0.6996      2.00000
     43       0.9225      2.00000
     44       1.0439      2.00000
     45       1.2154      2.00000
     46       1.3100      2.00000
     47       1.3931      2.00000
     48       1.4685      2.00000
     49       1.6595      2.00000
     50       2.0105      2.00000
     51       2.0892      2.00000
     52       2.3328      2.00000
     53       2.8455      2.00000
     54       3.2745      2.00000
     55       4.9804      0.00000
     56       5.6871      0.00000
     57       6.9754      0.00000
     58       7.1187      0.00000
     59       7.3778      0.00000
     60       7.8595      0.00000
     61       8.0072      0.00000
     62       8.3234      0.00000
     63       8.7397      0.00000
     64       9.2872      0.00000
     65       9.4735      0.00000
     66       9.7814      0.00000
     67       9.9083      0.00000
     68      10.1467      0.00000
     69      10.4087      0.00000
     70      10.6254      0.00000
     71      10.9671      0.00000
     72      11.1972      0.00000
     73      11.3470      0.00000
     74      11.7959      0.00000
     75      12.3061      0.00000
     76      12.6964      0.00000
     77      12.9731      0.00000
     78      13.2607      0.00000
     79      13.6064      0.00000
     80      13.8000      0.00000
     81      14.0898      0.00000
     82      14.2679      0.00000
     83      14.6524      0.00000
     84      14.8460      0.00000
     85      15.2503      0.00000
     86      15.4960      0.00000
     87      15.8022      0.00000
     88      16.2093      0.00000
     89      16.5202      0.00000
     90      16.8243      0.00000
     91      16.9540      0.00000
     92      17.1397      0.00000
     93      17.2996      0.00000
     94      17.5646      0.00000
     95      17.7537      0.00000
     96      17.9975      0.00000
     97      18.3377      0.00000
     98      18.4693      0.00000
     99      18.6144      0.00000
    100      18.9644      0.00000
    101      19.1770      0.00000
    102      19.4540      0.00000
    103      19.7564      0.00000
    104      19.8624      0.00000
    105      20.3031      0.00000
    106      20.4422      0.00000
    107      20.6263      0.00000
    108      20.8818      0.00000
    109      21.1024      0.00000
    110      21.3081      0.00000
    111      21.5200      0.00000
    112      21.9174      0.00000
    113      22.2775      0.00000
    114      22.3786      0.00000
    115      22.6564      0.00000
    116      23.0216      0.00000
    117      23.2084      0.00000
    118      23.4183      0.00000
    119      23.5881      0.00000
    120      23.8089      0.00000
    121      24.3194      0.00000
    122      24.8788      0.00000
    123      25.0371      0.00000
    124      25.2721      0.00000
    125      25.3959      0.00000
    126      25.5694      0.00000
    127      25.6537      0.00000
    128      26.0744      0.00000
    129      26.1639      0.00000
    130      26.3272      0.00000
    131      26.4795      0.00000
    132      26.5897      0.00000
    133      26.8900      0.00000
    134      26.9646      0.00000
    135      27.1631      0.00000
    136      27.3761      0.00000
    137      27.4556      0.00000
    138      27.6512      0.00000
    139      27.7998      0.00000
    140      27.9061      0.00000
    141      28.1499      0.00000

 k-point     4 :       0.4286    0.0000    0.0000
  band No.  band energies     occupation 
      1     -25.4535      2.00000
      2     -25.4485      2.00000
      3     -25.4389      2.00000
      4     -25.4383      2.00000
      5     -25.4089      2.00000
      6     -25.4085      2.00000
      7     -25.3865      2.00000
      8     -25.3858      2.00000
      9     -25.3811      2.00000
     10     -25.3803      2.00000
     11     -12.6181      2.00000
     12     -11.6190      2.00000
     13     -11.4326      2.00000
     14     -11.2528      2.00000
     15     -10.9813      2.00000
     16     -10.9239      2.00000
     17      -6.3692      2.00000
     18      -5.2400      2.00000
     19      -2.6405      2.00000
     20      -2.3755      2.00000
     21      -2.1691      2.00000
     22      -1.6390      2.00000
     23      -1.5198      2.00000
     24      -1.3538      2.00000
     25      -1.1583      2.00000
     26      -1.1275      2.00000
     27      -0.9395      2.00000
     28      -0.8536      2.00000
     29      -0.6924      2.00000
     30      -0.6182      2.00000
     31      -0.5719      2.00000
     32      -0.5497      2.00000
     33      -0.4265      2.00000
     34      -0.3576      2.00000
     35       0.4709      2.00000
     36       0.5258      2.00000
     37       0.5451      2.00000
     38       0.5896      2.00000
     39       0.6373      2.00000
     40       0.6550      2.00000
     41       0.6825      2.00000
     42       0.7271      2.00000
     43       0.9154      2.00000
     44       1.0194      2.00000
     45       1.1035      2.00000
     46       1.2386      2.00000
     47       1.3935      2.00000
     48       1.5517      2.00000
     49       1.7052      2.00000
     50       1.8019      2.00000
     51       2.1479      2.00000
     52       2.3293      2.00000
     53       2.5295      2.00000
     54       3.1214      2.00000
     55       5.1297      0.00000
     56       5.7993      0.00000
     57       6.8116      0.00000
     58       7.0452      0.00000
     59       7.3481      0.00000
     60       7.7150      0.00000
     61       8.1721      0.00000
     62       8.5323      0.00000
     63       8.9575      0.00000
     64       9.2611      0.00000
     65       9.5437      0.00000
     66       9.7606      0.00000
     67      10.0323      0.00000
     68      10.2439      0.00000
     69      10.4403      0.00000
     70      10.6258      0.00000
     71      10.8991      0.00000
     72      11.1738      0.00000
     73      11.5883      0.00000
     74      11.7862      0.00000
     75      12.1185      0.00000
     76      12.4653      0.00000
     77      12.5755      0.00000
     78      13.0055      0.00000
     79      13.5737      0.00000
     80      13.6349      0.00000
     81      13.9525      0.00000
     82      14.2817      0.00000
     83      14.7870      0.00000
     84      15.1539      0.00000
     85      15.2081      0.00000
     86      15.6863      0.00000
     87      15.9911      0.00000
     88      16.2254      0.00000
     89      16.4527      0.00000
     90      16.7229      0.00000
     91      16.8850      0.00000
     92      17.1148      0.00000
     93      17.5579      0.00000
     94      17.8129      0.00000
     95      17.9637      0.00000
     96      18.2581      0.00000
     97      18.4282      0.00000
     98      18.5876      0.00000
     99      18.8827      0.00000
    100      18.9494      0.00000
    101      19.3254      0.00000
    102      19.4423      0.00000
    103      19.7540      0.00000
    104      19.8497      0.00000
    105      20.0751      0.00000
    106      20.6183      0.00000
    107      20.7222      0.00000
    108      21.0667      0.00000
    109      21.3093      0.00000
    110      21.6033      0.00000
    111      21.6949      0.00000
    112      21.9337      0.00000
    113      22.6224      0.00000
    114      22.8109      0.00000
    115      22.9503      0.00000
    116      23.1558      0.00000
    117      23.3719      0.00000
    118      23.6635      0.00000
    119      23.8083      0.00000
    120      24.0160      0.00000
    121      24.1730      0.00000
    122      24.2045      0.00000
    123      24.4164      0.00000
    124      24.6867      0.00000
    125      25.0883      0.00000
    126      25.2947      0.00000
    127      25.3543      0.00000
    128      25.5609      0.00000
    129      25.6915      0.00000
    130      25.8796      0.00000
    131      26.0128      0.00000
    132      26.1901      0.00000
    133      26.4605      0.00000
    134      26.6250      0.00000
    135      26.7043      0.00000
    136      26.9735      0.00000
    137      27.0170      0.00000
    138      27.2911      0.00000
    139      27.4730      0.00000
    140      27.6238      0.00000
    141      27.7755      0.00000

 k-point     5 :       0.0000    0.2500    0.0000
  band No.  band energies     occupation 
      1     -25.4536      2.00000
      2     -25.4486      2.00000
      3     -25.4390      2.00000
      4     -25.4384      2.00000
      5     -25.4091      2.00000
      6     -25.4087      2.00000
      7     -25.3866      2.00000
      8     -25.3859      2.00000
      9     -25.3812      2.00000
     10     -25.3804      2.00000
     11     -12.7493      2.00000
     12     -11.5223      2.00000
     13     -11.4541      2.00000
     14     -11.1949      2.00000
     15     -10.9329      2.00000
     16     -10.8584      2.00000
     17      -6.4149      2.00000
     18      -5.4061      2.00000
     19      -2.7782      2.00000
     20      -2.3878      2.00000
     21      -2.2606      2.00000
     22      -1.8726      2.00000
     23      -1.5741      2.00000
     24      -1.3033      2.00000
     25      -1.0673      2.00000
     26      -0.9770      2.00000
     27      -0.8821      2.00000
     28      -0.7846      2.00000
     29      -0.7364      2.00000
     30      -0.6266      2.00000
     31      -0.5829      2.00000
     32      -0.5594      2.00000
     33      -0.4453      2.00000
     34      -0.3938      2.00000
     35       0.4924      2.00000
     36       0.5482      2.00000
     37       0.5507      2.00000
     38       0.5831      2.00000
     39       0.6073      2.00000
     40       0.6387      2.00000
     41       0.6681      2.00000
     42       0.7021      2.00000
     43       0.9034      2.00000
     44       1.0092      2.00000
     45       1.2101      2.00000
     46       1.3002      2.00000
     47       1.4015      2.00000
     48       1.5037      2.00000
     49       1.6905      2.00000
     50       2.0278      2.00000
     51       2.1435      2.00000
     52       2.3926      2.00000
     53       2.9411      2.00000
     54       3.3157      2.00000
     55       4.9036      0.00000
     56       5.6020      0.00000
     57       6.9333      0.00000
     58       7.0981      0.00000
     59       7.3806      0.00000
     60       7.8621      0.00000
     61       8.0582      0.00000
     62       8.3367      0.00000
     63       8.6569      0.00000
     64       9.2671      0.00000
     65       9.5305      0.00000
     66       9.7483      0.00000
     67       9.8637      0.00000
     68      10.1055      0.00000
     69      10.4439      0.00000
     70      10.6258      0.00000
     71      10.9668      0.00000
     72      11.1803      0.00000
     73      11.4620      0.00000
     74      11.8483      0.00000
     75      12.4185      0.00000
     76      12.7637      0.00000
     77      12.9820      0.00000
     78      13.3781      0.00000
     79      13.5897      0.00000
     80      13.7710      0.00000
     81      14.0289      0.00000
     82      14.3511      0.00000
     83      14.6655      0.00000
     84      14.7904      0.00000
     85      15.2202      0.00000
     86      15.4076      0.00000
     87      15.6171      0.00000
     88      16.1497      0.00000
     89      16.4713      0.00000
     90      16.7336      0.00000
     91      16.8736      0.00000
     92      17.0655      0.00000
     93      17.2290      0.00000
     94      17.6759      0.00000
     95      17.8055      0.00000
     96      18.0292      0.00000
     97      18.1370      0.00000
     98      18.3872      0.00000
     99      18.7619      0.00000
    100      19.0532      0.00000
    101      19.2302      0.00000
    102      19.4739      0.00000
    103      19.5707      0.00000
    104      19.8063      0.00000
    105      20.3005      0.00000
    106      20.4847      0.00000
    107      20.7544      0.00000
    108      20.9965      0.00000
    109      21.0129      0.00000
    110      21.2873      0.00000
    111      21.4377      0.00000
    112      21.7479      0.00000
    113      22.0730      0.00000
    114      22.2031      0.00000
    115      22.5380      0.00000
    116      23.0311      0.00000
    117      23.2191      0.00000
    118      23.5287      0.00000
    119      23.9044      0.00000
    120      23.9967      0.00000
    121      24.2015      0.00000
    122      24.6656      0.00000
    123      24.9991      0.00000
    124      25.2724      0.00000
    125      25.4893      0.00000
    126      25.6384      0.00000
    127      25.8471      0.00000
    128      26.1713      0.00000
    129      26.2940      0.00000
    130      26.5217      0.00000
    131      26.6507      0.00000
    132      26.8741      0.00000
    133      27.1010      0.00000
    134      27.1321      0.00000
    135      27.2437      0.00000
    136      27.4589      0.00000
    137      27.5179      0.00000
    138      27.7898      0.00000
    139      27.9631      0.00000
    140      28.1400      0.00000
    141      28.1565      0.00000

 k-point     6 :       0.1429    0.2500    0.0000
  band No.  band energies     occupation 
      1     -25.4537      2.00000
      2     -25.4486      2.00000
      3     -25.4390      2.00000
      4     -25.4384      2.00000
      5     -25.4092      2.00000
      6     -25.4088      2.00000
      7     -25.3867      2.00000
      8     -25.3860      2.00000
      9     -25.3813      2.00000
     10     -25.3805      2.00000
     11     -12.7776      2.00000
     12     -11.5596      2.00000
     13     -11.4796      2.00000
     14     -11.1241      2.00000
     15     -10.9233      2.00000
     16     -10.7935      2.00000
     17      -6.4573      2.00000
     18      -5.4915      2.00000
     19      -2.8132      2.00000
     20      -2.4552      2.00000
     21      -2.1871      2.00000
     22      -1.9018      2.00000
     23      -1.6685      2.00000
     24      -1.3712      2.00000
     25      -1.1547      2.00000
     26      -0.9645      2.00000
     27      -0.7745      2.00000
     28      -0.7341      2.00000
     29      -0.6810      2.00000
     30      -0.6169      2.00000
     31      -0.5895      2.00000
     32      -0.5223      2.00000
     33      -0.4303      2.00000
     34      -0.3656      2.00000
     35       0.4817      2.00000
     36       0.5465      2.00000
     37       0.5549      2.00000
     38       0.5990      2.00000
     39       0.6199      2.00000
     40       0.6426      2.00000
     41       0.6648      2.00000
     42       0.6952      2.00000
     43       0.8885      2.00000
     44       0.9616      2.00000
     45       1.1584      2.00000
     46       1.2331      2.00000
     47       1.5265      2.00000
     48       1.6587      2.00000
     49       1.7101      2.00000
     50       2.0864      2.00000
     51       2.2997      2.00000
     52       2.5055      2.00000
     53       3.0963      2.00000
     54       3.3129      2.00000
     55       4.7339      0.00000
     56       5.3862      0.00000
     57       6.5621      0.00000
     58       6.9329      0.00000
     59       7.4186      0.00000
     60       7.7486      0.00000
     61       8.1026      0.00000
     62       8.3410      0.00000
     63       8.5886      0.00000
     64       9.2178      0.00000
     65       9.3922      0.00000
     66       9.6448      0.00000
     67       9.9795      0.00000
     68      10.0223      0.00000
     69      10.5079      0.00000
     70      10.6084      0.00000
     71      11.1748      0.00000
     72      11.2860      0.00000
     73      11.9232      0.00000
     74      12.0751      0.00000
     75      12.3201      0.00000
     76      12.5505      0.00000
     77      12.9969      0.00000
     78      13.4856      0.00000
     79      13.5742      0.00000
     80      13.9986      0.00000
     81      14.4869      0.00000
     82      14.5441      0.00000
     83      14.7564      0.00000
     84      14.9543      0.00000
     85      15.1354      0.00000
     86      15.4323      0.00000
     87      15.7085      0.00000
     88      15.8866      0.00000
     89      16.2439      0.00000
     90      16.4117      0.00000
     91      16.6576      0.00000
     92      16.9616      0.00000
     93      17.3684      0.00000
     94      17.5166      0.00000
     95      17.8273      0.00000
     96      18.0428      0.00000
     97      18.1531      0.00000
     98      18.4356      0.00000
     99      18.5516      0.00000
    100      18.8894      0.00000
    101      19.0921      0.00000
    102      19.2202      0.00000
    103      19.5087      0.00000
    104      19.7719      0.00000
    105      20.0664      0.00000
    106      20.3390      0.00000
    107      20.5065      0.00000
    108      20.7044      0.00000
    109      21.0792      0.00000
    110      21.3665      0.00000
    111      21.6652      0.00000
    112      22.0855      0.00000
    113      22.2045      0.00000
    114      22.6661      0.00000
    115      22.7724      0.00000
    116      23.0405      0.00000
    117      23.2766      0.00000
    118      23.5249      0.00000
    119      23.7393      0.00000
    120      23.9885      0.00000
    121      24.2826      0.00000
    122      24.4650      0.00000
    123      24.6358      0.00000
    124      25.0698      0.00000
    125      25.4381      0.00000
    126      25.6180      0.00000
    127      25.7050      0.00000
    128      25.8837      0.00000
    129      26.2876      0.00000
    130      26.4167      0.00000
    131      26.6330      0.00000
    132      26.7886      0.00000
    133      27.0203      0.00000
    134      27.2226      0.00000
    135      27.3591      0.00000
    136      27.6645      0.00000
    137      27.7769      0.00000
    138      27.9062      0.00000
    139      28.0669      0.00000
    140      28.2986      0.00000
    141      28.5030      0.00000

 k-point     7 :       0.2857    0.2500    0.0000
  band No.  band energies     occupation 
      1     -25.4536      2.00000
      2     -25.4486      2.00000
      3     -25.4390      2.00000
      4     -25.4384      2.00000
      5     -25.4092      2.00000
      6     -25.4087      2.00000
      7     -25.3867      2.00000
      8     -25.3860      2.00000
      9     -25.3813      2.00000
     10     -25.3805      2.00000
     11     -12.7381      2.00000
     12     -11.6452      2.00000
     13     -11.4614      2.00000
     14     -11.1147      2.00000
     15     -10.9372      2.00000
     16     -10.7784      2.00000
     17      -6.4727      2.00000
     18      -5.4823      2.00000
     19      -2.7633      2.00000
     20      -2.4996      2.00000
     21      -2.1042      2.00000
     22      -1.8298      2.00000
     23      -1.7336      2.00000
     24      -1.4110      2.00000
     25      -1.0961      2.00000
     26      -0.9707      2.00000
     27      -0.8144      2.00000
     28      -0.7026      2.00000
     29      -0.6869      2.00000
     30      -0.6304      2.00000
     31      -0.5653      2.00000
     32      -0.4795      2.00000
     33      -0.4354      2.00000
     34      -0.3203      2.00000
     35       0.4803      2.00000
     36       0.5205      2.00000
     37       0.5474      2.00000
     38       0.5989      2.00000
     39       0.6205      2.00000
     40       0.6390      2.00000
     41       0.6685      2.00000
     42       0.7007      2.00000
     43       0.9286      2.00000
     44       1.0170      2.00000
     45       1.1611      2.00000
     46       1.2036      2.00000
     47       1.5177      2.00000
     48       1.6948      2.00000
     49       1.7532      2.00000
     50       2.0188      2.00000
     51       2.1439      2.00000
     52       2.5020      2.00000
     53       2.9953      2.00000
     54       3.3499      2.00000
     55       4.7225      0.00000
     56       5.4236      0.00000
     57       6.3957      0.00000
     58       7.0064      0.00000
     59       7.3926      0.00000
     60       7.7091      0.00000
     61       8.0360      0.00000
     62       8.2562      0.00000
     63       8.6264      0.00000
     64       9.1616      0.00000
     65       9.4088      0.00000
     66       9.6590      0.00000
     67       9.8297      0.00000
     68      10.2696      0.00000
     69      10.4589      0.00000
     70      10.6025      0.00000
     71      10.9837      0.00000
     72      11.3533      0.00000
     73      11.7127      0.00000
     74      11.8984      0.00000
     75      12.2323      0.00000
     76      12.5619      0.00000
     77      13.2551      0.00000
     78      13.6103      0.00000
     79      13.7140      0.00000
     80      14.2353      0.00000
     81      14.3331      0.00000
     82      14.6701      0.00000
     83      14.9342      0.00000
     84      15.0218      0.00000
     85      15.1439      0.00000
     86      15.6610      0.00000
     87      15.9796      0.00000
     88      16.2156      0.00000
     89      16.4097      0.00000
     90      16.5783      0.00000
     91      16.6524      0.00000
     92      16.9526      0.00000
     93      17.4448      0.00000
     94      17.6702      0.00000
     95      17.7755      0.00000
     96      17.9616      0.00000
     97      18.1917      0.00000
     98      18.3824      0.00000
     99      18.5440      0.00000
    100      18.7981      0.00000
    101      19.0569      0.00000
    102      19.0968      0.00000
    103      19.2897      0.00000
    104      19.5470      0.00000
    105      19.7327      0.00000
    106      20.1443      0.00000
    107      20.3222      0.00000
    108      20.7678      0.00000
    109      20.9994      0.00000
    110      21.3942      0.00000
    111      21.5762      0.00000
    112      21.6533      0.00000
    113      22.4078      0.00000
    114      22.6503      0.00000
    115      23.1850      0.00000
    116      23.3081      0.00000
    117      23.5116      0.00000
    118      23.7354      0.00000
    119      23.8931      0.00000
    120      23.9650      0.00000
    121      24.1527      0.00000
    122      24.6241      0.00000
    123      24.8255      0.00000
    124      24.9711      0.00000
    125      25.3229      0.00000
    126      25.4428      0.00000
    127      25.6442      0.00000
    128      25.9258      0.00000
    129      26.0572      0.00000
    130      26.2325      0.00000
    131      26.3731      0.00000
    132      26.3948      0.00000
    133      26.5839      0.00000
    134      26.7391      0.00000
    135      26.9516      0.00000
    136      27.1226      0.00000
    137      27.4906      0.00000
    138      27.7609      0.00000
    139      28.1219      0.00000
    140      28.3102      0.00000
    141      28.4524      0.00000

 k-point     8 :       0.4286    0.2500    0.0000
  band No.  band energies     occupation 
      1     -25.4536      2.00000
      2     -25.4485      2.00000
      3     -25.4389      2.00000
      4     -25.4383      2.00000
      5     -25.4091      2.00000
      6     -25.4087      2.00000
      7     -25.3866      2.00000
      8     -25.3859      2.00000
      9     -25.3812      2.00000
     10     -25.3804      2.00000
     11     -12.6511      2.00000
     12     -11.7109      2.00000
     13     -11.4263      2.00000
     14     -11.1895      2.00000
     15     -10.9545      2.00000
     16     -10.8203      2.00000
     17      -6.4457      2.00000
     18      -5.3678      2.00000
     19      -2.6159      2.00000
     20      -2.4552      2.00000
     21      -2.1795      2.00000
     22      -1.8783      2.00000
     23      -1.5402      2.00000
     24      -1.4452      2.00000
     25      -1.2402      2.00000
     26      -0.9074      2.00000
     27      -0.8447      2.00000
     28      -0.7157      2.00000
     29      -0.6858      2.00000
     30      -0.5854      2.00000
     31      -0.5705      2.00000
     32      -0.4984      2.00000
     33      -0.4121      2.00000
     34      -0.3008      2.00000
     35       0.4604      2.00000
     36       0.5241      2.00000
     37       0.5523      2.00000
     38       0.6132      2.00000
     39       0.6260      2.00000
     40       0.6452      2.00000
     41       0.6721      2.00000
     42       0.7039      2.00000
     43       0.9514      2.00000
     44       1.0417      2.00000
     45       1.0993      2.00000
     46       1.2871      2.00000
     47       1.3319      2.00000
     48       1.5493      2.00000
     49       1.8229      2.00000
     50       1.9565      2.00000
     51       2.1755      2.00000
     52       2.4870      2.00000
     53       2.9283      2.00000
     54       3.0732      2.00000
     55       4.7962      0.00000
     56       5.5906      0.00000
     57       6.4079      0.00000
     58       6.9265      0.00000
     59       7.3920      0.00000
     60       7.6608      0.00000
     61       7.7856      0.00000
     62       7.9673      0.00000
     63       8.7642      0.00000
     64       9.1635      0.00000
     65       9.5673      0.00000
     66       9.7816      0.00000
     67      10.1768      0.00000
     68      10.3073      0.00000
     69      10.4897      0.00000
     70      10.8212      0.00000
     71      11.1242      0.00000
     72      11.2623      0.00000
     73      11.7771      0.00000
     74      12.1370      0.00000
     75      12.2601      0.00000
     76      12.5549      0.00000
     77      13.0274      0.00000
     78      13.2396      0.00000
     79      13.4688      0.00000
     80      14.0998      0.00000
     81      14.4034      0.00000
     82      14.5610      0.00000
     83      14.6528      0.00000
     84      15.0250      0.00000
     85      15.3046      0.00000
     86      15.3726      0.00000
     87      15.6472      0.00000
     88      16.0988      0.00000
     89      16.2816      0.00000
     90      16.5859      0.00000
     91      16.9111      0.00000
     92      17.0418      0.00000
     93      17.5374      0.00000
     94      17.6276      0.00000
     95      17.7863      0.00000
     96      18.1173      0.00000
     97      18.3901      0.00000
     98      18.6633      0.00000
     99      18.7419      0.00000
    100      19.1116      0.00000
    101      19.2476      0.00000
    102      19.3473      0.00000
    103      19.7131      0.00000
    104      20.1280      0.00000
    105      20.1955      0.00000
    106      20.4874      0.00000
    107      20.8793      0.00000
    108      21.0282      0.00000
    109      21.3785      0.00000
    110      21.4648      0.00000
    111      21.8259      0.00000
    112      22.0579      0.00000
    113      22.1482      0.00000
    114      22.2931      0.00000
    115      22.7924      0.00000
    116      22.8736      0.00000
    117      23.0643      0.00000
    118      23.1804      0.00000
    119      23.4183      0.00000
    120      23.7807      0.00000
    121      24.0361      0.00000
    122      24.4283      0.00000
    123      24.5534      0.00000
    124      24.6805      0.00000
    125      24.8263      0.00000
    126      25.0704      0.00000
    127      25.2312      0.00000
    128      25.4025      0.00000
    129      25.7527      0.00000
    130      26.0237      0.00000
    131      26.0966      0.00000
    132      26.2410      0.00000
    133      26.4171      0.00000
    134      26.5907      0.00000
    135      26.7644      0.00000
    136      27.1450      0.00000
    137      27.3350      0.00000
    138      27.6371      0.00000
    139      27.8758      0.00000
    140      28.0947      0.00000
    141      28.2477      0.00000

 k-point     9 :       0.0000    0.5000    0.0000
  band No.  band energies     occupation 
      1     -25.4535      2.00000
      2     -25.4485      2.00000
      3     -25.4389      2.00000
      4     -25.4383      2.00000
      5     -25.4089      2.00000
      6     -25.4085      2.00000
      7     -25.3865      2.00000
      8     -25.3858      2.00000
      9     -25.3811      2.00000
     10     -25.3803      2.00000
     11     -12.6010      2.00000
     12     -11.6357      2.00000
     13     -11.4277      2.00000
     14     -11.2581      2.00000
     15     -10.9841      2.00000
     16     -10.9338      2.00000
     17      -6.3638      2.00000
     18      -5.2211      2.00000
     19      -2.6240      2.00000
     20      -2.3725      2.00000
     21      -2.1259      2.00000
     22      -1.6786      2.00000
     23      -1.4925      2.00000
     24      -1.3523      2.00000
     25      -1.1968      2.00000
     26      -1.1492      2.00000
     27      -0.9373      2.00000
     28      -0.8463      2.00000
     29      -0.6915      2.00000
     30      -0.6098      2.00000
     31      -0.5730      2.00000
     32      -0.5473      2.00000
     33      -0.4223      2.00000
     34      -0.3527      2.00000
     35       0.4706      2.00000
     36       0.5259      2.00000
     37       0.5424      2.00000
     38       0.5921      2.00000
     39       0.6486      2.00000
     40       0.6581      2.00000
     41       0.6842      2.00000
     42       0.7466      2.00000
     43       0.9115      2.00000
     44       0.9610      2.00000
     45       1.0510      2.00000
     46       1.2803      2.00000
     47       1.4718      2.00000
     48       1.5095      2.00000
     49       1.6651      2.00000
     50       1.8070      2.00000
     51       2.1745      2.00000
     52       2.3508      2.00000
     53       2.4790      2.00000
     54       3.0935      2.00000
     55       5.1430      0.00000
     56       5.7915      0.00000
     57       6.7457      0.00000
     58       7.0416      0.00000
     59       7.3013      0.00000
     60       7.7562      0.00000
     61       8.1835      0.00000
     62       8.6535      0.00000
     63       8.8938      0.00000
     64       9.3036      0.00000
     65       9.6017      0.00000
     66       9.7119      0.00000
     67      10.0847      0.00000
     68      10.1817      0.00000
     69      10.4581      0.00000
     70      10.6482      0.00000
     71      10.8401      0.00000
     72      11.2550      0.00000
     73      11.6188      0.00000
     74      11.7642      0.00000
     75      12.1164      0.00000
     76      12.3944      0.00000
     77      12.6552      0.00000
     78      13.0515      0.00000
     79      13.4522      0.00000
     80      13.6318      0.00000
     81      13.7950      0.00000
     82      14.2428      0.00000
     83      14.8636      0.00000
     84      15.1805      0.00000
     85      15.3260      0.00000
     86      15.6317      0.00000
     87      15.9057      0.00000
     88      16.2306      0.00000
     89      16.3273      0.00000
     90      16.6888      0.00000
     91      16.8977      0.00000
     92      17.1185      0.00000
     93      17.7917      0.00000
     94      17.8681      0.00000
     95      18.0785      0.00000
     96      18.3451      0.00000
     97      18.5139      0.00000
     98      18.6549      0.00000
     99      18.6783      0.00000
    100      18.8104      0.00000
    101      19.3505      0.00000
    102      19.5094      0.00000
    103      19.8236      0.00000
    104      19.9355      0.00000
    105      20.0477      0.00000
    106      20.2022      0.00000
    107      20.7899      0.00000
    108      21.1847      0.00000
    109      21.3282      0.00000
    110      21.7715      0.00000
    111      21.9449      0.00000
    112      22.2585      0.00000
    113      22.6723      0.00000
    114      22.7556      0.00000
    115      23.1094      0.00000
    116      23.1456      0.00000
    117      23.3101      0.00000
    118      23.4794      0.00000
    119      23.7127      0.00000
    120      23.8676      0.00000
    121      23.9870      0.00000
    122      24.1852      0.00000
    123      24.3240      0.00000
    124      24.5855      0.00000
    125      25.2873      0.00000
    126      25.3514      0.00000
    127      25.3649      0.00000
    128      25.5927      0.00000
    129      25.6816      0.00000
    130      25.9381      0.00000
    131      25.9622      0.00000
    132      26.1057      0.00000
    133      26.1732      0.00000
    134      26.4406      0.00000
    135      26.6679      0.00000
    136      26.8854      0.00000
    137      26.9128      0.00000
    138      27.1809      0.00000
    139      27.3176      0.00000
    140      27.4831      0.00000
    141      27.7213      0.00000

 k-point    10 :       0.1429    0.5000    0.0000
  band No.  band energies     occupation 
      1     -25.4535      2.00000
      2     -25.4485      2.00000
      3     -25.4389      2.00000
      4     -25.4383      2.00000
      5     -25.4090      2.00000
      6     -25.4085      2.00000
      7     -25.3865      2.00000
      8     -25.3858      2.00000
      9     -25.3811      2.00000
     10     -25.3803      2.00000
     11     -12.6049      2.00000
     12     -11.6559      2.00000
     13     -11.4230      2.00000
     14     -11.2728      2.00000
     15     -10.9661      2.00000
     16     -10.9015      2.00000
     17      -6.3855      2.00000
     18      -5.2419      2.00000
     19      -2.5818      2.00000
     20      -2.3541      2.00000
     21      -2.2179      2.00000
     22      -1.6780      2.00000
     23      -1.6015      2.00000
     24      -1.4879      2.00000
     25      -1.2983      2.00000
     26      -0.9403      2.00000
     27      -0.8592      2.00000
     28      -0.7403      2.00000
     29      -0.6990      2.00000
     30      -0.6248      2.00000
     31      -0.5736      2.00000
     32      -0.5374      2.00000
     33      -0.4114      2.00000
     34      -0.3395      2.00000
     35       0.4641      2.00000
     36       0.5194      2.00000
     37       0.5685      2.00000
     38       0.6093      2.00000
     39       0.6427      2.00000
     40       0.6519      2.00000
     41       0.6743      2.00000
     42       0.7416      2.00000
     43       0.8867      2.00000
     44       0.9735      2.00000
     45       1.1331      2.00000
     46       1.2474      2.00000
     47       1.3055      2.00000
     48       1.5320      2.00000
     49       1.7564      2.00000
     50       1.9561      2.00000
     51       2.1890      2.00000
     52       2.4069      2.00000
     53       2.6100      2.00000
     54       3.0500      2.00000
     55       4.9990      0.00000
     56       5.7015      0.00000
     57       6.7708      0.00000
     58       7.0255      0.00000
     59       7.2121      0.00000
     60       7.3750      0.00000
     61       7.9750      0.00000
     62       8.2564      0.00000
     63       8.9435      0.00000
     64       9.2632      0.00000
     65       9.6294      0.00000
     66       9.9349      0.00000
     67      10.1664      0.00000
     68      10.4771      0.00000
     69      10.5739      0.00000
     70      10.9473      0.00000
     71      11.1389      0.00000
     72      11.3703      0.00000
     73      11.5101      0.00000
     74      11.8107      0.00000
     75      12.0670      0.00000
     76      12.4407      0.00000
     77      12.8465      0.00000
     78      12.9880      0.00000
     79      13.5892      0.00000
     80      13.8565      0.00000
     81      14.0175      0.00000
     82      14.3670      0.00000
     83      14.6484      0.00000
     84      14.8714      0.00000
     85      14.9307      0.00000
     86      15.2226      0.00000
     87      15.5755      0.00000
     88      15.7576      0.00000
     89      16.3783      0.00000
     90      16.6945      0.00000
     91      17.1360      0.00000
     92      17.3307      0.00000
     93      17.4630      0.00000
     94      17.7090      0.00000
     95      17.8175      0.00000
     96      18.1420      0.00000
     97      18.5479      0.00000
     98      18.8421      0.00000
     99      19.0692      0.00000
    100      19.2397      0.00000
    101      19.4301      0.00000
    102      19.8753      0.00000
    103      19.9536      0.00000
    104      20.3380      0.00000
    105      20.6190      0.00000
    106      20.9567      0.00000
    107      21.0466      0.00000
    108      21.2024      0.00000
    109      21.4724      0.00000
    110      21.6255      0.00000
    111      21.8268      0.00000
    112      21.9549      0.00000
    113      22.3089      0.00000
    114      22.3555      0.00000
    115      22.5508      0.00000
    116      22.8932      0.00000
    117      23.0101      0.00000
    118      23.1494      0.00000
    119      23.4301      0.00000
    120      23.6755      0.00000
    121      23.9001      0.00000
    122      24.2868      0.00000
    123      24.3415      0.00000
    124      24.5660      0.00000
    125      24.7208      0.00000
    126      24.8531      0.00000
    127      25.1831      0.00000
    128      25.2223      0.00000
    129      25.5143      0.00000
    130      25.6993      0.00000
    131      25.8859      0.00000
    132      26.2003      0.00000
    133      26.4501      0.00000
    134      26.5174      0.00000
    135      26.8216      0.00000
    136      26.9804      0.00000
    137      27.2572      0.00000
    138      27.4398      0.00000
    139      27.6143      0.00000
    140      27.7886      0.00000
    141      27.9543      0.00000

 k-point    11 :       0.2857    0.5000    0.0000
  band No.  band energies     occupation 
      1     -25.4535      2.00000
      2     -25.4485      2.00000
      3     -25.4389      2.00000
      4     -25.4383      2.00000
      5     -25.4091      2.00000
      6     -25.4086      2.00000
      7     -25.3866      2.00000
      8     -25.3859      2.00000
      9     -25.3812      2.00000
     10     -25.3804      2.00000
     11     -12.6076      2.00000
     12     -11.7445      2.00000
     13     -11.4083      2.00000
     14     -11.2312      2.00000
     15     -10.9533      2.00000
     16     -10.8404      2.00000
     17      -6.4349      2.00000
     18      -5.3157      2.00000
     19      -2.5133      2.00000
     20      -2.4126      2.00000
     21      -2.1768      2.00000
     22      -1.9189      2.00000
     23      -1.6016      2.00000
     24      -1.5271      2.00000
     25      -1.2762      2.00000
     26      -0.8699      2.00000
     27      -0.8357      2.00000
     28      -0.6930      2.00000
     29      -0.6762      2.00000
     30      -0.5826      2.00000
     31      -0.5539      2.00000
     32      -0.4920      2.00000
     33      -0.4083      2.00000
     34      -0.2861      2.00000
     35       0.4705      2.00000
     36       0.5184      2.00000
     37       0.5716      2.00000
     38       0.6178      2.00000
     39       0.6350      2.00000
     40       0.6534      2.00000
     41       0.6783      2.00000
     42       0.7231      2.00000
     43       0.9169      2.00000
     44       0.9960      2.00000
     45       1.0630      2.00000
     46       1.2987      2.00000
     47       1.3401      2.00000
     48       1.5125      2.00000
     49       1.7838      2.00000
     50       1.9685      2.00000
     51       2.2155      2.00000
     52       2.5619      2.00000
     53       2.9211      2.00000
     54       2.9696      2.00000
     55       4.7488      0.00000
     56       5.5993      0.00000
     57       6.3778      0.00000
     58       6.8604      0.00000
     59       7.3321      0.00000
     60       7.5337      0.00000
     61       7.6664      0.00000
     62       7.8216      0.00000
     63       8.8958      0.00000
     64       9.2456      0.00000
     65       9.6045      0.00000
     66       9.9656      0.00000
     67      10.3115      0.00000
     68      10.4200      0.00000
     69      10.6689      0.00000
     70      10.8255      0.00000
     71      11.1660      0.00000
     72      11.4349      0.00000
     73      11.8069      0.00000
     74      12.0809      0.00000
     75      12.2898      0.00000
     76      12.6226      0.00000
     77      13.0054      0.00000
     78      13.2188      0.00000
     79      13.4676      0.00000
     80      13.9026      0.00000
     81      14.2402      0.00000
     82      14.4777      0.00000
     83      14.6639      0.00000
     84      14.9528      0.00000
     85      14.9895      0.00000
     86      15.1753      0.00000
     87      15.4282      0.00000
     88      15.9890      0.00000
     89      16.1271      0.00000
     90      16.3400      0.00000
     91      16.8289      0.00000
     92      17.1892      0.00000
     93      17.4913      0.00000
     94      17.6317      0.00000
     95      17.9167      0.00000
     96      18.1857      0.00000
     97      18.8537      0.00000
     98      18.9100      0.00000
     99      19.0908      0.00000
    100      19.3507      0.00000
    101      19.5893      0.00000
    102      19.8158      0.00000
    103      20.1084      0.00000
    104      20.4002      0.00000
    105      20.6066      0.00000
    106      20.7654      0.00000
    107      20.8725      0.00000
    108      20.9897      0.00000
    109      21.3354      0.00000
    110      21.5476      0.00000
    111      21.6596      0.00000
    112      21.9234      0.00000
    113      22.0274      0.00000
    114      22.1696      0.00000
    115      22.5503      0.00000
    116      22.6984      0.00000
    117      22.9625      0.00000
    118      23.1581      0.00000
    119      23.4956      0.00000
    120      23.6692      0.00000
    121      23.8242      0.00000
    122      23.9546      0.00000
    123      24.1167      0.00000
    124      24.4112      0.00000
    125      24.7060      0.00000
    126      24.8455      0.00000
    127      25.2206      0.00000
    128      25.4187      0.00000
    129      25.5910      0.00000
    130      25.6726      0.00000
    131      25.8146      0.00000
    132      26.0215      0.00000
    133      26.2920      0.00000
    134      26.4835      0.00000
    135      27.0105      0.00000
    136      27.0748      0.00000
    137      27.3570      0.00000
    138      27.5052      0.00000
    139      27.6358      0.00000
    140      27.9200      0.00000
    141      28.1360      0.00000

 k-point    12 :       0.4286    0.5000    0.0000
  band No.  band energies     occupation 
      1     -25.4535      2.00000
      2     -25.4485      2.00000
      3     -25.4389      2.00000
      4     -25.4383      2.00000
      5     -25.4091      2.00000
      6     -25.4087      2.00000
      7     -25.3867      2.00000
      8     -25.3859      2.00000
      9     -25.3812      2.00000
     10     -25.3804      2.00000
     11     -12.6032      2.00000
     12     -11.8329      2.00000
     13     -11.3942      2.00000
     14     -11.1627      2.00000
     15     -10.9593      2.00000
     16     -10.7990      2.00000
     17      -6.4756      2.00000
     18      -5.3982      2.00000
     19      -2.4820      2.00000
     20      -2.4539      2.00000
     21      -2.1984      2.00000
     22      -1.9607      2.00000
     23      -1.5278      2.00000
     24      -1.3700      2.00000
     25      -1.1915      2.00000
     26      -1.0121      2.00000
     27      -0.9883      2.00000
     28      -0.6696      2.00000
     29      -0.6351      2.00000
     30      -0.5837      2.00000
     31      -0.5357      2.00000
     32      -0.4180      2.00000
     33      -0.4081      2.00000
     34      -0.2344      2.00000
     35       0.4857      2.00000
     36       0.5105      2.00000
     37       0.5715      2.00000
     38       0.6021      2.00000
     39       0.6104      2.00000
     40       0.6445      2.00000
     41       0.6839      2.00000
     42       0.7128      2.00000
     43       0.9881      2.00000
     44       1.0576      2.00000
     45       1.0794      2.00000
     46       1.2374      2.00000
     47       1.4249      2.00000
     48       1.4667      2.00000
     49       1.7717      2.00000
     50       1.9212      2.00000
     51       2.0723      2.00000
     52       2.6147      2.00000
     53       2.9843      2.00000
     54       3.2469      2.00000
     55       4.5581      0.00000
     56       5.5549      0.00000
     57       5.9731      0.00000
     58       7.0210      0.00000
     59       7.3311      0.00000
     60       7.6774      0.00000
     61       7.8318      0.00000
     62       8.0258      0.00000
     63       8.7678      0.00000
     64       9.1866      0.00000
     65       9.5794      0.00000
     66       9.7550      0.00000
     67       9.8451      0.00000
     68      10.2936      0.00000
     69      10.4941      0.00000
     70      10.8177      0.00000
     71      10.8829      0.00000
     72      11.3127      0.00000
     73      11.5169      0.00000
     74      12.3956      0.00000
     75      12.5669      0.00000
     76      12.6951      0.00000
     77      12.8868      0.00000
     78      13.2129      0.00000
     79      13.4022      0.00000
     80      13.8770      0.00000
     81      14.7347      0.00000
     82      14.8573      0.00000
     83      15.1325      0.00000
     84      15.2597      0.00000
     85      15.3644      0.00000
     86      15.6147      0.00000
     87      15.9943      0.00000
     88      16.1872      0.00000
     89      16.4047      0.00000
     90      16.7936      0.00000
     91      16.9436      0.00000
     92      17.4038      0.00000
     93      17.6537      0.00000
     94      17.7444      0.00000
     95      17.8675      0.00000
     96      18.0430      0.00000
     97      18.2560      0.00000
     98      18.4486      0.00000
     99      18.5259      0.00000
    100      18.7865      0.00000
    101      19.0407      0.00000
    102      19.1797      0.00000
    103      19.5060      0.00000
    104      19.6995      0.00000
    105      19.7452      0.00000
    106      20.0191      0.00000
    107      20.4305      0.00000
    108      21.2144      0.00000
    109      21.3695      0.00000
    110      21.4616      0.00000
    111      21.8538      0.00000
    112      22.0363      0.00000
    113      22.2810      0.00000
    114      22.4341      0.00000
    115      22.6483      0.00000
    116      22.6855      0.00000
    117      23.0719      0.00000
    118      23.2653      0.00000
    119      23.5890      0.00000
    120      24.0723      0.00000
    121      24.2477      0.00000
    122      24.3583      0.00000
    123      24.5876      0.00000
    124      24.8418      0.00000
    125      25.1679      0.00000
    126      25.2707      0.00000
    127      25.3159      0.00000
    128      25.5756      0.00000
    129      25.6531      0.00000
    130      26.0368      0.00000
    131      26.1998      0.00000
    132      26.4385      0.00000
    133      26.5105      0.00000
    134      26.7080      0.00000
    135      26.8889      0.00000
    136      27.0144      0.00000
    137      27.1928      0.00000
    138      27.3332      0.00000
    139      27.4461      0.00000
    140      27.6378      0.00000
    141      27.8140      0.00000

 k-point    13 :       0.0000    0.0000    0.1429
  band No.  band energies     occupation 
      1     -25.4535      2.00000
      2     -25.4489      2.00000
      3     -25.4390      2.00000
      4     -25.4384      2.00000
      5     -25.4092      2.00000
      6     -25.4088      2.00000
      7     -25.3867      2.00000
      8     -25.3860      2.00000
      9     -25.3813      2.00000
     10     -25.3806      2.00000
     11     -12.8182      2.00000
     12     -11.6881      2.00000
     13     -11.3068      2.00000
     14     -11.1400      2.00000
     15     -10.8295      2.00000
     16     -10.8248      2.00000
     17      -6.3893      2.00000
     18      -5.6057      2.00000
     19      -2.8135      2.00000
     20      -2.4513      2.00000
     21      -2.1325      2.00000
     22      -2.0290      2.00000
     23      -1.7014      2.00000
     24      -1.4165      2.00000
     25      -1.4082      2.00000
     26      -1.0002      2.00000
     27      -0.7627      2.00000
     28      -0.6622      2.00000
     29      -0.6486      2.00000
     30      -0.6288      2.00000
     31      -0.6074      2.00000
     32      -0.5276      2.00000
     33      -0.4130      2.00000
     34      -0.4066      2.00000
     35       0.5308      2.00000
     36       0.5736      2.00000
     37       0.5914      2.00000
     38       0.6151      2.00000
     39       0.6444      2.00000
     40       0.6554      2.00000
     41       0.6837      2.00000
     42       0.7076      2.00000
     43       0.7920      2.00000
     44       0.9207      2.00000
     45       0.9876      2.00000
     46       1.1899      2.00000
     47       1.2222      2.00000
     48       1.8414      2.00000
     49       1.8976      2.00000
     50       2.3810      2.00000
     51       2.4831      2.00000
     52       2.9113      2.00000
     53       3.2461      2.00000
     54       3.2870      2.00000
     55       4.5440      0.00000
     56       5.0301      0.00000
     57       6.5980      0.00000
     58       6.6803      0.00000
     59       7.2829      0.00000
     60       7.6105      0.00000
     61       8.4266      0.00000
     62       8.5534      0.00000
     63       8.6565      0.00000
     64       9.3700      0.00000
     65       9.4422      0.00000
     66       9.7535      0.00000
     67       9.8006      0.00000
     68      10.3989      0.00000
     69      10.6312      0.00000
     70      10.8815      0.00000
     71      11.3681      0.00000
     72      11.7108      0.00000
     73      11.9619      0.00000
     74      12.2473      0.00000
     75      12.5868      0.00000
     76      12.8251      0.00000
     77      12.9747      0.00000
     78      13.0202      0.00000
     79      13.4125      0.00000
     80      13.5513      0.00000
     81      13.8834      0.00000
     82      13.9149      0.00000
     83      14.4380      0.00000
     84      14.6873      0.00000
     85      14.8480      0.00000
     86      15.0143      0.00000
     87      15.3832      0.00000
     88      15.5281      0.00000
     89      16.0863      0.00000
     90      16.1127      0.00000
     91      16.2887      0.00000
     92      16.6087      0.00000
     93      16.6951      0.00000
     94      17.4266      0.00000
     95      17.5772      0.00000
     96      18.3531      0.00000
     97      18.5461      0.00000
     98      18.8317      0.00000
     99      19.1199      0.00000
    100      19.3173      0.00000
    101      19.6610      0.00000
    102      19.7519      0.00000
    103      19.7941      0.00000
    104      20.1269      0.00000
    105      20.4023      0.00000
    106      20.4208      0.00000
    107      20.6917      0.00000
    108      21.3200      0.00000
    109      21.4823      0.00000
    110      21.7278      0.00000
    111      21.7338      0.00000
    112      21.9634      0.00000
    113      22.2339      0.00000
    114      22.4198      0.00000
    115      22.5171      0.00000
    116      22.6669      0.00000
    117      22.6844      0.00000
    118      23.2214      0.00000
    119      23.2370      0.00000
    120      23.9493      0.00000
    121      24.6212      0.00000
    122      24.6970      0.00000
    123      24.8449      0.00000
    124      25.0750      0.00000
    125      25.4837      0.00000
    126      25.6232      0.00000
    127      25.8010      0.00000
    128      25.8674      0.00000
    129      26.4006      0.00000
    130      26.4967      0.00000
    131      26.8752      0.00000
    132      26.9704      0.00000
    133      27.2753      0.00000
    134      27.2952      0.00000
    135      27.5275      0.00000
    136      27.6019      0.00000
    137      27.6797      0.00000
    138      27.7964      0.00000
    139      28.2003      0.00000
    140      28.2741      0.00000
    141      28.6386      0.00000

 k-point    14 :       0.1429    0.0000    0.1429
  band No.  band energies     occupation 
      1     -25.4534      2.00000
      2     -25.4488      2.00000
      3     -25.4389      2.00000
      4     -25.4383      2.00000
      5     -25.4091      2.00000
      6     -25.4087      2.00000
      7     -25.3866      2.00000
      8     -25.3860      2.00000
      9     -25.3812      2.00000
     10     -25.3805      2.00000
     11     -12.7602      2.00000
     12     -11.7132      2.00000
     13     -11.3153      2.00000
     14     -11.1792      2.00000
     15     -10.8823      2.00000
     16     -10.8186      2.00000
     17      -6.3598      2.00000
     18      -5.5093      2.00000
     19      -2.7332      2.00000
     20      -2.3644      2.00000
     21      -2.1081      2.00000
     22      -1.9629      2.00000
     23      -1.7982      2.00000
     24      -1.4346      2.00000
     25      -1.2080      2.00000
     26      -1.0387      2.00000
     27      -0.8718      2.00000
     28      -0.7697      2.00000
     29      -0.6629      2.00000
     30      -0.6162      2.00000
     31      -0.5934      2.00000
     32      -0.5282      2.00000
     33      -0.4345      2.00000
     34      -0.3974      2.00000
     35       0.5211      2.00000
     36       0.5590      2.00000
     37       0.5706      2.00000
     38       0.6152      2.00000
     39       0.6201      2.00000
     40       0.6588      2.00000
     41       0.6931      2.00000
     42       0.6981      2.00000
     43       0.8056      2.00000
     44       0.9725      2.00000
     45       1.0812      2.00000
     46       1.1608      2.00000
     47       1.2385      2.00000
     48       1.6859      2.00000
     49       1.9744      2.00000
     50       2.1361      2.00000
     51       2.4059      2.00000
     52       2.4567      2.00000
     53       3.0851      2.00000
     54       3.1696      2.00000
     55       4.9124      0.00000
     56       5.3467      0.00000
     57       6.8769      0.00000
     58       7.0398      0.00000
     59       7.3964      0.00000
     60       7.9183      0.00000
     61       8.3278      0.00000
     62       8.5253      0.00000
     63       8.7011      0.00000
     64       9.2304      0.00000
     65       9.7438      0.00000
     66       9.8529      0.00000
     67      10.1085      0.00000
     68      10.2839      0.00000
     69      10.4215      0.00000
     70      10.7304      0.00000
     71      10.9939      0.00000
     72      11.2643      0.00000
     73      11.5029      0.00000
     74      11.8166      0.00000
     75      12.1943      0.00000
     76      12.3645      0.00000
     77      13.0549      0.00000
     78      13.1342      0.00000
     79      13.2613      0.00000
     80      13.6264      0.00000
     81      13.7908      0.00000
     82      14.2958      0.00000
     83      14.4863      0.00000
     84      14.7994      0.00000
     85      15.0797      0.00000
     86      15.2074      0.00000
     87      15.3872      0.00000
     88      15.8379      0.00000
     89      15.9355      0.00000
     90      16.1085      0.00000
     91      16.5725      0.00000
     92      16.9491      0.00000
     93      17.1932      0.00000
     94      17.5630      0.00000
     95      17.8394      0.00000
     96      18.2447      0.00000
     97      18.7441      0.00000
     98      18.9942      0.00000
     99      19.1535      0.00000
    100      19.3066      0.00000
    101      19.5662      0.00000
    102      19.8114      0.00000
    103      20.1401      0.00000
    104      20.2755      0.00000
    105      20.4459      0.00000
    106      20.5406      0.00000
    107      20.6528      0.00000
    108      20.8447      0.00000
    109      21.1611      0.00000
    110      21.2000      0.00000
    111      21.5573      0.00000
    112      21.9445      0.00000
    113      22.0838      0.00000
    114      22.2800      0.00000
    115      22.6384      0.00000
    116      22.8557      0.00000
    117      23.0891      0.00000
    118      23.3205      0.00000
    119      23.4953      0.00000
    120      23.6355      0.00000
    121      24.2289      0.00000
    122      24.5759      0.00000
    123      25.1064      0.00000
    124      25.2229      0.00000
    125      25.4110      0.00000
    126      25.5676      0.00000
    127      25.9340      0.00000
    128      26.1701      0.00000
    129      26.2876      0.00000
    130      26.4522      0.00000
    131      26.5319      0.00000
    132      26.8653      0.00000
    133      26.9588      0.00000
    134      27.1386      0.00000
    135      27.2552      0.00000
    136      27.4281      0.00000
    137      27.5233      0.00000
    138      27.6533      0.00000
    139      28.0367      0.00000
    140      28.2021      0.00000
    141      28.3615      0.00000

 k-point    15 :       0.2857    0.0000    0.1429
  band No.  band energies     occupation 
      1     -25.4533      2.00000
      2     -25.4488      2.00000
      3     -25.4388      2.00000
      4     -25.4382      2.00000
      5     -25.4090      2.00000
      6     -25.4086      2.00000
      7     -25.3865      2.00000
      8     -25.3858      2.00000
      9     -25.3811      2.00000
     10     -25.3804      2.00000
     11     -12.6507      2.00000
     12     -11.7162      2.00000
     13     -11.3900      2.00000
     14     -11.2144      2.00000
     15     -10.9594      2.00000
     16     -10.8440      2.00000
     17      -6.3250      2.00000
     18      -5.3688      2.00000
     19      -2.6268      2.00000
     20      -2.3648      2.00000
     21      -2.1190      2.00000
     22      -1.8072      2.00000
     23      -1.5899      2.00000
     24      -1.4756      2.00000
     25      -1.1452      2.00000
     26      -1.0422      2.00000
     27      -0.9645      2.00000
     28      -0.8269      2.00000
     29      -0.7229      2.00000
     30      -0.6214      2.00000
     31      -0.5824      2.00000
     32      -0.5316      2.00000
     33      -0.4495      2.00000
     34      -0.3701      2.00000
     35       0.5001      2.00000
     36       0.5384      2.00000
     37       0.5676      2.00000
     38       0.6072      2.00000
     39       0.6235      2.00000
     40       0.6375      2.00000
     41       0.6899      2.00000
     42       0.7085      2.00000
     43       0.8310      2.00000
     44       1.1012      2.00000
     45       1.2037      2.00000
     46       1.2339      2.00000
     47       1.3739      2.00000
     48       1.4834      2.00000
     49       1.6508      2.00000
     50       1.9703      2.00000
     51       2.1705      2.00000
     52       2.2781      2.00000
     53       2.8433      2.00000
     54       2.9783      2.00000
     55       5.1693      0.00000
     56       5.7329      0.00000
     57       7.0053      0.00000
     58       7.1342      0.00000
     59       7.6684      0.00000
     60       7.8039      0.00000
     61       8.2201      0.00000
     62       8.4419      0.00000
     63       8.9592      0.00000
     64       9.2528      0.00000
     65       9.5597      0.00000
     66       9.9453      0.00000
     67      10.1087      0.00000
     68      10.2931      0.00000
     69      10.4272      0.00000
     70      10.5684      0.00000
     71      10.9351      0.00000
     72      11.0876      0.00000
     73      11.2929      0.00000
     74      11.5509      0.00000
     75      11.8472      0.00000
     76      12.1098      0.00000
     77      12.4905      0.00000
     78      12.9498      0.00000
     79      13.3511      0.00000
     80      13.7272      0.00000
     81      13.8718      0.00000
     82      14.2004      0.00000
     83      14.5765      0.00000
     84      14.9820      0.00000
     85      15.7283      0.00000
     86      15.8451      0.00000
     87      15.9116      0.00000
     88      16.2601      0.00000
     89      16.5114      0.00000
     90      16.8654      0.00000
     91      17.2544      0.00000
     92      17.2913      0.00000
     93      17.4310      0.00000
     94      17.6314      0.00000
     95      17.9258      0.00000
     96      18.2461      0.00000
     97      18.4211      0.00000
     98      18.4730      0.00000
     99      18.6668      0.00000
    100      19.0083      0.00000
    101      19.1830      0.00000
    102      19.3671      0.00000
    103      19.6040      0.00000
    104      19.7908      0.00000
    105      19.9218      0.00000
    106      20.5294      0.00000
    107      20.7034      0.00000
    108      20.8989      0.00000
    109      21.4301      0.00000
    110      21.6425      0.00000
    111      21.8297      0.00000
    112      22.0023      0.00000
    113      22.4941      0.00000
    114      22.8234      0.00000
    115      22.9284      0.00000
    116      23.1738      0.00000
    117      23.4604      0.00000
    118      23.6062      0.00000
    119      23.7584      0.00000
    120      23.8773      0.00000
    121      24.0703      0.00000
    122      24.3624      0.00000
    123      24.5310      0.00000
    124      24.9294      0.00000
    125      25.0786      0.00000
    126      25.3226      0.00000
    127      25.6051      0.00000
    128      25.7237      0.00000
    129      25.9473      0.00000
    130      26.0301      0.00000
    131      26.1282      0.00000
    132      26.2940      0.00000
    133      26.4677      0.00000
    134      26.7075      0.00000
    135      26.9412      0.00000
    136      27.0029      0.00000
    137      27.2049      0.00000
    138      27.3856      0.00000
    139      27.7762      0.00000
    140      27.9785      0.00000
    141      28.1327      0.00000

 k-point    16 :       0.4286    0.0000    0.1429
  band No.  band energies     occupation 
      1     -25.4533      2.00000
      2     -25.4488      2.00000
      3     -25.4388      2.00000
      4     -25.4382      2.00000
      5     -25.4089      2.00000
      6     -25.4085      2.00000
      7     -25.3865      2.00000
      8     -25.3858      2.00000
      9     -25.3810      2.00000
     10     -25.3803      2.00000
     11     -12.5667      2.00000
     12     -11.7142      2.00000
     13     -11.4423      2.00000
     14     -11.2204      2.00000
     15     -11.0097      2.00000
     16     -10.8936      2.00000
     17      -6.3076      2.00000
     18      -5.2887      2.00000
     19      -2.6018      2.00000
     20      -2.3518      2.00000
     21      -2.0670      2.00000
     22      -1.8072      2.00000
     23      -1.5036      2.00000
     24      -1.3802      2.00000
     25      -1.2240      2.00000
     26      -1.1082      2.00000
     27      -0.9270      2.00000
     28      -0.7950      2.00000
     29      -0.7040      2.00000
     30      -0.6123      2.00000
     31      -0.5556      2.00000
     32      -0.5314      2.00000
     33      -0.4327      2.00000
     34      -0.3645      2.00000
     35       0.4921      2.00000
     36       0.5278      2.00000
     37       0.5410      2.00000
     38       0.6191      2.00000
     39       0.6428      2.00000
     40       0.6474      2.00000
     41       0.6799      2.00000
     42       0.7441      2.00000
     43       0.8697      2.00000
     44       1.0359      2.00000
     45       1.1603      2.00000
     46       1.2463      2.00000
     47       1.4006      2.00000
     48       1.5724      2.00000
     49       1.6310      2.00000
     50       1.8643      2.00000
     51       2.1176      2.00000
     52       2.1929      2.00000
     53       2.6169      2.00000
     54       3.0685      2.00000
     55       5.1691      0.00000
     56       5.7372      0.00000
     57       6.6719      0.00000
     58       7.0041      0.00000
     59       7.4551      0.00000
     60       7.7395      0.00000
     61       8.2573      0.00000
     62       8.5544      0.00000
     63       8.9381      0.00000
     64       9.2715      0.00000
     65       9.4200      0.00000
     66       9.7843      0.00000
     67      10.0373      0.00000
     68      10.2522      0.00000
     69      10.3516      0.00000
     70      10.6768      0.00000
     71      10.7969      0.00000
     72      11.2080      0.00000
     73      11.6711      0.00000
     74      11.9186      0.00000
     75      12.0665      0.00000
     76      12.3297      0.00000
     77      12.6633      0.00000
     78      12.9573      0.00000
     79      13.0758      0.00000
     80      13.4427      0.00000
     81      14.1034      0.00000
     82      14.5314      0.00000
     83      14.9006      0.00000
     84      15.0440      0.00000
     85      15.2911      0.00000
     86      15.8494      0.00000
     87      16.0661      0.00000
     88      16.4325      0.00000
     89      16.5833      0.00000
     90      16.9131      0.00000
     91      17.2009      0.00000
     92      17.3135      0.00000
     93      17.5378      0.00000
     94      17.7499      0.00000
     95      17.9021      0.00000
     96      18.1490      0.00000
     97      18.2579      0.00000
     98      18.6460      0.00000
     99      18.7764      0.00000
    100      19.0334      0.00000
    101      19.1999      0.00000
    102      19.4163      0.00000
    103      19.8237      0.00000
    104      20.0639      0.00000
    105      20.2637      0.00000
    106      20.3437      0.00000
    107      20.5570      0.00000
    108      21.1647      0.00000
    109      21.2746      0.00000
    110      21.5580      0.00000
    111      21.6416      0.00000
    112      22.1791      0.00000
    113      22.4134      0.00000
    114      22.8098      0.00000
    115      23.0265      0.00000
    116      23.1553      0.00000
    117      23.3898      0.00000
    118      23.5851      0.00000
    119      23.6630      0.00000
    120      23.8920      0.00000
    121      24.0147      0.00000
    122      24.2646      0.00000
    123      24.5054      0.00000
    124      24.7185      0.00000
    125      24.8533      0.00000
    126      25.0157      0.00000
    127      25.2786      0.00000
    128      25.4962      0.00000
    129      25.5608      0.00000
    130      25.7199      0.00000
    131      25.8996      0.00000
    132      26.0822      0.00000
    133      26.3489      0.00000
    134      26.5443      0.00000
    135      26.6742      0.00000
    136      26.7340      0.00000
    137      27.0391      0.00000
    138      27.2968      0.00000
    139      27.5238      0.00000
    140      27.6045      0.00000
    141      27.8274      0.00000

 k-point    17 :      -0.4286    0.0000    0.1429
  band No.  band energies     occupation 
      1     -25.4534      2.00000
      2     -25.4488      2.00000
      3     -25.4389      2.00000
      4     -25.4383      2.00000
      5     -25.4090      2.00000
      6     -25.4086      2.00000
      7     -25.3865      2.00000
      8     -25.3859      2.00000
      9     -25.3811      2.00000
     10     -25.3804      2.00000
     11     -12.5984      2.00000
     12     -11.6706      2.00000
     13     -11.4264      2.00000
     14     -11.2047      2.00000
     15     -11.0118      2.00000
     16     -10.9198      2.00000
     17      -6.3250      2.00000
     18      -5.3371      2.00000
     19      -2.6930      2.00000
     20      -2.4014      2.00000
     21      -2.2117      2.00000
     22      -1.6046      2.00000
     23      -1.5407      2.00000
     24      -1.3440      2.00000
     25      -1.1388      2.00000
     26      -1.0159      2.00000
     27      -0.8826      2.00000
     28      -0.8064      2.00000
     29      -0.6871      2.00000
     30      -0.6046      2.00000
     31      -0.5583      2.00000
     32      -0.5306      2.00000
     33      -0.4388      2.00000
     34      -0.3859      2.00000
     35       0.4714      2.00000
     36       0.4939      2.00000
     37       0.5549      2.00000
     38       0.6144      2.00000
     39       0.6269      2.00000
     40       0.6501      2.00000
     41       0.6703      2.00000
     42       0.7327      2.00000
     43       0.9431      2.00000
     44       1.0844      2.00000
     45       1.1801      2.00000
     46       1.2236      2.00000
     47       1.4228      2.00000
     48       1.5663      2.00000
     49       1.7222      2.00000
     50       1.7627      2.00000
     51       2.1465      2.00000
     52       2.2650      2.00000
     53       2.5618      2.00000
     54       3.2580      2.00000
     55       5.0692      0.00000
     56       5.6414      0.00000
     57       6.5692      0.00000
     58       6.9050      0.00000
     59       7.3580      0.00000
     60       7.5997      0.00000
     61       8.1003      0.00000
     62       8.3690      0.00000
     63       8.7421      0.00000
     64       9.0954      0.00000
     65       9.4911      0.00000
     66       9.7074      0.00000
     67       9.9373      0.00000
     68      10.1538      0.00000
     69      10.3477      0.00000
     70      10.6468      0.00000
     71      11.1443      0.00000
     72      11.3408      0.00000
     73      11.5260      0.00000
     74      12.1819      0.00000
     75      12.4209      0.00000
     76      12.6392      0.00000
     77      13.0564      0.00000
     78      13.2144      0.00000
     79      13.3782      0.00000
     80      13.8805      0.00000
     81      14.0709      0.00000
     82      14.3139      0.00000
     83      14.7020      0.00000
     84      15.1929      0.00000
     85      15.3299      0.00000
     86      15.7845      0.00000
     87      16.0867      0.00000
     88      16.3674      0.00000
     89      16.5745      0.00000
     90      16.7740      0.00000
     91      16.9398      0.00000
     92      17.1557      0.00000
     93      17.3231      0.00000
     94      17.5795      0.00000
     95      17.7185      0.00000
     96      18.0966      0.00000
     97      18.4177      0.00000
     98      18.7050      0.00000
     99      18.7778      0.00000
    100      19.0191      0.00000
    101      19.1390      0.00000
    102      19.2945      0.00000
    103      19.5864      0.00000
    104      19.9723      0.00000
    105      20.3444      0.00000
    106      20.5515      0.00000
    107      20.8387      0.00000
    108      21.2340      0.00000
    109      21.3113      0.00000
    110      21.6306      0.00000
    111      21.7117      0.00000
    112      21.8788      0.00000
    113      22.1097      0.00000
    114      22.4461      0.00000
    115      22.7206      0.00000
    116      23.0360      0.00000
    117      23.1949      0.00000
    118      23.2767      0.00000
    119      23.7321      0.00000
    120      23.7960      0.00000
    121      23.9810      0.00000
    122      24.0271      0.00000
    123      24.2992      0.00000
    124      24.4708      0.00000
    125      24.8988      0.00000
    126      25.0468      0.00000
    127      25.3271      0.00000
    128      25.6301      0.00000
    129      25.7724      0.00000
    130      25.9278      0.00000
    131      26.1610      0.00000
    132      26.3144      0.00000
    133      26.4608      0.00000
    134      26.8023      0.00000
    135      26.9396      0.00000
    136      27.2647      0.00000
    137      27.4057      0.00000
    138      27.5565      0.00000
    139      27.8011      0.00000
    140      27.8835      0.00000
    141      28.0356      0.00000

 k-point    18 :      -0.2857    0.0000    0.1429
  band No.  band energies     occupation 
      1     -25.4535      2.00000
      2     -25.4489      2.00000
      3     -25.4389      2.00000
      4     -25.4384      2.00000
      5     -25.4091      2.00000
      6     -25.4087      2.00000
      7     -25.3866      2.00000
      8     -25.3860      2.00000
      9     -25.3812      2.00000
     10     -25.3805      2.00000
     11     -12.7078      2.00000
     12     -11.6194      2.00000
     13     -11.4005      2.00000
     14     -11.1649      2.00000
     15     -10.9656      2.00000
     16     -10.8807      2.00000
     17      -6.3654      2.00000
     18      -5.4753      2.00000
     19      -2.7880      2.00000
     20      -2.5442      2.00000
     21      -2.2501      2.00000
     22      -1.7513      2.00000
     23      -1.4145      2.00000
     24      -1.2625      2.00000
     25      -1.0593      2.00000
     26      -1.0081      2.00000
     27      -0.8690      2.00000
     28      -0.7584      2.00000
     29      -0.6605      2.00000
     30      -0.6422      2.00000
     31      -0.6037      2.00000
     32      -0.5394      2.00000
     33      -0.4459      2.00000
     34      -0.4039      2.00000
     35       0.4925      2.00000
     36       0.5085      2.00000
     37       0.5725      2.00000
     38       0.5974      2.00000
     39       0.6147      2.00000
     40       0.6264      2.00000
     41       0.6480      2.00000
     42       0.7180      2.00000
     43       0.9106      2.00000
     44       1.1097      2.00000
     45       1.1638      2.00000
     46       1.3047      2.00000
     47       1.4379      2.00000
     48       1.6063      2.00000
     49       1.7619      2.00000
     50       1.9495      2.00000
     51       2.0747      2.00000
     52       2.4060      2.00000
     53       2.8479      2.00000
     54       3.3439      2.00000
     55       4.9028      0.00000
     56       5.4875      0.00000
     57       6.7012      0.00000
     58       6.8690      0.00000
     59       7.1810      0.00000
     60       7.5859      0.00000
     61       8.0807      0.00000
     62       8.2778      0.00000
     63       8.6635      0.00000
     64       9.0713      0.00000
     65       9.3889      0.00000
     66       9.6580      0.00000
     67       9.8439      0.00000
     68       9.9652      0.00000
     69      10.4748      0.00000
     70      10.8139      0.00000
     71      11.2024      0.00000
     72      11.5373      0.00000
     73      11.6788      0.00000
     74      11.8720      0.00000
     75      12.3337      0.00000
     76      12.7323      0.00000
     77      12.9755      0.00000
     78      13.5710      0.00000
     79      13.7997      0.00000
     80      14.0547      0.00000
     81      14.3766      0.00000
     82      14.6644      0.00000
     83      14.7729      0.00000
     84      15.1199      0.00000
     85      15.3687      0.00000
     86      15.4512      0.00000
     87      15.8065      0.00000
     88      16.0687      0.00000
     89      16.5587      0.00000
     90      16.7159      0.00000
     91      17.0079      0.00000
     92      17.1955      0.00000
     93      17.3463      0.00000
     94      17.4954      0.00000
     95      17.6867      0.00000
     96      17.8893      0.00000
     97      18.1545      0.00000
     98      18.2334      0.00000
     99      18.5553      0.00000
    100      18.8220      0.00000
    101      19.0851      0.00000
    102      19.3239      0.00000
    103      19.3521      0.00000
    104      19.5696      0.00000
    105      19.8771      0.00000
    106      20.2576      0.00000
    107      20.5334      0.00000
    108      20.7322      0.00000
    109      20.9453      0.00000
    110      21.5850      0.00000
    111      21.8461      0.00000
    112      22.0189      0.00000
    113      22.1816      0.00000
    114      22.2617      0.00000
    115      22.7083      0.00000
    116      23.0051      0.00000
    117      23.2761      0.00000
    118      23.6019      0.00000
    119      23.7155      0.00000
    120      23.9729      0.00000
    121      24.4933      0.00000
    122      24.6250      0.00000
    123      24.8502      0.00000
    124      25.0932      0.00000
    125      25.4555      0.00000
    126      25.5736      0.00000
    127      25.8110      0.00000
    128      25.8961      0.00000
    129      26.0905      0.00000
    130      26.3301      0.00000
    131      26.4256      0.00000
    132      26.6534      0.00000
    133      26.7372      0.00000
    134      26.9306      0.00000
    135      27.0849      0.00000
    136      27.2511      0.00000
    137      27.3562      0.00000
    138      27.5001      0.00000
    139      27.8094      0.00000
    140      28.0758      0.00000
    141      28.1978      0.00000

 k-point    19 :      -0.1429    0.0000    0.1429
  band No.  band energies     occupation 
      1     -25.4536      2.00000
      2     -25.4490      2.00000
      3     -25.4390      2.00000
      4     -25.4384      2.00000
      5     -25.4092      2.00000
      6     -25.4088      2.00000
      7     -25.3867      2.00000
      8     -25.3861      2.00000
      9     -25.3813      2.00000
     10     -25.3806      2.00000
     11     -12.7977      2.00000
     12     -11.6405      2.00000
     13     -11.3545      2.00000
     14     -11.1320      2.00000
     15     -10.8844      2.00000
     16     -10.8292      2.00000
     17      -6.3938      2.00000
     18      -5.5927      2.00000
     19      -2.8394      2.00000
     20      -2.5404      2.00000
     21      -2.1915      2.00000
     22      -1.9553      2.00000
     23      -1.5980      2.00000
     24      -1.3055      2.00000
     25      -1.2003      2.00000
     26      -0.9990      2.00000
     27      -0.7770      2.00000
     28      -0.7122      2.00000
     29      -0.6514      2.00000
     30      -0.6194      2.00000
     31      -0.5958      2.00000
     32      -0.5374      2.00000
     33      -0.4320      2.00000
     34      -0.4096      2.00000
     35       0.5384      2.00000
     36       0.5534      2.00000
     37       0.5770      2.00000
     38       0.5974      2.00000
     39       0.6230      2.00000
     40       0.6293      2.00000
     41       0.6702      2.00000
     42       0.7097      2.00000
     43       0.8174      2.00000
     44       1.0004      2.00000
     45       1.0485      2.00000
     46       1.2535      2.00000
     47       1.3662      2.00000
     48       1.7063      2.00000
     49       1.9401      2.00000
     50       2.2117      2.00000
     51       2.3347      2.00000
     52       2.7317      2.00000
     53       3.1779      2.00000
     54       3.2652      2.00000
     55       4.6721      0.00000
     56       5.2033      0.00000
     57       6.4839      0.00000
     58       6.7161      0.00000
     59       7.2843      0.00000
     60       7.4612      0.00000
     61       8.2745      0.00000
     62       8.4894      0.00000
     63       8.6566      0.00000
     64       9.2489      0.00000
     65       9.3179      0.00000
     66       9.5996      0.00000
     67       9.7689      0.00000
     68      10.2807      0.00000
     69      10.5164      0.00000
     70      10.9593      0.00000
     71      11.4077      0.00000
     72      11.5387      0.00000
     73      12.0223      0.00000
     74      12.0748      0.00000
     75      12.5178      0.00000
     76      12.6289      0.00000
     77      12.7464      0.00000
     78      13.3351      0.00000
     79      13.8282      0.00000
     80      14.1074      0.00000
     81      14.2268      0.00000
     82      14.3635      0.00000
     83      14.5343      0.00000
     84      14.9360      0.00000
     85      15.1619      0.00000
     86      15.2378      0.00000
     87      15.3564      0.00000
     88      15.7816      0.00000
     89      16.0762      0.00000
     90      16.5228      0.00000
     91      16.7812      0.00000
     92      16.9017      0.00000
     93      17.3354      0.00000
     94      17.3979      0.00000
     95      17.6194      0.00000
     96      17.7277      0.00000
     97      18.1457      0.00000
     98      18.3010      0.00000
     99      18.6730      0.00000
    100      18.8002      0.00000
    101      19.1904      0.00000
    102      19.3253      0.00000
    103      19.5467      0.00000
    104      19.9195      0.00000
    105      20.0851      0.00000
    106      20.3485      0.00000
    107      20.6613      0.00000
    108      20.8302      0.00000
    109      20.9604      0.00000
    110      21.3029      0.00000
    111      21.6224      0.00000
    112      22.0727      0.00000
    113      22.5040      0.00000
    114      22.5521      0.00000
    115      23.0542      0.00000
    116      23.1618      0.00000
    117      23.3952      0.00000
    118      23.6223      0.00000
    119      23.7455      0.00000
    120      24.0916      0.00000
    121      24.3314      0.00000
    122      24.5713      0.00000
    123      24.9536      0.00000
    124      25.2209      0.00000
    125      25.4031      0.00000
    126      25.7290      0.00000
    127      25.8377      0.00000
    128      25.9223      0.00000
    129      26.2063      0.00000
    130      26.2626      0.00000
    131      26.5184      0.00000
    132      26.6826      0.00000
    133      27.0973      0.00000
    134      27.2398      0.00000
    135      27.3045      0.00000
    136      27.6275      0.00000
    137      27.7096      0.00000
    138      27.9770      0.00000
    139      28.0649      0.00000
    140      28.2502      0.00000
    141      28.6175      0.00000

 k-point    20 :       0.0000    0.2500    0.1429
  band No.  band energies     occupation 
      1     -25.4535      2.00000
      2     -25.4489      2.00000
      3     -25.4390      2.00000
      4     -25.4384      2.00000
      5     -25.4091      2.00000
      6     -25.4088      2.00000
      7     -25.3866      2.00000
      8     -25.3860      2.00000
      9     -25.3812      2.00000
     10     -25.3805      2.00000
     11     -12.7349      2.00000
     12     -11.6178      2.00000
     13     -11.3922      2.00000
     14     -11.1534      2.00000
     15     -10.9467      2.00000
     16     -10.8660      2.00000
     17      -6.3750      2.00000
     18      -5.5110      2.00000
     19      -2.8061      2.00000
     20      -2.5602      2.00000
     21      -2.2390      2.00000
     22      -1.8085      2.00000
     23      -1.4574      2.00000
     24      -1.2361      2.00000
     25      -1.0756      2.00000
     26      -1.0016      2.00000
     27      -0.8556      2.00000
     28      -0.7517      2.00000
     29      -0.6541      2.00000
     30      -0.6345      2.00000
     31      -0.6080      2.00000
     32      -0.5413      2.00000
     33      -0.4462      2.00000
     34      -0.4062      2.00000
     35       0.5071      2.00000
     36       0.5176      2.00000
     37       0.5733      2.00000
     38       0.5935      2.00000
     39       0.6130      2.00000
     40       0.6252      2.00000
     41       0.6518      2.00000
     42       0.7182      2.00000
     43       0.8767      2.00000
     44       1.0835      2.00000
     45       1.1562      2.00000
     46       1.2866      2.00000
     47       1.4418      2.00000
     48       1.6934      2.00000
     49       1.7379      2.00000
     50       2.0003      2.00000
     51       2.1365      2.00000
     52       2.4581      2.00000
     53       2.9417      2.00000
     54       3.3389      2.00000
     55       4.8509      0.00000
     56       5.4230      0.00000
     57       6.6408      0.00000
     58       6.8625      0.00000
     59       7.2133      0.00000
     60       7.5264      0.00000
     61       8.1490      0.00000
     62       8.2943      0.00000
     63       8.6769      0.00000
     64       9.0886      0.00000
     65       9.3640      0.00000
     66       9.6809      0.00000
     67       9.7888      0.00000
     68       9.9820      0.00000
     69      10.4712      0.00000
     70      10.8561      0.00000
     71      11.2259      0.00000
     72      11.6292      0.00000
     73      11.7175      0.00000
     74      11.8595      0.00000
     75      12.3399      0.00000
     76      12.7656      0.00000
     77      12.8702      0.00000
     78      13.6411      0.00000
     79      13.7518      0.00000
     80      14.0866      0.00000
     81      14.3970      0.00000
     82      14.6732      0.00000
     83      14.8262      0.00000
     84      15.0582      0.00000
     85      15.2755      0.00000
     86      15.4582      0.00000
     87      15.6889      0.00000
     88      15.9798      0.00000
     89      16.4342      0.00000
     90      16.6734      0.00000
     91      16.9448      0.00000
     92      17.1910      0.00000
     93      17.3379      0.00000
     94      17.4732      0.00000
     95      17.6879      0.00000
     96      17.9773      0.00000
     97      18.1673      0.00000
     98      18.2074      0.00000
     99      18.5273      0.00000
    100      18.6994      0.00000
    101      19.1411      0.00000
    102      19.2528      0.00000
    103      19.3952      0.00000
    104      19.4852      0.00000
    105      19.7466      0.00000
    106      20.2424      0.00000
    107      20.3194      0.00000
    108      20.8458      0.00000
    109      21.0846      0.00000
    110      21.4614      0.00000
    111      21.8298      0.00000
    112      22.0078      0.00000
    113      22.1753      0.00000
    114      22.3879      0.00000
    115      22.6891      0.00000
    116      23.0418      0.00000
    117      23.3188      0.00000
    118      23.8243      0.00000
    119      24.0130      0.00000
    120      24.0694      0.00000
    121      24.3738      0.00000
    122      24.7169      0.00000
    123      24.7665      0.00000
    124      25.0111      0.00000
    125      25.5644      0.00000
    126      25.6442      0.00000
    127      25.8029      0.00000
    128      25.9245      0.00000
    129      26.1879      0.00000
    130      26.4195      0.00000
    131      26.5525      0.00000
    132      26.6771      0.00000
    133      26.7900      0.00000
    134      26.9245      0.00000
    135      27.1627      0.00000
    136      27.3627      0.00000
    137      27.4855      0.00000
    138      27.6387      0.00000
    139      27.9348      0.00000
    140      28.1134      0.00000
    141      28.2266      0.00000

 k-point    21 :       0.1429    0.2500    0.1429
  band No.  band energies     occupation 
      1     -25.4535      2.00000
      2     -25.4489      2.00000
      3     -25.4389      2.00000
      4     -25.4384      2.00000
      5     -25.4092      2.00000
      6     -25.4088      2.00000
      7     -25.3867      2.00000
      8     -25.3860      2.00000
      9     -25.3813      2.00000
     10     -25.3806      2.00000
     11     -12.7473      2.00000
     12     -11.6645      2.00000
     13     -11.4233      2.00000
     14     -11.1079      2.00000
     15     -10.9250      2.00000
     16     -10.8048      2.00000
     17      -6.3957      2.00000
     18      -5.5568      2.00000
     19      -2.7951      2.00000
     20      -2.5603      2.00000
     21      -2.0836      2.00000
     22      -1.9359      2.00000
     23      -1.6112      2.00000
     24      -1.3673      2.00000
     25      -1.1010      2.00000
     26      -0.9986      2.00000
     27      -0.8303      2.00000
     28      -0.7381      2.00000
     29      -0.6394      2.00000
     30      -0.6089      2.00000
     31      -0.5893      2.00000
     32      -0.5005      2.00000
     33      -0.4279      2.00000
     34      -0.3778      2.00000
     35       0.4949      2.00000
     36       0.5413      2.00000
     37       0.5497      2.00000
     38       0.6062      2.00000
     39       0.6259      2.00000
     40       0.6440      2.00000
     41       0.6655      2.00000
     42       0.7150      2.00000
     43       0.8802      2.00000
     44       0.9952      2.00000
     45       1.1473      2.00000
     46       1.2491      2.00000
     47       1.4907      2.00000
     48       1.6744      2.00000
     49       1.8266      2.00000
     50       2.0249      2.00000
     51       2.2052      2.00000
     52       2.5352      2.00000
     53       3.1767      2.00000
     54       3.2774      2.00000
     55       4.7056      0.00000
     56       5.3216      0.00000
     57       6.4858      0.00000
     58       6.8636      0.00000
     59       7.3313      0.00000
     60       7.5559      0.00000
     61       8.0808      0.00000
     62       8.4253      0.00000
     63       8.6390      0.00000
     64       9.2032      0.00000
     65       9.3601      0.00000
     66       9.4852      0.00000
     67       9.9109      0.00000
     68      10.0905      0.00000
     69      10.3062      0.00000
     70      10.8174      0.00000
     71      11.4688      0.00000
     72      11.7047      0.00000
     73      11.9404      0.00000
     74      12.0160      0.00000
     75      12.2048      0.00000
     76      12.4509      0.00000
     77      12.7986      0.00000
     78      13.3423      0.00000
     79      13.8902      0.00000
     80      14.1011      0.00000
     81      14.4142      0.00000
     82      14.6488      0.00000
     83      14.7842      0.00000
     84      15.0055      0.00000
     85      15.2158      0.00000
     86      15.4837      0.00000
     87      15.6766      0.00000
     88      16.0898      0.00000
     89      16.2876      0.00000
     90      16.4413      0.00000
     91      16.8708      0.00000
     92      16.9752      0.00000
     93      17.3384      0.00000
     94      17.5896      0.00000
     95      17.7736      0.00000
     96      18.0158      0.00000
     97      18.1304      0.00000
     98      18.3651      0.00000
     99      18.5677      0.00000
    100      18.7355      0.00000
    101      18.9537      0.00000
    102      19.1352      0.00000
    103      19.3088      0.00000
    104      19.4100      0.00000
    105      19.9308      0.00000
    106      20.0292      0.00000
    107      20.5083      0.00000
    108      21.1200      0.00000
    109      21.3272      0.00000
    110      21.5507      0.00000
    111      21.8373      0.00000
    112      22.2177      0.00000
    113      22.4067      0.00000
    114      22.6339      0.00000
    115      22.9461      0.00000
    116      23.1641      0.00000
    117      23.2806      0.00000
    118      23.7725      0.00000
    119      23.9086      0.00000
    120      24.1022      0.00000
    121      24.2255      0.00000
    122      24.4567      0.00000
    123      24.6374      0.00000
    124      24.8011      0.00000
    125      24.8805      0.00000
    126      25.1958      0.00000
    127      25.3591      0.00000
    128      25.7091      0.00000
    129      25.9879      0.00000
    130      26.0884      0.00000
    131      26.5513      0.00000
    132      26.9442      0.00000
    133      27.0835      0.00000
    134      27.2353      0.00000
    135      27.5401      0.00000
    136      27.6231      0.00000
    137      27.7409      0.00000
    138      27.8719      0.00000
    139      27.9644      0.00000
    140      28.1454      0.00000
    141      28.2686      0.00000

 k-point    22 :       0.2857    0.2500    0.1429
  band No.  band energies     occupation 
      1     -25.4534      2.00000
      2     -25.4489      2.00000
      3     -25.4389      2.00000
      4     -25.4383      2.00000
      5     -25.4091      2.00000
      6     -25.4088      2.00000
      7     -25.3867      2.00000
      8     -25.3860      2.00000
      9     -25.3813      2.00000
     10     -25.3805      2.00000
     11     -12.6907      2.00000
     12     -11.7125      2.00000
     13     -11.4503      2.00000
     14     -11.1246      2.00000
     15     -10.9455      2.00000
     16     -10.7881      2.00000
     17      -6.3893      2.00000
     18      -5.4924      2.00000
     19      -2.7094      2.00000
     20      -2.5105      2.00000
     21      -2.1191      2.00000
     22      -1.7554      2.00000
     23      -1.7009      2.00000
     24      -1.3691      2.00000
     25      -1.1178      2.00000
     26      -1.0204      2.00000
     27      -0.8681      2.00000
     28      -0.7848      2.00000
     29      -0.6473      2.00000
     30      -0.5921      2.00000
     31      -0.5846      2.00000
     32      -0.4826      2.00000
     33      -0.4420      2.00000
     34      -0.3409      2.00000
     35       0.4882      2.00000
     36       0.5172      2.00000
     37       0.5508      2.00000
     38       0.6122      2.00000
     39       0.6203      2.00000
     40       0.6412      2.00000
     41       0.6623      2.00000
     42       0.7056      2.00000
     43       0.9031      2.00000
     44       1.0298      2.00000
     45       1.1508      2.00000
     46       1.2764      2.00000
     47       1.4631      2.00000
     48       1.5814      2.00000
     49       1.6865      2.00000
     50       2.0226      2.00000
     51       2.2391      2.00000
     52       2.4632      2.00000
     53       2.9216      2.00000
     54       3.0864      2.00000
     55       4.9457      0.00000
     56       5.5356      0.00000
     57       6.5809      0.00000
     58       6.9843      0.00000
     59       7.2867      0.00000
     60       7.7462      0.00000
     61       8.1327      0.00000
     62       8.3335      0.00000
     63       8.7726      0.00000
     64       9.1723      0.00000
     65       9.3181      0.00000
     66       9.6723      0.00000
     67       9.8900      0.00000
     68      10.1594      0.00000
     69      10.3750      0.00000
     70      10.7558      0.00000
     71      10.9126      0.00000
     72      11.3294      0.00000
     73      11.7970      0.00000
     74      12.1172      0.00000
     75      12.3253      0.00000
     76      12.5139      0.00000
     77      12.9655      0.00000
     78      13.1385      0.00000
     79      13.5566      0.00000
     80      13.8384      0.00000
     81      14.3348      0.00000
     82      14.5563      0.00000
     83      14.9444      0.00000
     84      15.1288      0.00000
     85      15.2800      0.00000
     86      15.6034      0.00000
     87      15.8591      0.00000
     88      16.0697      0.00000
     89      16.4676      0.00000
     90      16.7098      0.00000
     91      16.9704      0.00000
     92      17.1071      0.00000
     93      17.4670      0.00000
     94      17.6647      0.00000
     95      17.8108      0.00000
     96      17.9241      0.00000
     97      18.2556      0.00000
     98      18.5150      0.00000
     99      18.5548      0.00000
    100      18.7151      0.00000
    101      18.8866      0.00000
    102      19.1502      0.00000
    103      19.3952      0.00000
    104      19.7476      0.00000
    105      19.9527      0.00000
    106      20.4105      0.00000
    107      20.6309      0.00000
    108      20.9962      0.00000
    109      21.3078      0.00000
    110      21.4194      0.00000
    111      21.9310      0.00000
    112      22.1818      0.00000
    113      22.3516      0.00000
    114      22.5552      0.00000
    115      22.7759      0.00000
    116      22.8980      0.00000
    117      23.1153      0.00000
    118      23.3843      0.00000
    119      23.4660      0.00000
    120      23.6233      0.00000
    121      24.1823      0.00000
    122      24.3253      0.00000
    123      24.5745      0.00000
    124      24.7092      0.00000
    125      25.4002      0.00000
    126      25.5715      0.00000
    127      25.7866      0.00000
    128      25.9740      0.00000
    129      26.0575      0.00000
    130      26.2474      0.00000
    131      26.3474      0.00000
    132      26.5936      0.00000
    133      26.9094      0.00000
    134      26.9628      0.00000
    135      27.1130      0.00000
    136      27.3442      0.00000
    137      27.5163      0.00000
    138      27.7802      0.00000
    139      28.0551      0.00000
    140      28.1184      0.00000
    141      28.3266      0.00000

 k-point    23 :       0.4286    0.2500    0.1429
  band No.  band energies     occupation 
      1     -25.4534      2.00000
      2     -25.4488      2.00000
      3     -25.4389      2.00000
      4     -25.4383      2.00000
      5     -25.4091      2.00000
      6     -25.4087      2.00000
      7     -25.3866      2.00000
      8     -25.3860      2.00000
      9     -25.3812      2.00000
     10     -25.3805      2.00000
     11     -12.5952      2.00000
     12     -11.7374      2.00000
     13     -11.4544      2.00000
     14     -11.2093      2.00000
     15     -10.9897      2.00000
     16     -10.8132      2.00000
     17      -6.3566      2.00000
     18      -5.3490      2.00000
     19      -2.5746      2.00000
     20      -2.4482      2.00000
     21      -2.1621      2.00000
     22      -1.7589      2.00000
     23      -1.5043      2.00000
     24      -1.3768      2.00000
     25      -1.2720      2.00000
     26      -1.0568      2.00000
     27      -0.9484      2.00000
     28      -0.7281      2.00000
     29      -0.6744      2.00000
     30      -0.5769      2.00000
     31      -0.5454      2.00000
     32      -0.5258      2.00000
     33      -0.4171      2.00000
     34      -0.3347      2.00000
     35       0.4748      2.00000
     36       0.5306      2.00000
     37       0.5685      2.00000
     38       0.5927      2.00000
     39       0.6285      2.00000
     40       0.6523      2.00000
     41       0.6602      2.00000
     42       0.7120      2.00000
     43       0.9089      2.00000
     44       1.0381      2.00000
     45       1.1348      2.00000
     46       1.2146      2.00000
     47       1.3596      2.00000
     48       1.4690      2.00000
     49       1.7903      2.00000
     50       2.0409      2.00000
     51       2.1948      2.00000
     52       2.3296      2.00000
     53       2.6885      2.00000
     54       2.9379      2.00000
     55       5.0518      0.00000
     56       5.6844      0.00000
     57       6.7004      0.00000
     58       6.8987      0.00000
     59       7.2467      0.00000
     60       7.7972      0.00000
     61       7.9408      0.00000
     62       8.1310      0.00000
     63       8.9327      0.00000
     64       9.2149      0.00000
     65       9.5256      0.00000
     66       9.8585      0.00000
     67      10.1255      0.00000
     68      10.4817      0.00000
     69      10.5565      0.00000
     70      10.8073      0.00000
     71      10.9988      0.00000
     72      11.3322      0.00000
     73      11.6336      0.00000
     74      11.9118      0.00000
     75      12.3410      0.00000
     76      12.4743      0.00000
     77      12.8633      0.00000
     78      13.2040      0.00000
     79      13.4019      0.00000
     80      13.4438      0.00000
     81      13.7687      0.00000
     82      14.2958      0.00000
     83      14.6043      0.00000
     84      14.8493      0.00000
     85      15.1672      0.00000
     86      15.6538      0.00000
     87      15.7940      0.00000
     88      16.1912      0.00000
     89      16.6477      0.00000
     90      16.9720      0.00000
     91      17.1782      0.00000
     92      17.3555      0.00000
     93      17.5624      0.00000
     94      17.8949      0.00000
     95      18.0992      0.00000
     96      18.3629      0.00000
     97      18.4112      0.00000
     98      18.6362      0.00000
     99      18.8235      0.00000
    100      18.9733      0.00000
    101      19.0845      0.00000
    102      19.2918      0.00000
    103      19.4874      0.00000
    104      19.6718      0.00000
    105      19.8630      0.00000
    106      20.6447      0.00000
    107      20.9558      0.00000
    108      21.4440      0.00000
    109      21.5540      0.00000
    110      21.7872      0.00000
    111      21.8469      0.00000
    112      22.0817      0.00000
    113      22.3231      0.00000
    114      22.5570      0.00000
    115      22.7034      0.00000
    116      22.8331      0.00000
    117      22.9534      0.00000
    118      23.1610      0.00000
    119      23.4084      0.00000
    120      23.5171      0.00000
    121      23.8685      0.00000
    122      24.0608      0.00000
    123      24.2419      0.00000
    124      24.4282      0.00000
    125      24.8490      0.00000
    126      24.9864      0.00000
    127      25.2251      0.00000
    128      25.5263      0.00000
    129      25.6790      0.00000
    130      26.0310      0.00000
    131      26.0638      0.00000
    132      26.3133      0.00000
    133      26.6053      0.00000
    134      26.8102      0.00000
    135      27.1526      0.00000
    136      27.3156      0.00000
    137      27.5032      0.00000
    138      27.7890      0.00000
    139      27.9254      0.00000
    140      28.0578      0.00000
    141      28.2258      0.00000

 k-point    24 :      -0.4286    0.2500    0.1429
  band No.  band energies     occupation 
      1     -25.4534      2.00000
      2     -25.4488      2.00000
      3     -25.4389      2.00000
      4     -25.4383      2.00000
      5     -25.4090      2.00000
      6     -25.4086      2.00000
      7     -25.3866      2.00000
      8     -25.3859      2.00000
      9     -25.3811      2.00000
     10     -25.3804      2.00000
     11     -12.5344      2.00000
     12     -11.7028      2.00000
     13     -11.4410      2.00000
     14     -11.3016      2.00000
     15     -11.0156      2.00000
     16     -10.8733      2.00000
     17      -6.3213      2.00000
     18      -5.2341      2.00000
     19      -2.5037      2.00000
     20      -2.3866      2.00000
     21      -2.0264      2.00000
     22      -1.8452      2.00000
     23      -1.6305      2.00000
     24      -1.4933      2.00000
     25      -1.3405      2.00000
     26      -0.9833      2.00000
     27      -0.9127      2.00000
     28      -0.6714      2.00000
     29      -0.6382      2.00000
     30      -0.6173      2.00000
     31      -0.5328      2.00000
     32      -0.4929      2.00000
     33      -0.4284      2.00000
     34      -0.3568      2.00000
     35       0.4988      2.00000
     36       0.5405      2.00000
     37       0.6054      2.00000
     38       0.6108      2.00000
     39       0.6358      2.00000
     40       0.6572      2.00000
     41       0.6938      2.00000
     42       0.7570      2.00000
     43       0.8134      2.00000
     44       0.9291      2.00000
     45       0.9876      2.00000
     46       1.2901      2.00000
     47       1.4227      2.00000
     48       1.5608      2.00000
     49       1.6696      2.00000
     50       1.8941      2.00000
     51       2.2207      2.00000
     52       2.3984      2.00000
     53       2.6006      2.00000
     54       2.9946      2.00000
     55       5.0346      0.00000
     56       5.5657      0.00000
     57       6.4527      0.00000
     58       6.9114      0.00000
     59       7.1673      0.00000
     60       7.4473      0.00000
     61       7.9249      0.00000
     62       7.9869      0.00000
     63       9.0996      0.00000
     64       9.2115      0.00000
     65       9.9099      0.00000
     66      10.2204      0.00000
     67      10.4955      0.00000
     68      10.6812      0.00000
     69      10.7322      0.00000
     70      11.0618      0.00000
     71      11.2480      0.00000
     72      11.4448      0.00000
     73      11.6790      0.00000
     74      11.8320      0.00000
     75      12.1523      0.00000
     76      12.5657      0.00000
     77      12.7932      0.00000
     78      12.8957      0.00000
     79      13.3489      0.00000
     80      13.5412      0.00000
     81      13.7711      0.00000
     82      14.0055      0.00000
     83      14.4344      0.00000
     84      14.5094      0.00000
     85      14.7398      0.00000
     86      15.1976      0.00000
     87      15.3584      0.00000
     88      15.5874      0.00000
     89      16.2172      0.00000
     90      16.7348      0.00000
     91      16.9945      0.00000
     92      17.6701      0.00000
     93      17.9569      0.00000
     94      18.2309      0.00000
     95      18.5046      0.00000
     96      18.6188      0.00000
     97      18.7726      0.00000
     98      18.9516      0.00000
     99      19.0935      0.00000
    100      19.5163      0.00000
    101      19.6795      0.00000
    102      19.8937      0.00000
    103      20.1665      0.00000
    104      20.3019      0.00000
    105      20.6704      0.00000
    106      20.8670      0.00000
    107      20.9839      0.00000
    108      21.2871      0.00000
    109      21.4153      0.00000
    110      21.5636      0.00000
    111      21.6542      0.00000
    112      21.9574      0.00000
    113      22.0412      0.00000
    114      22.3588      0.00000
    115      22.4442      0.00000
    116      22.7243      0.00000
    117      22.9068      0.00000
    118      23.1528      0.00000
    119      23.2815      0.00000
    120      23.4769      0.00000
    121      23.6484      0.00000
    122      23.7732      0.00000
    123      23.8844      0.00000
    124      24.0354      0.00000
    125      24.0843      0.00000
    126      24.5586      0.00000
    127      25.0015      0.00000
    128      25.2134      0.00000
    129      25.3952      0.00000
    130      25.7693      0.00000
    131      25.8931      0.00000
    132      26.0234      0.00000
    133      26.2604      0.00000
    134      26.4331      0.00000
    135      26.7679      0.00000
    136      27.0165      0.00000
    137      27.1759      0.00000
    138      27.4466      0.00000
    139      27.7812      0.00000
    140      27.9117      0.00000
    141      28.1005      0.00000

 k-point    25 :      -0.2857    0.2500    0.1429
  band No.  band energies     occupation 
      1     -25.4534      2.00000
      2     -25.4489      2.00000
      3     -25.4389      2.00000
      4     -25.4384      2.00000
      5     -25.4090      2.00000
      6     -25.4086      2.00000
      7     -25.3866      2.00000
      8     -25.3859      2.00000
      9     -25.3811      2.00000
     10     -25.3804      2.00000
     11     -12.5694      2.00000
     12     -11.6251      2.00000
     13     -11.4017      2.00000
     14     -11.3284      2.00000
     15     -11.0087      2.00000
     16     -10.9346      2.00000
     17      -6.3150      2.00000
     18      -5.2526      2.00000
     19      -2.5338      2.00000
     20      -2.4985      2.00000
     21      -2.0949      2.00000
     22      -1.6918      2.00000
     23      -1.5723      2.00000
     24      -1.4660      2.00000
     25      -1.2323      2.00000
     26      -1.0334      2.00000
     27      -0.9257      2.00000
     28      -0.6421      2.00000
     29      -0.6323      2.00000
     30      -0.5754      2.00000
     31      -0.5610      2.00000
     32      -0.5133      2.00000
     33      -0.4877      2.00000
     34      -0.3916      2.00000
     35       0.5171      2.00000
     36       0.5295      2.00000
     37       0.5907      2.00000
     38       0.6096      2.00000
     39       0.6353      2.00000
     40       0.6380      2.00000
     41       0.6872      2.00000
     42       0.7520      2.00000
     43       0.8609      2.00000
     44       0.8960      2.00000
     45       1.0765      2.00000
     46       1.3895      2.00000
     47       1.4409      2.00000
     48       1.5695      2.00000
     49       1.6709      2.00000
     50       1.6845      2.00000
     51       2.0624      2.00000
     52       2.4237      2.00000
     53       2.7631      2.00000
     54       3.0537      2.00000
     55       5.0543      0.00000
     56       5.5582      0.00000
     57       6.3892      0.00000
     58       6.8402      0.00000
     59       7.2930      0.00000
     60       7.5148      0.00000
     61       7.8967      0.00000
     62       8.0513      0.00000
     63       8.9889      0.00000
     64       9.0057      0.00000
     65       9.9862      0.00000
     66      10.1020      0.00000
     67      10.2127      0.00000
     68      10.4633      0.00000
     69      10.7441      0.00000
     70      11.0431      0.00000
     71      11.3535      0.00000
     72      11.4479      0.00000
     73      11.9011      0.00000
     74      11.9674      0.00000
     75      12.3237      0.00000
     76      12.4275      0.00000
     77      12.8490      0.00000
     78      13.0582      0.00000
     79      13.3559      0.00000
     80      13.6101      0.00000
     81      13.8494      0.00000
     82      14.2514      0.00000
     83      14.4161      0.00000
     84      14.6672      0.00000
     85      14.7798      0.00000
     86      15.0429      0.00000
     87      15.4173      0.00000
     88      15.6939      0.00000
     89      16.0827      0.00000
     90      16.8171      0.00000
     91      17.0170      0.00000
     92      17.5123      0.00000
     93      17.6300      0.00000
     94      17.8839      0.00000
     95      18.1351      0.00000
     96      18.5774      0.00000
     97      18.8660      0.00000
     98      19.2212      0.00000
     99      19.3963      0.00000
    100      19.4848      0.00000
    101      19.7036      0.00000
    102      19.8574      0.00000
    103      20.2095      0.00000
    104      20.5480      0.00000
    105      20.8321      0.00000
    106      20.9064      0.00000
    107      20.9744      0.00000
    108      21.0153      0.00000
    109      21.2542      0.00000
    110      21.3703      0.00000
    111      21.5446      0.00000
    112      21.7446      0.00000
    113      21.9137      0.00000
    114      22.1426      0.00000
    115      22.3638      0.00000
    116      22.5458      0.00000
    117      22.7087      0.00000
    118      23.0236      0.00000
    119      23.2446      0.00000
    120      23.3700      0.00000
    121      23.6964      0.00000
    122      23.8172      0.00000
    123      24.0650      0.00000
    124      24.3821      0.00000
    125      24.6589      0.00000
    126      24.7583      0.00000
    127      24.8929      0.00000
    128      25.1359      0.00000
    129      25.2632      0.00000
    130      25.7569      0.00000
    131      25.8380      0.00000
    132      26.1241      0.00000
    133      26.2225      0.00000
    134      26.8294      0.00000
    135      26.9037      0.00000
    136      26.9864      0.00000
    137      27.2300      0.00000
    138      27.7905      0.00000
    139      28.0768      0.00000
    140      28.2147      0.00000
    141      28.5099      0.00000

 k-point    26 :      -0.1429    0.2500    0.1429
  band No.  band energies     occupation 
      1     -25.4535      2.00000
      2     -25.4489      2.00000
      3     -25.4390      2.00000
      4     -25.4384      2.00000
      5     -25.4091      2.00000
      6     -25.4087      2.00000
      7     -25.3866      2.00000
      8     -25.3860      2.00000
      9     -25.3812      2.00000
     10     -25.3805      2.00000
     11     -12.6612      2.00000
     12     -11.5954      2.00000
     13     -11.3786      2.00000
     14     -11.2448      2.00000
     15     -10.9810      2.00000
     16     -10.9366      2.00000
     17      -6.3407      2.00000
     18      -5.3820      2.00000
     19      -2.7012      2.00000
     20      -2.5610      2.00000
     21      -2.2360      2.00000
     22      -1.6278      2.00000
     23      -1.3662      2.00000
     24      -1.3020      2.00000
     25      -1.1496      2.00000
     26      -1.0062      2.00000
     27      -0.9151      2.00000
     28      -0.7246      2.00000
     29      -0.6564      2.00000
     30      -0.6252      2.00000
     31      -0.6047      2.00000
     32      -0.5385      2.00000
     33      -0.4944      2.00000
     34      -0.4047      2.00000
     35       0.4910      2.00000
     36       0.5285      2.00000
     37       0.5680      2.00000
     38       0.5813      2.00000
     39       0.6227      2.00000
     40       0.6324      2.00000
     41       0.6566      2.00000
     42       0.7199      2.00000
     43       0.9296      2.00000
     44       1.0640      2.00000
     45       1.1639      2.00000
     46       1.2656      2.00000
     47       1.4720      2.00000
     48       1.5758      2.00000
     49       1.6592      2.00000
     50       1.9131      2.00000
     51       1.9934      2.00000
     52       2.3518      2.00000
     53       2.7752      2.00000
     54       3.2158      2.00000
     55       5.0466      0.00000
     56       5.5989      0.00000
     57       6.6023      0.00000
     58       6.8620      0.00000
     59       7.2682      0.00000
     60       7.6411      0.00000
     61       8.0381      0.00000
     62       8.3810      0.00000
     63       8.6615      0.00000
     64       8.9071      0.00000
     65       9.6053      0.00000
     66       9.7592      0.00000
     67       9.9162      0.00000
     68       9.9942      0.00000
     69      10.4989      0.00000
     70      10.8357      0.00000
     71      11.1631      0.00000
     72      11.6797      0.00000
     73      11.8160      0.00000
     74      11.9617      0.00000
     75      12.4287      0.00000
     76      12.5962      0.00000
     77      12.9534      0.00000
     78      13.2579      0.00000
     79      13.5368      0.00000
     80      14.0156      0.00000
     81      14.1842      0.00000
     82      14.4037      0.00000
     83      14.6084      0.00000
     84      14.8879      0.00000
     85      15.2012      0.00000
     86      15.3852      0.00000
     87      15.9000      0.00000
     88      16.1024      0.00000
     89      16.4833      0.00000
     90      16.7197      0.00000
     91      16.9086      0.00000
     92      17.0697      0.00000
     93      17.5113      0.00000
     94      17.7673      0.00000
     95      18.0319      0.00000
     96      18.2251      0.00000
     97      18.3966      0.00000
     98      18.5396      0.00000
     99      18.8135      0.00000
    100      18.9437      0.00000
    101      19.1616      0.00000
    102      19.3545      0.00000
    103      19.8140      0.00000
    104      19.9327      0.00000
    105      20.2499      0.00000
    106      20.5710      0.00000
    107      20.6428      0.00000
    108      20.8144      0.00000
    109      20.9260      0.00000
    110      21.2149      0.00000
    111      21.2627      0.00000
    112      21.8646      0.00000
    113      22.0738      0.00000
    114      22.2525      0.00000
    115      22.6555      0.00000
    116      22.7992      0.00000
    117      23.2520      0.00000
    118      23.4698      0.00000
    119      23.5096      0.00000
    120      23.9069      0.00000
    121      24.1082      0.00000
    122      24.2934      0.00000
    123      24.6132      0.00000
    124      24.9787      0.00000
    125      25.0720      0.00000
    126      25.2719      0.00000
    127      25.4268      0.00000
    128      25.6499      0.00000
    129      25.9223      0.00000
    130      26.1671      0.00000
    131      26.4924      0.00000
    132      26.6207      0.00000
    133      26.7755      0.00000
    134      26.9321      0.00000
    135      27.1138      0.00000
    136      27.4364      0.00000
    137      27.6456      0.00000
    138      27.7380      0.00000
    139      27.8779      0.00000
    140      28.0812      0.00000
    141      28.2865      0.00000

 k-point    27 :       0.0000    0.5000    0.1429
  band No.  band energies     occupation 
      1     -25.4533      2.00000
      2     -25.4488      2.00000
      3     -25.4388      2.00000
      4     -25.4382      2.00000
      5     -25.4089      2.00000
      6     -25.4085      2.00000
      7     -25.3865      2.00000
      8     -25.3858      2.00000
      9     -25.3811      2.00000
     10     -25.3803      2.00000
     11     -12.5667      2.00000
     12     -11.6995      2.00000
     13     -11.4396      2.00000
     14     -11.2145      2.00000
     15     -11.0169      2.00000
     16     -10.9141      2.00000
     17      -6.3118      2.00000
     18      -5.2965      2.00000
     19      -2.6395      2.00000
     20      -2.3574      2.00000
     21      -2.1285      2.00000
     22      -1.7304      2.00000
     23      -1.5153      2.00000
     24      -1.3811      2.00000
     25      -1.1668      2.00000
     26      -1.0711      2.00000
     27      -0.9080      2.00000
     28      -0.7995      2.00000
     29      -0.6935      2.00000
     30      -0.5975      2.00000
     31      -0.5503      2.00000
     32      -0.5313      2.00000
     33      -0.4326      2.00000
     34      -0.3735      2.00000
     35       0.4842      2.00000
     36       0.5040      2.00000
     37       0.5449      2.00000
     38       0.6216      2.00000
     39       0.6346      2.00000
     40       0.6520      2.00000
     41       0.6778      2.00000
     42       0.7609      2.00000
     43       0.8883      2.00000
     44       1.0278      2.00000
     45       1.1427      2.00000
     46       1.2637      2.00000
     47       1.4357      2.00000
     48       1.5467      2.00000
     49       1.6835      2.00000
     50       1.8074      2.00000
     51       2.1407      2.00000
     52       2.2123      2.00000
     53       2.5600      2.00000
     54       3.1675      2.00000
     55       5.1266      0.00000
     56       5.6821      0.00000
     57       6.5451      0.00000
     58       6.9619      0.00000
     59       7.4093      0.00000
     60       7.6378      0.00000
     61       8.2470      0.00000
     62       8.4554      0.00000
     63       8.8130      0.00000
     64       9.1953      0.00000
     65       9.4986      0.00000
     66       9.7444      0.00000
     67       9.9533      0.00000
     68      10.1591      0.00000
     69      10.3570      0.00000
     70      10.6773      0.00000
     71      11.0102      0.00000
     72      11.2160      0.00000
     73      11.5484      0.00000
     74      12.1058      0.00000
     75      12.4477      0.00000
     76      12.5972      0.00000
     77      12.8228      0.00000
     78      13.0765      0.00000
     79      13.2400      0.00000
     80      13.5407      0.00000
     81      14.0422      0.00000
     82      14.2076      0.00000
     83      14.8562      0.00000
     84      15.1509      0.00000
     85      15.3999      0.00000
     86      15.7930      0.00000
     87      15.9861      0.00000
     88      16.3739      0.00000
     89      16.5465      0.00000
     90      16.8238      0.00000
     91      17.1187      0.00000
     92      17.3081      0.00000
     93      17.4126      0.00000
     94      17.6834      0.00000
     95      17.8072      0.00000
     96      18.1758      0.00000
     97      18.4538      0.00000
     98      18.6127      0.00000
     99      18.9016      0.00000
    100      19.0332      0.00000
    101      19.3709      0.00000
    102      19.4868      0.00000
    103      19.7022      0.00000
    104      19.7744      0.00000
    105      20.1281      0.00000
    106      20.2810      0.00000
    107      20.5863      0.00000
    108      21.5630      0.00000
    109      21.6597      0.00000
    110      21.8470      0.00000
    111      21.9489      0.00000
    112      22.1855      0.00000
    113      22.3458      0.00000
    114      22.5808      0.00000
    115      22.7922      0.00000
    116      22.8385      0.00000
    117      22.9548      0.00000
    118      23.2040      0.00000
    119      23.5130      0.00000
    120      23.5989      0.00000
    121      23.8782      0.00000
    122      24.1844      0.00000
    123      24.3858      0.00000
    124      24.6294      0.00000
    125      24.8478      0.00000
    126      24.9712      0.00000
    127      25.3357      0.00000
    128      25.5171      0.00000
    129      25.7384      0.00000
    130      25.8484      0.00000
    131      25.9488      0.00000
    132      26.0980      0.00000
    133      26.3412      0.00000
    134      26.5331      0.00000
    135      26.9255      0.00000
    136      27.0433      0.00000
    137      27.2303      0.00000
    138      27.3688      0.00000
    139      27.5880      0.00000
    140      27.8304      0.00000
    141      27.9045      0.00000

 k-point    28 :       0.1429    0.5000    0.1429
  band No.  band energies     occupation 
      1     -25.4533      2.00000
      2     -25.4488      2.00000
      3     -25.4388      2.00000
      4     -25.4382      2.00000
      5     -25.4090      2.00000
      6     -25.4086      2.00000
      7     -25.3865      2.00000
      8     -25.3858      2.00000
      9     -25.3811      2.00000
     10     -25.3803      2.00000
     11     -12.5817      2.00000
     12     -11.7247      2.00000
     13     -11.4108      2.00000
     14     -11.2304      2.00000
     15     -10.9857      2.00000
     16     -10.8914      2.00000
     17      -6.3372      2.00000
     18      -5.3524      2.00000
     19      -2.6387      2.00000
     20      -2.3754      2.00000
     21      -2.1733      2.00000
     22      -1.7727      2.00000
     23      -1.6509      2.00000
     24      -1.5096      2.00000
     25      -1.2134      2.00000
     26      -0.8674      2.00000
     27      -0.7806      2.00000
     28      -0.7007      2.00000
     29      -0.6681      2.00000
     30      -0.6251      2.00000
     31      -0.5626      2.00000
     32      -0.5292      2.00000
     33      -0.4133      2.00000
     34      -0.3536      2.00000
     35       0.4519      2.00000
     36       0.5113      2.00000
     37       0.5663      2.00000
     38       0.6246      2.00000
     39       0.6360      2.00000
     40       0.6465      2.00000
     41       0.7171      2.00000
     42       0.7266      2.00000
     43       0.9463      2.00000
     44       0.9708      2.00000
     45       1.1935      2.00000
     46       1.2806      2.00000
     47       1.4259      2.00000
     48       1.5369      2.00000
     49       1.7117      2.00000
     50       1.8431      2.00000
     51       2.1759      2.00000
     52       2.4700      2.00000
     53       2.7905      2.00000
     54       3.1427      2.00000
     55       4.8646      0.00000
     56       5.5177      0.00000
     57       6.5702      0.00000
     58       6.8101      0.00000
     59       7.0560      0.00000
     60       7.4852      0.00000
     61       7.8924      0.00000
     62       8.0804      0.00000
     63       8.7780      0.00000
     64       9.1316      0.00000
     65       9.4431      0.00000
     66       9.7894      0.00000
     67      10.1343      0.00000
     68      10.2678      0.00000
     69      10.7235      0.00000
     70      10.9703      0.00000
     71      11.0597      0.00000
     72      11.4304      0.00000
     73      11.6854      0.00000
     74      11.8718      0.00000
     75      12.3747      0.00000
     76      12.6600      0.00000
     77      13.3778      0.00000
     78      13.4396      0.00000
     79      13.5250      0.00000
     80      14.0840      0.00000
     81      14.2915      0.00000
     82      14.3874      0.00000
     83      14.5539      0.00000
     84      14.9426      0.00000
     85      15.0502      0.00000
     86      15.4018      0.00000
     87      15.7421      0.00000
     88      16.1164      0.00000
     89      16.2315      0.00000
     90      16.4854      0.00000
     91      16.5704      0.00000
     92      17.0160      0.00000
     93      17.4062      0.00000
     94      17.7180      0.00000
     95      17.9704      0.00000
     96      18.2733      0.00000
     97      18.6673      0.00000
     98      18.8442      0.00000
     99      19.0107      0.00000
    100      19.2372      0.00000
    101      19.4548      0.00000
    102      19.7514      0.00000
    103      19.9961      0.00000
    104      20.2220      0.00000
    105      20.2990      0.00000
    106      20.7591      0.00000
    107      21.1264      0.00000
    108      21.2218      0.00000
    109      21.4808      0.00000
    110      21.7065      0.00000
    111      21.8603      0.00000
    112      22.1436      0.00000
    113      22.3663      0.00000
    114      22.4619      0.00000
    115      22.4847      0.00000
    116      22.9093      0.00000
    117      22.9606      0.00000
    118      23.2244      0.00000
    119      23.5269      0.00000
    120      23.6262      0.00000
    121      23.8097      0.00000
    122      23.8565      0.00000
    123      24.0841      0.00000
    124      24.2395      0.00000
    125      24.3865      0.00000
    126      24.6165      0.00000
    127      24.8081      0.00000
    128      25.0173      0.00000
    129      25.3848      0.00000
    130      25.4709      0.00000
    131      25.6140      0.00000
    132      25.9193      0.00000
    133      26.3128      0.00000
    134      26.5981      0.00000
    135      26.7271      0.00000
    136      26.9265      0.00000
    137      27.2083      0.00000
    138      27.6850      0.00000
    139      27.7415      0.00000
    140      28.0833      0.00000
    141      28.1725      0.00000

 k-point    29 :       0.2857    0.5000    0.1429
  band No.  band energies     occupation 
      1     -25.4533      2.00000
      2     -25.4488      2.00000
      3     -25.4388      2.00000
      4     -25.4382      2.00000
      5     -25.4090      2.00000
      6     -25.4086      2.00000
      7     -25.3865      2.00000
      8     -25.3859      2.00000
      9     -25.3811      2.00000
     10     -25.3804      2.00000
     11     -12.5832      2.00000
     12     -11.7927      2.00000
     13     -11.4070      2.00000
     14     -11.1860      2.00000
     15     -10.9578      2.00000
     16     -10.8668      2.00000
     17      -6.3723      2.00000
     18      -5.4152      2.00000
     19      -2.6053      2.00000
     20      -2.4311      2.00000
     21      -2.0699      2.00000
     22      -1.9005      2.00000
     23      -1.7051      2.00000
     24      -1.5755      2.00000
     25      -1.1864      2.00000
     26      -0.8336      2.00000
     27      -0.7715      2.00000
     28      -0.7353      2.00000
     29      -0.6294      2.00000
     30      -0.5881      2.00000
     31      -0.5517      2.00000
     32      -0.4626      2.00000
     33      -0.4197      2.00000
     34      -0.2927      2.00000
     35       0.4371      2.00000
     36       0.5351      2.00000
     37       0.5762      2.00000
     38       0.6228      2.00000
     39       0.6409      2.00000
     40       0.6581      2.00000
     41       0.6844      2.00000
     42       0.7754      2.00000
     43       0.8719      2.00000
     44       0.9813      2.00000
     45       1.1096      2.00000
     46       1.3753      2.00000
     47       1.4390      2.00000
     48       1.5700      2.00000
     49       1.7085      2.00000
     50       1.8556      2.00000
     51       2.2865      2.00000
     52       2.6809      2.00000
     53       2.8950      2.00000
     54       3.1648      2.00000
     55       4.6247      0.00000
     56       5.3717      0.00000
     57       6.1816      0.00000
     58       6.8608      0.00000
     59       7.0628      0.00000
     60       7.3827      0.00000
     61       7.7280      0.00000
     62       7.8690      0.00000
     63       8.9241      0.00000
     64       9.0543      0.00000
     65       9.4365      0.00000
     66       9.8602      0.00000
     67      10.1594      0.00000
     68      10.2605      0.00000
     69      10.6559      0.00000
     70      10.8106      0.00000
     71      11.2383      0.00000
     72      11.5830      0.00000
     73      11.9712      0.00000
     74      12.0826      0.00000
     75      12.3892      0.00000
     76      12.7903      0.00000
     77      13.2818      0.00000
     78      13.5694      0.00000
     79      13.7042      0.00000
     80      14.1632      0.00000
     81      14.3259      0.00000
     82      14.5038      0.00000
     83      14.7113      0.00000
     84      14.9198      0.00000
     85      15.0779      0.00000
     86      15.2561      0.00000
     87      15.5508      0.00000
     88      15.9727      0.00000
     89      16.1981      0.00000
     90      16.5861      0.00000
     91      16.7730      0.00000
     92      17.0171      0.00000
     93      17.4541      0.00000
     94      17.6726      0.00000
     95      17.9158      0.00000
     96      18.1391      0.00000
     97      18.3183      0.00000
     98      18.7261      0.00000
     99      19.1199      0.00000
    100      19.2910      0.00000
    101      19.6204      0.00000
    102      19.7774      0.00000
    103      19.9223      0.00000
    104      20.3118      0.00000
    105      20.5540      0.00000
    106      20.6778      0.00000
    107      20.7919      0.00000
    108      21.0720      0.00000
    109      21.1738      0.00000
    110      21.6456      0.00000
    111      21.7286      0.00000
    112      22.1110      0.00000
    113      22.3678      0.00000
    114      22.4914      0.00000
    115      22.6833      0.00000
    116      22.9111      0.00000
    117      23.0280      0.00000
    118      23.3722      0.00000
    119      23.5074      0.00000
    120      23.7665      0.00000
    121      23.8360      0.00000
    122      23.9571      0.00000
    123      24.1117      0.00000
    124      24.2978      0.00000
    125      24.4122      0.00000
    126      24.5431      0.00000
    127      24.6339      0.00000
    128      24.8370      0.00000
    129      25.1122      0.00000
    130      25.2049      0.00000
    131      25.4163      0.00000
    132      25.8769      0.00000
    133      26.0251      0.00000
    134      26.3332      0.00000
    135      26.5066      0.00000
    136      26.8447      0.00000
    137      27.1676      0.00000
    138      27.3744      0.00000
    139      27.5716      0.00000
    140      27.9708      0.00000
    141      28.2843      0.00000

 k-point    30 :       0.4286    0.5000    0.1429
  band No.  band energies     occupation 
      1     -25.4533      2.00000
      2     -25.4488      2.00000
      3     -25.4388      2.00000
      4     -25.4383      2.00000
      5     -25.4091      2.00000
      6     -25.4087      2.00000
      7     -25.3866      2.00000
      8     -25.3860      2.00000
      9     -25.3812      2.00000
     10     -25.3805      2.00000
     11     -12.5689      2.00000
     12     -11.8476      2.00000
     13     -11.4206      2.00000
     14     -11.1407      2.00000
     15     -10.9760      2.00000
     16     -10.8258      2.00000
     17      -6.3933      2.00000
     18      -5.4454      2.00000
     19      -2.5978      2.00000
     20      -2.4255      2.00000
     21      -2.0720      2.00000
     22      -1.9369      2.00000
     23      -1.5180      2.00000
     24      -1.4559      2.00000
     25      -1.1724      2.00000
     26      -0.9797      2.00000
     27      -0.9476      2.00000
     28      -0.7092      2.00000
     29      -0.6192      2.00000
     30      -0.5703      2.00000
     31      -0.5429      2.00000
     32      -0.4244      2.00000
     33      -0.4204      2.00000
     34      -0.2566      2.00000
     35       0.4426      2.00000
     36       0.5208      2.00000
     37       0.5871      2.00000
     38       0.6025      2.00000
     39       0.6325      2.00000
     40       0.6557      2.00000
     41       0.6825      2.00000
     42       0.7028      2.00000
     43       0.9185      2.00000
     44       1.0063      2.00000
     45       1.1378      2.00000
     46       1.3235      2.00000
     47       1.4551      2.00000
     48       1.5248      2.00000
     49       1.7516      2.00000
     50       1.8998      2.00000
     51       2.0788      2.00000
     52       2.6275      2.00000
     53       2.8637      2.00000
     54       3.2026      2.00000
     55       4.6581      0.00000
     56       5.4942      0.00000
     57       6.0085      0.00000
     58       7.0355      0.00000
     59       7.3003      0.00000
     60       7.4292      0.00000
     61       7.8357      0.00000
     62       8.0445      0.00000
     63       9.0184      0.00000
     64       9.1493      0.00000
     65       9.3334      0.00000
     66       9.7727      0.00000
     67       9.8718      0.00000
     68      10.2114      0.00000
     69      10.5437      0.00000
     70      10.7036      0.00000
     71      10.8895      0.00000
     72      11.1041      0.00000
     73      11.4314      0.00000
     74      12.5152      0.00000
     75      12.7009      0.00000
     76      12.8995      0.00000
     77      13.1638      0.00000
     78      13.4164      0.00000
     79      13.7762      0.00000
     80      13.9933      0.00000
     81      14.4460      0.00000
     82      14.7305      0.00000
     83      15.0545      0.00000
     84      15.1007      0.00000
     85      15.3667      0.00000
     86      15.5812      0.00000
     87      15.8569      0.00000
     88      16.1209      0.00000
     89      16.5741      0.00000
     90      16.6533      0.00000
     91      16.8985      0.00000
     92      17.2664      0.00000
     93      17.4876      0.00000
     94      17.5917      0.00000
     95      17.7456      0.00000
     96      18.2865      0.00000
     97      18.3451      0.00000
     98      18.5890      0.00000
     99      18.8225      0.00000
    100      18.8983      0.00000
    101      19.1156      0.00000
    102      19.3787      0.00000
    103      19.6463      0.00000
    104      19.9455      0.00000
    105      20.1257      0.00000
    106      20.3041      0.00000
    107      20.7834      0.00000
    108      20.8755      0.00000
    109      21.0588      0.00000
    110      21.3574      0.00000
    111      21.5830      0.00000
    112      21.8232      0.00000
    113      22.1774      0.00000
    114      22.3845      0.00000
    115      22.4798      0.00000
    116      22.9051      0.00000
    117      23.0791      0.00000
    118      23.1978      0.00000
    119      23.4652      0.00000
    120      23.7402      0.00000
    121      24.1348      0.00000
    122      24.2114      0.00000
    123      24.4402      0.00000
    124      24.6887      0.00000
    125      24.7674      0.00000
    126      25.0357      0.00000
    127      25.1792      0.00000
    128      25.5324      0.00000
    129      25.6529      0.00000
    130      25.9965      0.00000
    131      26.2937      0.00000
    132      26.3542      0.00000
    133      26.6221      0.00000
    134      26.7418      0.00000
    135      26.9728      0.00000
    136      27.0664      0.00000
    137      27.2236      0.00000
    138      27.4404      0.00000
    139      27.4882      0.00000
    140      27.5785      0.00000
    141      27.7164      0.00000

 k-point    31 :      -0.4286    0.5000    0.1429
  band No.  band energies     occupation 
      1     -25.4534      2.00000
      2     -25.4488      2.00000
      3     -25.4389      2.00000
      4     -25.4383      2.00000
      5     -25.4091      2.00000
      6     -25.4087      2.00000
      7     -25.3866      2.00000
      8     -25.3860      2.00000
      9     -25.3812      2.00000
     10     -25.3805      2.00000
     11     -12.5575      2.00000
     12     -11.8247      2.00000
     13     -11.4411      2.00000
     14     -11.1756      2.00000
     15     -10.9948      2.00000
     16     -10.8030      2.00000
     17      -6.3827      2.00000
     18      -5.3914      2.00000
     19      -2.5766      2.00000
     20      -2.4112      2.00000
     21      -2.0570      2.00000
     22      -1.9419      2.00000
     23      -1.4620      2.00000
     24      -1.3102      2.00000
     25      -1.2270      2.00000
     26      -1.0995      2.00000
     27      -1.0228      2.00000
     28      -0.6845      2.00000
     29      -0.6427      2.00000
     30      -0.5662      2.00000
     31      -0.5368      2.00000
     32      -0.4442      2.00000
     33      -0.4146      2.00000
     34      -0.2784      2.00000
     35       0.4892      2.00000
     36       0.5073      2.00000
     37       0.5594      2.00000
     38       0.5724      2.00000
     39       0.6232      2.00000
     40       0.6422      2.00000
     41       0.6781      2.00000
     42       0.7226      2.00000
     43       0.9768      2.00000
     44       1.0298      2.00000
     45       1.0869      2.00000
     46       1.2001      2.00000
     47       1.4381      2.00000
     48       1.4971      2.00000
     49       1.7740      2.00000
     50       1.9665      2.00000
     51       2.0460      2.00000
     52       2.5171      2.00000
     53       2.8118      2.00000
     54       2.9643      2.00000
     55       4.8458      0.00000
     56       5.6804      0.00000
     57       6.2230      0.00000
     58       7.0156      0.00000
     59       7.3742      0.00000
     60       7.4839      0.00000
     61       7.9577      0.00000
     62       8.0357      0.00000
     63       8.9425      0.00000
     64       9.2665      0.00000
     65       9.5252      0.00000
     66       9.7519      0.00000
     67       9.9347      0.00000
     68      10.3367      0.00000
     69      10.4046      0.00000
     70      10.8191      0.00000
     71      10.9373      0.00000
     72      10.9956      0.00000
     73      11.4656      0.00000
     74      12.4010      0.00000
     75      12.5105      0.00000
     76      12.8241      0.00000
     77      13.1624      0.00000
     78      13.2261      0.00000
     79      13.5719      0.00000
     80      13.8187      0.00000
     81      14.2381      0.00000
     82      14.6355      0.00000
     83      14.9311      0.00000
     84      15.1096      0.00000
     85      15.3187      0.00000
     86      15.5304      0.00000
     87      15.7147      0.00000
     88      15.9610      0.00000
     89      16.3319      0.00000
     90      16.5840      0.00000
     91      17.0056      0.00000
     92      17.3203      0.00000
     93      17.5284      0.00000
     94      18.0285      0.00000
     95      18.1922      0.00000
     96      18.3243      0.00000
     97      18.5317      0.00000
     98      18.7113      0.00000
     99      18.8994      0.00000
    100      19.0813      0.00000
    101      19.3265      0.00000
    102      19.4554      0.00000
    103      19.5674      0.00000
    104      19.9187      0.00000
    105      20.3917      0.00000
    106      20.4880      0.00000
    107      20.6174      0.00000
    108      20.8833      0.00000
    109      20.9986      0.00000
    110      21.2833      0.00000
    111      21.3527      0.00000
    112      21.4726      0.00000
    113      21.9139      0.00000
    114      22.1204      0.00000
    115      22.4157      0.00000
    116      22.6828      0.00000
    117      22.9267      0.00000
    118      23.2680      0.00000
    119      23.3637      0.00000
    120      23.6685      0.00000
    121      23.8833      0.00000
    122      24.2746      0.00000
    123      24.6947      0.00000
    124      24.8669      0.00000
    125      25.3581      0.00000
    126      25.4642      0.00000
    127      25.6742      0.00000
    128      25.7921      0.00000
    129      25.8831      0.00000
    130      26.0777      0.00000
    131      26.2033      0.00000
    132      26.5407      0.00000
    133      26.6176      0.00000
    134      26.7557      0.00000
    135      26.9507      0.00000
    136      27.0667      0.00000
    137      27.2540      0.00000
    138      27.3752      0.00000
    139      27.6294      0.00000
    140      27.7650      0.00000
    141      27.8711      0.00000

 k-point    32 :      -0.2857    0.5000    0.1429
  band No.  band energies     occupation 
      1     -25.4534      2.00000
      2     -25.4488      2.00000
      3     -25.4389      2.00000
      4     -25.4383      2.00000
      5     -25.4091      2.00000
      6     -25.4087      2.00000
      7     -25.3866      2.00000
      8     -25.3859      2.00000
      9     -25.3812      2.00000
     10     -25.3804      2.00000
     11     -12.5549      2.00000
     12     -11.7460      2.00000
     13     -11.4513      2.00000
     14     -11.2485      2.00000
     15     -11.0042      2.00000
     16     -10.8274      2.00000
     17      -6.3466      2.00000
     18      -5.2966      2.00000
     19      -2.5247      2.00000
     20      -2.4143      2.00000
     21      -2.1142      2.00000
     22      -1.8088      2.00000
     23      -1.5154      2.00000
     24      -1.4705      2.00000
     25      -1.3208      2.00000
     26      -1.0114      2.00000
     27      -0.9395      2.00000
     28      -0.6922      2.00000
     29      -0.6578      2.00000
     30      -0.5942      2.00000
     31      -0.5253      2.00000
     32      -0.5050      2.00000
     33      -0.4141      2.00000
     34      -0.3307      2.00000
     35       0.4866      2.00000
     36       0.5364      2.00000
     37       0.5728      2.00000
     38       0.5978      2.00000
     39       0.6343      2.00000
     40       0.6508      2.00000
     41       0.6770      2.00000
     42       0.7174      2.00000
     43       0.9044      2.00000
     44       0.9739      2.00000
     45       1.0600      2.00000
     46       1.2592      2.00000
     47       1.3238      2.00000
     48       1.5251      2.00000
     49       1.7444      2.00000
     50       2.0210      2.00000
     51       2.2595      2.00000
     52       2.3452      2.00000
     53       2.6327      2.00000
     54       2.9219      2.00000
     55       5.0108      0.00000
     56       5.6405      0.00000
     57       6.6265      0.00000
     58       6.8404      0.00000
     59       7.1687      0.00000
     60       7.6712      0.00000
     61       7.8433      0.00000
     62       7.9959      0.00000
     63       8.9786      0.00000
     64       9.2507      0.00000
     65       9.7133      0.00000
     66      10.0534      0.00000
     67      10.2949      0.00000
     68      10.5948      0.00000
     69      10.7304      0.00000
     70      10.9218      0.00000
     71      11.1505      0.00000
     72      11.2873      0.00000
     73      11.6169      0.00000
     74      11.8341      0.00000
     75      12.3409      0.00000
     76      12.4875      0.00000
     77      12.8123      0.00000
     78      13.2337      0.00000
     79      13.3769      0.00000
     80      13.6144      0.00000
     81      13.8750      0.00000
     82      14.1497      0.00000
     83      14.4034      0.00000
     84      14.7178      0.00000
     85      14.8698      0.00000
     86      15.3903      0.00000
     87      15.5318      0.00000
     88      15.9387      0.00000
     89      16.3890      0.00000
     90      16.9768      0.00000
     91      17.1164      0.00000
     92      17.2655      0.00000
     93      17.7391      0.00000
     94      18.0469      0.00000
     95      18.3134      0.00000
     96      18.5120      0.00000
     97      18.6613      0.00000
     98      18.8436      0.00000
     99      19.0246      0.00000
    100      19.3050      0.00000
    101      19.5580      0.00000
    102      19.6477      0.00000
    103      19.8861      0.00000
    104      20.0248      0.00000
    105      20.2676      0.00000
    106      20.5110      0.00000
    107      20.8085      0.00000
    108      21.2473      0.00000
    109      21.3566      0.00000
    110      21.4640      0.00000
    111      21.7498      0.00000
    112      22.0546      0.00000
    113      22.3506      0.00000
    114      22.4848      0.00000
    115      22.6306      0.00000
    116      22.8443      0.00000
    117      22.9520      0.00000
    118      23.0211      0.00000
    119      23.2821      0.00000
    120      23.3954      0.00000
    121      23.6051      0.00000
    122      23.7588      0.00000
    123      24.0052      0.00000
    124      24.3977      0.00000
    125      24.7463      0.00000
    126      24.9516      0.00000
    127      25.2119      0.00000
    128      25.3462      0.00000
    129      25.5999      0.00000
    130      25.8610      0.00000
    131      26.0405      0.00000
    132      26.1752      0.00000
    133      26.5168      0.00000
    134      26.6292      0.00000
    135      26.9673      0.00000
    136      27.0268      0.00000
    137      27.1443      0.00000
    138      27.5675      0.00000
    139      27.8502      0.00000
    140      28.0662      0.00000
    141      28.1414      0.00000

 k-point    33 :      -0.1429    0.5000    0.1429
  band No.  band energies     occupation 
      1     -25.4534      2.00000
      2     -25.4488      2.00000
      3     -25.4389      2.00000
      4     -25.4383      2.00000
      5     -25.4090      2.00000
      6     -25.4086      2.00000
      7     -25.3865      2.00000
      8     -25.3859      2.00000
      9     -25.3811      2.00000
     10     -25.3804      2.00000
     11     -12.5563      2.00000
     12     -11.7026      2.00000
     13     -11.4455      2.00000
     14     -11.2517      2.00000
     15     -11.0157      2.00000
     16     -10.8842      2.00000
     17      -6.3150      2.00000
     18      -5.2615      2.00000
     19      -2.5755      2.00000
     20      -2.3801      2.00000
     21      -2.0648      2.00000
     22      -1.8197      2.00000
     23      -1.4855      2.00000
     24      -1.3698      2.00000
     25      -1.3031      2.00000
     26      -1.0712      2.00000
     27      -0.9651      2.00000
     28      -0.7218      2.00000
     29      -0.6906      2.00000
     30      -0.6159      2.00000
     31      -0.5466      2.00000
     32      -0.5161      2.00000
     33      -0.4229      2.00000
     34      -0.3675      2.00000
     35       0.4834      2.00000
     36       0.5362      2.00000
     37       0.5734      2.00000
     38       0.6054      2.00000
     39       0.6362      2.00000
     40       0.6538      2.00000
     41       0.6887      2.00000
     42       0.7676      2.00000
     43       0.8350      2.00000
     44       0.9613      2.00000
     45       1.0567      2.00000
     46       1.2860      2.00000
     47       1.4234      2.00000
     48       1.5504      2.00000
     49       1.7313      2.00000
     50       1.8100      2.00000
     51       2.2010      2.00000
     52       2.3036      2.00000
     53       2.4899      2.00000
     54       3.0733      2.00000
     55       5.1380      0.00000
     56       5.6663      0.00000
     57       6.5737      0.00000
     58       6.8911      0.00000
     59       7.4485      0.00000
     60       7.5490      0.00000
     61       8.1011      0.00000
     62       8.3304      0.00000
     63       9.0549      0.00000
     64       9.1675      0.00000
     65       9.7109      0.00000
     66      10.0222      0.00000
     67      10.1165      0.00000
     68      10.3314      0.00000
     69      10.5725      0.00000
     70      10.9160      0.00000
     71      11.0829      0.00000
     72      11.4356      0.00000
     73      11.6457      0.00000
     74      11.8791      0.00000
     75      12.1879      0.00000
     76      12.3148      0.00000
     77      12.6533      0.00000
     78      12.9144      0.00000
     79      13.2305      0.00000
     80      13.3996      0.00000
     81      13.7240      0.00000
     82      14.3749      0.00000
     83      14.4497      0.00000
     84      14.9251      0.00000
     85      15.0933      0.00000
     86      15.5020      0.00000
     87      15.9106      0.00000
     88      16.1410      0.00000
     89      16.4537      0.00000
     90      16.9888      0.00000
     91      17.3101      0.00000
     92      17.4757      0.00000
     93      17.6206      0.00000
     94      17.8649      0.00000
     95      18.1406      0.00000
     96      18.2669      0.00000
     97      18.6091      0.00000
     98      18.7611      0.00000
     99      18.9068      0.00000
    100      19.1677      0.00000
    101      19.3085      0.00000
    102      19.5460      0.00000
    103      19.7397      0.00000
    104      19.9431      0.00000
    105      20.4367      0.00000
    106      20.6547      0.00000
    107      20.8873      0.00000
    108      21.0173      0.00000
    109      21.3527      0.00000
    110      21.5170      0.00000
    111      21.6501      0.00000
    112      22.1701      0.00000
    113      22.3525      0.00000
    114      22.5678      0.00000
    115      22.8106      0.00000
    116      23.0884      0.00000
    117      23.1925      0.00000
    118      23.4681      0.00000
    119      23.6280      0.00000
    120      23.8046      0.00000
    121      23.9967      0.00000
    122      24.1153      0.00000
    123      24.2505      0.00000
    124      24.3775      0.00000
    125      24.6118      0.00000
    126      24.8794      0.00000
    127      25.0565      0.00000
    128      25.1885      0.00000
    129      25.5705      0.00000
    130      25.7449      0.00000
    131      25.9037      0.00000
    132      26.1432      0.00000
    133      26.2203      0.00000
    134      26.3538      0.00000
    135      26.8071      0.00000
    136      26.8647      0.00000
    137      27.2545      0.00000
    138      27.3569      0.00000
    139      27.5047      0.00000
    140      27.7286      0.00000
    141      27.8067      0.00000

 k-point    34 :       0.0000    0.0000    0.2857
  band No.  band energies     occupation 
      1     -25.4528      2.00000
      2     -25.4497      2.00000
      3     -25.4387      2.00000
      4     -25.4383      2.00000
      5     -25.4090      2.00000
      6     -25.4088      2.00000
      7     -25.3865      2.00000
      8     -25.3861      2.00000
      9     -25.3811      2.00000
     10     -25.3806      2.00000
     11     -12.6858      2.00000
     12     -11.9392      2.00000
     13     -11.2351      2.00000
     14     -11.1480      2.00000
     15     -10.8291      2.00000
     16     -10.8258      2.00000
     17      -6.2168      2.00000
     18      -5.6899      2.00000
     19      -2.5695      2.00000
     20      -2.4890      2.00000
     21      -2.1687      2.00000
     22      -1.8815      2.00000
     23      -1.6555      2.00000
     24      -1.4837      2.00000
     25      -1.4147      2.00000
     26      -1.2158      2.00000
     27      -0.8292      2.00000
     28      -0.7058      2.00000
     29      -0.6282      2.00000
     30      -0.6203      2.00000
     31      -0.5469      2.00000
     32      -0.5373      2.00000
     33      -0.4223      2.00000
     34      -0.4201      2.00000
     35       0.5253      2.00000
     36       0.5796      2.00000
     37       0.5884      2.00000
     38       0.5894      2.00000
     39       0.6494      2.00000
     40       0.6509      2.00000
     41       0.6915      2.00000
     42       0.7410      2.00000
     43       0.8346      2.00000
     44       0.8916      2.00000
     45       0.9731      2.00000
     46       1.1396      2.00000
     47       1.2594      2.00000
     48       1.8373      2.00000
     49       1.9380      2.00000
     50       2.2711      2.00000
     51       2.5539      2.00000
     52       2.5564      2.00000
     53       3.1086      2.00000
     54       3.1495      2.00000
     55       4.9092      0.00000
     56       5.0695      0.00000
     57       6.5483      0.00000
     58       6.6360      0.00000
     59       7.4902      0.00000
     60       7.8201      0.00000
     61       8.5379      0.00000
     62       8.6111      0.00000
     63       9.0433      0.00000
     64       9.4239      0.00000
     65       9.5637      0.00000
     66       9.6036      0.00000
     67       9.9205      0.00000
     68      10.2733      0.00000
     69      10.3466      0.00000
     70      10.9248      0.00000
     71      11.4309      0.00000
     72      11.7153      0.00000
     73      11.9504      0.00000
     74      12.1953      0.00000
     75      12.3431      0.00000
     76      12.5825      0.00000
     77      12.9830      0.00000
     78      12.9897      0.00000
     79      13.4010      0.00000
     80      13.4731      0.00000
     81      13.8030      0.00000
     82      13.9223      0.00000
     83      14.2295      0.00000
     84      14.4857      0.00000
     85      14.6544      0.00000
     86      14.9097      0.00000
     87      15.1000      0.00000
     88      15.2633      0.00000
     89      15.5454      0.00000
     90      15.6530      0.00000
     91      16.2758      0.00000
     92      16.8225      0.00000
     93      17.0201      0.00000
     94      17.8889      0.00000
     95      18.3244      0.00000
     96      18.4634      0.00000
     97      18.6465      0.00000
     98      18.8105      0.00000
     99      19.4239      0.00000
    100      19.5751      0.00000
    101      19.7479      0.00000
    102      20.1305      0.00000
    103      20.2246      0.00000
    104      20.6903      0.00000
    105      20.9549      0.00000
    106      21.0289      0.00000
    107      21.3697      0.00000
    108      21.4055      0.00000
    109      21.6105      0.00000
    110      21.8354      0.00000
    111      22.0097      0.00000
    112      22.1494      0.00000
    113      22.2638      0.00000
    114      22.4613      0.00000
    115      22.5043      0.00000
    116      22.7854      0.00000
    117      22.8233      0.00000
    118      23.1279      0.00000
    119      23.3555      0.00000
    120      23.3797      0.00000
    121      23.8366      0.00000
    122      23.8512      0.00000
    123      24.1626      0.00000
    124      24.4949      0.00000
    125      24.9510      0.00000
    126      25.0304      0.00000
    127      25.7101      0.00000
    128      25.8528      0.00000
    129      26.2894      0.00000
    130      26.6326      0.00000
    131      26.8322      0.00000
    132      26.9213      0.00000
    133      26.9773      0.00000
    134      27.1345      0.00000
    135      27.2705      0.00000
    136      27.4020      0.00000
    137      27.5260      0.00000
    138      27.7101      0.00000
    139      27.8663      0.00000
    140      27.9858      0.00000
    141      28.1864      0.00000

 k-point    35 :       0.1429    0.0000    0.2857
  band No.  band energies     occupation 
      1     -25.4527      2.00000
      2     -25.4496      2.00000
      3     -25.4386      2.00000
      4     -25.4382      2.00000
      5     -25.4089      2.00000
      6     -25.4087      2.00000
      7     -25.3864      2.00000
      8     -25.3860      2.00000
      9     -25.3810      2.00000
     10     -25.3805      2.00000
     11     -12.6144      2.00000
     12     -11.9715      2.00000
     13     -11.2530      2.00000
     14     -11.1863      2.00000
     15     -10.8842      2.00000
     16     -10.8117      2.00000
     17      -6.1949      2.00000
     18      -5.5985      2.00000
     19      -2.4905      2.00000
     20      -2.3754      2.00000
     21      -2.1005      2.00000
     22      -1.9191      2.00000
     23      -1.7539      2.00000
     24      -1.4603      2.00000
     25      -1.2917      2.00000
     26      -1.1709      2.00000
     27      -0.9981      2.00000
     28      -0.7636      2.00000
     29      -0.6392      2.00000
     30      -0.6086      2.00000
     31      -0.5526      2.00000
     32      -0.5281      2.00000
     33      -0.4520      2.00000
     34      -0.4014      2.00000
     35       0.5321      2.00000
     36       0.5640      2.00000
     37       0.5665      2.00000
     38       0.6014      2.00000
     39       0.6228      2.00000
     40       0.6754      2.00000
     41       0.6962      2.00000
     42       0.7358      2.00000
     43       0.8289      2.00000
     44       0.9348      2.00000
     45       1.0581      2.00000
     46       1.1063      2.00000
     47       1.2685      2.00000
     48       1.7345      2.00000
     49       1.9485      2.00000
     50       2.1251      2.00000
     51       2.2426      2.00000
     52       2.5710      2.00000
     53       2.8192      2.00000
     54       3.0776      2.00000
     55       5.1170      0.00000
     56       5.3541      0.00000
     57       6.7784      0.00000
     58       6.8318      0.00000
     59       7.7814      0.00000
     60       8.1089      0.00000
     61       8.4118      0.00000
     62       8.6035      0.00000
     63       8.9989      0.00000
     64       9.2577      0.00000
     65       9.5786      0.00000
     66       9.8403      0.00000
     67      10.1703      0.00000
     68      10.4229      0.00000
     69      10.6352      0.00000
     70      10.7012      0.00000
     71      11.1037      0.00000
     72      11.1991      0.00000
     73      11.3373      0.00000
     74      11.7064      0.00000
     75      11.8533      0.00000
     76      12.1259      0.00000
     77      12.5045      0.00000
     78      13.0618      0.00000
     79      13.2459      0.00000
     80      13.6394      0.00000
     81      13.8375      0.00000
     82      14.1265      0.00000
     83      14.1928      0.00000
     84      14.7304      0.00000
     85      15.0207      0.00000
     86      15.2112      0.00000
     87      15.3682      0.00000
     88      15.5138      0.00000
     89      16.0038      0.00000
     90      16.2403      0.00000
     91      16.8074      0.00000
     92      17.1768      0.00000
     93      17.4840      0.00000
     94      17.7899      0.00000
     95      18.1635      0.00000
     96      18.4365      0.00000
     97      18.6793      0.00000
     98      18.8740      0.00000
     99      19.1060      0.00000
    100      19.4155      0.00000
    101      19.7656      0.00000
    102      19.8567      0.00000
    103      20.1566      0.00000
    104      20.3112      0.00000
    105      20.4699      0.00000
    106      20.7922      0.00000
    107      21.1476      0.00000
    108      21.3988      0.00000
    109      21.5577      0.00000
    110      21.8073      0.00000
    111      21.9848      0.00000
    112      22.0986      0.00000
    113      22.2551      0.00000
    114      22.5548      0.00000
    115      22.8744      0.00000
    116      22.9622      0.00000
    117      23.0952      0.00000
    118      23.2409      0.00000
    119      23.5048      0.00000
    120      23.6984      0.00000
    121      23.9578      0.00000
    122      24.0752      0.00000
    123      24.4637      0.00000
    124      24.7114      0.00000
    125      24.9131      0.00000
    126      25.1847      0.00000
    127      25.3745      0.00000
    128      25.6270      0.00000
    129      25.7556      0.00000
    130      25.9653      0.00000
    131      26.0440      0.00000
    132      26.4619      0.00000
    133      26.6692      0.00000
    134      26.9342      0.00000
    135      27.0063      0.00000
    136      27.3051      0.00000
    137      27.3592      0.00000
    138      27.4394      0.00000
    139      27.5974      0.00000
    140      27.8535      0.00000
    141      28.1366      0.00000

 k-point    36 :       0.2857    0.0000    0.2857
  band No.  band energies     occupation 
      1     -25.4527      2.00000
      2     -25.4495      2.00000
      3     -25.4386      2.00000
      4     -25.4382      2.00000
      5     -25.4089      2.00000
      6     -25.4086      2.00000
      7     -25.3864      2.00000
      8     -25.3859      2.00000
      9     -25.3810      2.00000
     10     -25.3804      2.00000
     11     -12.5074      2.00000
     12     -11.9593      2.00000
     13     -11.3537      2.00000
     14     -11.1983      2.00000
     15     -10.9619      2.00000
     16     -10.8333      2.00000
     17      -6.1746      2.00000
     18      -5.4988      2.00000
     19      -2.5120      2.00000
     20      -2.2981      2.00000
     21      -2.0392      2.00000
     22      -1.9607      2.00000
     23      -1.6286      2.00000
     24      -1.4191      2.00000
     25      -1.2676      2.00000
     26      -1.0778      2.00000
     27      -0.9060      2.00000
     28      -0.8369      2.00000
     29      -0.6710      2.00000
     30      -0.6288      2.00000
     31      -0.5379      2.00000
     32      -0.5180      2.00000
     33      -0.4702      2.00000
     34      -0.3854      2.00000
     35       0.5269      2.00000
     36       0.5376      2.00000
     37       0.5661      2.00000
     38       0.6088      2.00000
     39       0.6198      2.00000
     40       0.6404      2.00000
     41       0.6831      2.00000
     42       0.7403      2.00000
     43       0.9120      2.00000
     44       1.0435      2.00000
     45       1.1509      2.00000
     46       1.2377      2.00000
     47       1.4489      2.00000
     48       1.6031      2.00000
     49       1.6888      2.00000
     50       1.7424      2.00000
     51       2.1729      2.00000
     52       2.4287      2.00000
     53       2.6564      2.00000
     54       2.9339      2.00000
     55       5.2399      0.00000
     56       5.6057      0.00000
     57       6.7895      0.00000
     58       6.9975      0.00000
     59       7.6412      0.00000
     60       7.9550      0.00000
     61       8.2917      0.00000
     62       8.5106      0.00000
     63       9.0358      0.00000
     64       9.2441      0.00000
     65       9.3954      0.00000
     66       9.8068      0.00000
     67      10.0891      0.00000
     68      10.3138      0.00000
     69      10.4499      0.00000
     70      10.5423      0.00000
     71      10.9311      0.00000
     72      11.1795      0.00000
     73      11.2789      0.00000
     74      11.6547      0.00000
     75      11.8889      0.00000
     76      12.1455      0.00000
     77      12.2308      0.00000
     78      12.9268      0.00000
     79      13.3807      0.00000
     80      13.6484      0.00000
     81      13.8152      0.00000
     82      14.2816      0.00000
     83      14.6858      0.00000
     84      15.3681      0.00000
     85      15.6451      0.00000
     86      15.9140      0.00000
     87      16.1459      0.00000
     88      16.3668      0.00000
     89      16.5065      0.00000
     90      16.6469      0.00000
     91      17.1840      0.00000
     92      17.3247      0.00000
     93      17.6334      0.00000
     94      17.7917      0.00000
     95      18.0360      0.00000
     96      18.1530      0.00000
     97      18.4344      0.00000
     98      18.5367      0.00000
     99      18.8794      0.00000
    100      19.1113      0.00000
    101      19.1735      0.00000
    102      19.4745      0.00000
    103      19.5269      0.00000
    104      19.7370      0.00000
    105      20.3679      0.00000
    106      20.5935      0.00000
    107      20.8829      0.00000
    108      21.0311      0.00000
    109      21.4034      0.00000
    110      21.7383      0.00000
    111      21.9748      0.00000
    112      22.1463      0.00000
    113      22.2837      0.00000
    114      22.6377      0.00000
    115      22.8476      0.00000
    116      23.0000      0.00000
    117      23.3136      0.00000
    118      23.4823      0.00000
    119      23.7028      0.00000
    120      23.9188      0.00000
    121      24.0410      0.00000
    122      24.1768      0.00000
    123      24.2978      0.00000
    124      24.6217      0.00000
    125      24.8467      0.00000
    126      25.0703      0.00000
    127      25.3000      0.00000
    128      25.5582      0.00000
    129      25.7431      0.00000
    130      25.9586      0.00000
    131      26.0402      0.00000
    132      26.1334      0.00000
    133      26.2659      0.00000
    134      26.5099      0.00000
    135      26.5559      0.00000
    136      26.9067      0.00000
    137      27.1240      0.00000
    138      27.3264      0.00000
    139      27.4723      0.00000
    140      27.7494      0.00000
    141      27.8510      0.00000

 k-point    37 :       0.4286    0.0000    0.2857
  band No.  band energies     occupation 
      1     -25.4527      2.00000
      2     -25.4496      2.00000
      3     -25.4386      2.00000
      4     -25.4382      2.00000
      5     -25.4089      2.00000
      6     -25.4086      2.00000
      7     -25.3863      2.00000
      8     -25.3859      2.00000
      9     -25.3809      2.00000
     10     -25.3804      2.00000
     11     -12.4506      2.00000
     12     -11.9114      2.00000
     13     -11.4017      2.00000
     14     -11.1994      2.00000
     15     -11.0264      2.00000
     16     -10.8848      2.00000
     17      -6.1653      2.00000
     18      -5.4654      2.00000
     19      -2.6394      2.00000
     20      -2.2312      2.00000
     21      -2.0621      2.00000
     22      -1.9142      2.00000
     23      -1.6485      2.00000
     24      -1.2751      2.00000
     25      -1.2067      2.00000
     26      -1.0431      2.00000
     27      -0.8758      2.00000
     28      -0.7436      2.00000
     29      -0.7025      2.00000
     30      -0.5758      2.00000
     31      -0.5278      2.00000
     32      -0.5067      2.00000
     33      -0.4581      2.00000
     34      -0.3897      2.00000
     35       0.4876      2.00000
     36       0.5161      2.00000
     37       0.5539      2.00000
     38       0.6062      2.00000
     39       0.6310      2.00000
     40       0.6486      2.00000
     41       0.6656      2.00000
     42       0.7489      2.00000
     43       0.9791      2.00000
     44       1.1264      2.00000
     45       1.1848      2.00000
     46       1.2907      2.00000
     47       1.3877      2.00000
     48       1.5409      2.00000
     49       1.6757      2.00000
     50       1.8183      2.00000
     51       2.1472      2.00000
     52       2.2660      2.00000
     53       2.6567      2.00000
     54       2.9836      2.00000
     55       5.1310      0.00000
     56       5.4963      0.00000
     57       6.3583      0.00000
     58       6.9423      0.00000
     59       7.4311      0.00000
     60       7.7419      0.00000
     61       8.0916      0.00000
     62       8.2989      0.00000
     63       8.8676      0.00000
     64       9.1132      0.00000
     65       9.5885      0.00000
     66       9.6273      0.00000
     67       9.9104      0.00000
     68      10.0906      0.00000
     69      10.3359      0.00000
     70      10.6247      0.00000
     71      10.8904      0.00000
     72      11.0055      0.00000
     73      11.7941      0.00000
     74      12.0001      0.00000
     75      12.3252      0.00000
     76      12.6088      0.00000
     77      12.9557      0.00000
     78      13.2004      0.00000
     79      13.4379      0.00000
     80      13.6770      0.00000
     81      14.1822      0.00000
     82      14.6465      0.00000
     83      14.9252      0.00000
     84      15.2623      0.00000
     85      15.4288      0.00000
     86      15.8523      0.00000
     87      16.1908      0.00000
     88      16.3599      0.00000
     89      16.8021      0.00000
     90      16.9746      0.00000
     91      17.1612      0.00000
     92      17.3039      0.00000
     93      17.5218      0.00000
     94      17.7983      0.00000
     95      17.9650      0.00000
     96      18.2743      0.00000
     97      18.3869      0.00000
     98      18.6307      0.00000
     99      18.8553      0.00000
    100      19.0255      0.00000
    101      19.1959      0.00000
    102      19.3499      0.00000
    103      19.7225      0.00000
    104      20.1367      0.00000
    105      20.2819      0.00000
    106      20.4827      0.00000
    107      20.7657      0.00000
    108      20.9200      0.00000
    109      21.1533      0.00000
    110      21.2542      0.00000
    111      21.5485      0.00000
    112      21.8226      0.00000
    113      22.2168      0.00000
    114      22.4054      0.00000
    115      22.5544      0.00000
    116      22.8034      0.00000
    117      22.9913      0.00000
    118      23.2920      0.00000
    119      23.5740      0.00000
    120      23.7101      0.00000
    121      23.9296      0.00000
    122      24.0528      0.00000
    123      24.1313      0.00000
    124      24.4959      0.00000
    125      24.8720      0.00000
    126      25.0651      0.00000
    127      25.1996      0.00000
    128      25.3633      0.00000
    129      25.5932      0.00000
    130      25.8732      0.00000
    131      26.1240      0.00000
    132      26.3132      0.00000
    133      26.4439      0.00000
    134      26.5984      0.00000
    135      26.7232      0.00000
    136      26.9855      0.00000
    137      27.1667      0.00000
    138      27.2548      0.00000
    139      27.6858      0.00000
    140      27.7648      0.00000
    141      27.9370      0.00000

 k-point    38 :      -0.4286    0.0000    0.2857
  band No.  band energies     occupation 
      1     -25.4528      2.00000
      2     -25.4497      2.00000
      3     -25.4387      2.00000
      4     -25.4383      2.00000
      5     -25.4089      2.00000
      6     -25.4087      2.00000
      7     -25.3864      2.00000
      8     -25.3860      2.00000
      9     -25.3810      2.00000
     10     -25.3805      2.00000
     11     -12.5074      2.00000
     12     -11.8494      2.00000
     13     -11.3612      2.00000
     14     -11.1645      2.00000
     15     -11.0700      2.00000
     16     -10.9037      2.00000
     17      -6.1779      2.00000
     18      -5.5303      2.00000
     19      -2.7644      2.00000
     20      -2.3535      2.00000
     21      -2.2164      2.00000
     22      -1.6764      2.00000
     23      -1.4675      2.00000
     24      -1.3103      2.00000
     25      -1.1505      2.00000
     26      -1.0076      2.00000
     27      -0.8436      2.00000
     28      -0.7056      2.00000
     29      -0.6909      2.00000
     30      -0.5781      2.00000
     31      -0.5584      2.00000
     32      -0.5139      2.00000
     33      -0.4441      2.00000
     34      -0.3909      2.00000
     35       0.4317      2.00000
     36       0.5057      2.00000
     37       0.5881      2.00000
     38       0.5974      2.00000
     39       0.6167      2.00000
     40       0.6533      2.00000
     41       0.6880      2.00000
     42       0.7122      2.00000
     43       0.9891      2.00000
     44       1.0341      2.00000
     45       1.2731      2.00000
     46       1.3483      2.00000
     47       1.4353      2.00000
     48       1.5752      2.00000
     49       1.7407      2.00000
     50       1.8466      2.00000
     51       2.1973      2.00000
     52       2.3138      2.00000
     53       2.6985      2.00000
     54       3.0355      2.00000
     55       5.0052      0.00000
     56       5.3543      0.00000
     57       6.3084      0.00000
     58       6.7817      0.00000
     59       7.1926      0.00000
     60       7.5031      0.00000
     61       7.8874      0.00000
     62       8.2533      0.00000
     63       8.7119      0.00000
     64       8.9996      0.00000
     65       9.3972      0.00000
     66       9.7151      0.00000
     67      10.0325      0.00000
     68      10.1994      0.00000
     69      10.3110      0.00000
     70      10.5960      0.00000
     71      10.8955      0.00000
     72      11.1119      0.00000
     73      11.8400      0.00000
     74      12.3289      0.00000
     75      12.5395      0.00000
     76      12.7203      0.00000
     77      13.0591      0.00000
     78      13.5017      0.00000
     79      13.9490      0.00000
     80      14.1443      0.00000
     81      14.4402      0.00000
     82      14.7412      0.00000
     83      14.9457      0.00000
     84      15.2309      0.00000
     85      15.4196      0.00000
     86      15.9368      0.00000
     87      16.0287      0.00000
     88      16.3573      0.00000
     89      16.5688      0.00000
     90      16.8611      0.00000
     91      17.2008      0.00000
     92      17.3198      0.00000
     93      17.5485      0.00000
     94      17.6000      0.00000
     95      18.0012      0.00000
     96      18.0928      0.00000
     97      18.3786      0.00000
     98      18.6038      0.00000
     99      18.7293      0.00000
    100      18.7822      0.00000
    101      19.0730      0.00000
    102      19.1309      0.00000
    103      19.2275      0.00000
    104      19.5261      0.00000
    105      20.1474      0.00000
    106      20.4976      0.00000
    107      20.7652      0.00000
    108      20.9645      0.00000
    109      21.0650      0.00000
    110      21.2382      0.00000
    111      21.5280      0.00000
    112      21.6624      0.00000
    113      22.1395      0.00000
    114      22.2520      0.00000
    115      22.4541      0.00000
    116      22.6897      0.00000
    117      23.2947      0.00000
    118      23.3148      0.00000
    119      23.6554      0.00000
    120      23.9788      0.00000
    121      24.1540      0.00000
    122      24.2206      0.00000
    123      24.3573      0.00000
    124      24.6887      0.00000
    125      24.8615      0.00000
    126      25.1631      0.00000
    127      25.2285      0.00000
    128      25.4648      0.00000
    129      25.6764      0.00000
    130      25.8232      0.00000
    131      26.0272      0.00000
    132      26.1725      0.00000
    133      26.3095      0.00000
    134      26.6353      0.00000
    135      26.7957      0.00000
    136      26.9818      0.00000
    137      27.1844      0.00000
    138      27.3513      0.00000
    139      27.5827      0.00000
    140      27.6835      0.00000
    141      27.8373      0.00000

 k-point    39 :      -0.2857    0.0000    0.2857
  band No.  band energies     occupation 
      1     -25.4529      2.00000
      2     -25.4497      2.00000
      3     -25.4388      2.00000
      4     -25.4383      2.00000
      5     -25.4090      2.00000
      6     -25.4088      2.00000
      7     -25.3865      2.00000
      8     -25.3861      2.00000
      9     -25.3811      2.00000
     10     -25.3806      2.00000
     11     -12.6132      2.00000
     12     -11.8285      2.00000
     13     -11.3279      2.00000
     14     -11.1375      2.00000
     15     -10.9954      2.00000
     16     -10.8684      2.00000
     17      -6.2065      2.00000
     18      -5.6423      2.00000
     19      -2.7841      2.00000
     20      -2.5478      2.00000
     21      -2.2327      2.00000
     22      -1.6868      2.00000
     23      -1.3470      2.00000
     24      -1.2433      2.00000
     25      -1.1914      2.00000
     26      -1.0077      2.00000
     27      -0.8711      2.00000
     28      -0.7507      2.00000
     29      -0.6464      2.00000
     30      -0.6112      2.00000
     31      -0.5986      2.00000
     32      -0.5334      2.00000
     33      -0.4387      2.00000
     34      -0.3951      2.00000
     35       0.4803      2.00000
     36       0.5098      2.00000
     37       0.5883      2.00000
     38       0.6005      2.00000
     39       0.6062      2.00000
     40       0.6325      2.00000
     41       0.6549      2.00000
     42       0.7313      2.00000
     43       0.8987      2.00000
     44       1.0999      2.00000
     45       1.1439      2.00000
     46       1.3682      2.00000
     47       1.4721      2.00000
     48       1.7146      2.00000
     49       1.8492      2.00000
     50       1.9696      2.00000
     51       2.2055      2.00000
     52       2.3817      2.00000
     53       2.8823      2.00000
     54       2.9539      2.00000
     55       5.0112      0.00000
     56       5.2947      0.00000
     57       6.5698      0.00000
     58       6.7449      0.00000
     59       6.9982      0.00000
     60       7.3200      0.00000
     61       8.0537      0.00000
     62       8.3610      0.00000
     63       8.7656      0.00000
     64       9.0419      0.00000
     65       9.3722      0.00000
     66       9.7065      0.00000
     67       9.8194      0.00000
     68      10.0886      0.00000
     69      10.2817      0.00000
     70      10.7033      0.00000
     71      11.2293      0.00000
     72      11.4826      0.00000
     73      11.9153      0.00000
     74      12.0184      0.00000
     75      12.2199      0.00000
     76      12.6888      0.00000
     77      12.9786      0.00000
     78      13.2306      0.00000
     79      14.0894      0.00000
     80      14.4538      0.00000
     81      14.7350      0.00000
     82      14.8448      0.00000
     83      15.0192      0.00000
     84      15.2135      0.00000
     85      15.5157      0.00000
     86      15.6836      0.00000
     87      15.8096      0.00000
     88      16.1564      0.00000
     89      16.5790      0.00000
     90      16.6157      0.00000
     91      16.9704      0.00000
     92      17.0908      0.00000
     93      17.4539      0.00000
     94      17.6730      0.00000
     95      17.7898      0.00000
     96      18.0646      0.00000
     97      18.2240      0.00000
     98      18.4266      0.00000
     99      18.5494      0.00000
    100      18.7422      0.00000
    101      18.9520      0.00000
    102      19.0939      0.00000
    103      19.2246      0.00000
    104      19.3561      0.00000
    105      19.5240      0.00000
    106      19.8651      0.00000
    107      20.1422      0.00000
    108      20.6441      0.00000
    109      20.7943      0.00000
    110      21.2838      0.00000
    111      22.0823      0.00000
    112      22.3034      0.00000
    113      22.8369      0.00000
    114      23.0058      0.00000
    115      23.1634      0.00000
    116      23.2697      0.00000
    117      23.5475      0.00000
    118      23.6301      0.00000
    119      23.7446      0.00000
    120      23.9128      0.00000
    121      24.1005      0.00000
    122      24.2138      0.00000
    123      24.4286      0.00000
    124      24.7455      0.00000
    125      24.8435      0.00000
    126      25.3940      0.00000
    127      25.6702      0.00000
    128      25.8212      0.00000
    129      26.0096      0.00000
    130      26.1660      0.00000
    131      26.3003      0.00000
    132      26.4653      0.00000
    133      26.6271      0.00000
    134      26.7396      0.00000
    135      26.8351      0.00000
    136      26.8970      0.00000
    137      27.0819      0.00000
    138      27.1884      0.00000
    139      27.3505      0.00000
    140      27.6086      0.00000
    141      27.9940      0.00000

 k-point    40 :      -0.1429    0.0000    0.2857
  band No.  band energies     occupation 
      1     -25.4529      2.00000
      2     -25.4497      2.00000
      3     -25.4388      2.00000
      4     -25.4383      2.00000
      5     -25.4091      2.00000
      6     -25.4088      2.00000
      7     -25.3866      2.00000
      8     -25.3861      2.00000
      9     -25.3812      2.00000
     10     -25.3807      2.00000
     11     -12.6850      2.00000
     12     -11.8751      2.00000
     13     -11.2875      2.00000
     14     -11.1242      2.00000
     15     -10.8873      2.00000
     16     -10.8250      2.00000
     17      -6.2246      2.00000
     18      -5.7112      2.00000
     19      -2.6899      2.00000
     20      -2.5851      2.00000
     21      -2.1732      2.00000
     22      -1.8956      2.00000
     23      -1.5266      2.00000
     24      -1.3571      2.00000
     25      -1.2300      2.00000
     26      -1.0894      2.00000
     27      -0.8268      2.00000
     28      -0.7277      2.00000
     29      -0.6420      2.00000
     30      -0.6121      2.00000
     31      -0.5750      2.00000
     32      -0.5327      2.00000
     33      -0.4280      2.00000
     34      -0.4134      2.00000
     35       0.5255      2.00000
     36       0.5504      2.00000
     37       0.5800      2.00000
     38       0.6023      2.00000
     39       0.6145      2.00000
     40       0.6290      2.00000
     41       0.6645      2.00000
     42       0.7615      2.00000
     43       0.8569      2.00000
     44       0.9434      2.00000
     45       1.0585      2.00000
     46       1.2847      2.00000
     47       1.3874      2.00000
     48       1.7553      2.00000
     49       1.9482      2.00000
     50       2.2611      2.00000
     51       2.3998      2.00000
     52       2.4926      2.00000
     53       2.8903      2.00000
     54       3.1246      2.00000
     55       4.9983      0.00000
     56       5.2039      0.00000
     57       6.4972      0.00000
     58       6.6084      0.00000
     59       7.1694      0.00000
     60       7.4255      0.00000
     61       8.3807      0.00000
     62       8.6471      0.00000
     63       8.8361      0.00000
     64       9.3204      0.00000
     65       9.3957      0.00000
     66       9.5657      0.00000
     67       9.7387      0.00000
     68      10.1693      0.00000
     69      10.3694      0.00000
     70      10.7366      0.00000
     71      11.4426      0.00000
     72      11.8877      0.00000
     73      11.9722      0.00000
     74      12.2201      0.00000
     75      12.3392      0.00000
     76      12.6186      0.00000
     77      12.7817      0.00000
     78      13.4572      0.00000
     79      13.5513      0.00000
     80      13.9214      0.00000
     81      14.1966      0.00000
     82      14.3291      0.00000
     83      14.4555      0.00000
     84      14.8010      0.00000
     85      14.9885      0.00000
     86      15.3050      0.00000
     87      15.4124      0.00000
     88      15.9407      0.00000
     89      16.1411      0.00000
     90      16.3254      0.00000
     91      16.5477      0.00000
     92      16.8755      0.00000
     93      17.0539      0.00000
     94      17.2666      0.00000
     95      17.6932      0.00000
     96      18.0664      0.00000
     97      18.2830      0.00000
     98      18.5006      0.00000
     99      18.8720      0.00000
    100      19.1867      0.00000
    101      19.2357      0.00000
    102      19.4094      0.00000
    103      19.8944      0.00000
    104      20.1657      0.00000
    105      20.3924      0.00000
    106      20.6842      0.00000
    107      20.8082      0.00000
    108      21.1631      0.00000
    109      21.3335      0.00000
    110      21.8374      0.00000
    111      21.9192      0.00000
    112      22.1100      0.00000
    113      22.4407      0.00000
    114      22.6296      0.00000
    115      22.8503      0.00000
    116      23.0586      0.00000
    117      23.2327      0.00000
    118      23.5036      0.00000
    119      23.6280      0.00000
    120      23.9036      0.00000
    121      24.0953      0.00000
    122      24.1865      0.00000
    123      24.5198      0.00000
    124      24.9937      0.00000
    125      25.1041      0.00000
    126      25.2466      0.00000
    127      25.5912      0.00000
    128      25.7881      0.00000
    129      25.8821      0.00000
    130      26.1834      0.00000
    131      26.3333      0.00000
    132      26.5344      0.00000
    133      26.7449      0.00000
    134      26.9499      0.00000
    135      27.0601      0.00000
    136      27.3285      0.00000
    137      27.5490      0.00000
    138      27.7408      0.00000
    139      28.0265      0.00000
    140      28.0798      0.00000
    141      28.3667      0.00000

 k-point    41 :       0.0000    0.2500    0.2857
  band No.  band energies     occupation 
      1     -25.4529      2.00000
      2     -25.4498      2.00000
      3     -25.4388      2.00000
      4     -25.4383      2.00000
      5     -25.4091      2.00000
      6     -25.4088      2.00000
      7     -25.3865      2.00000
      8     -25.3861      2.00000
      9     -25.3811      2.00000
     10     -25.3806      2.00000
     11     -12.6365      2.00000
     12     -11.8348      2.00000
     13     -11.3209      2.00000
     14     -11.1324      2.00000
     15     -10.9656      2.00000
     16     -10.8560      2.00000
     17      -6.2131      2.00000
     18      -5.6667      2.00000
     19      -2.7683      2.00000
     20      -2.5749      2.00000
     21      -2.2193      2.00000
     22      -1.7479      2.00000
     23      -1.3821      2.00000
     24      -1.2474      2.00000
     25      -1.1765      2.00000
     26      -1.0077      2.00000
     27      -0.8773      2.00000
     28      -0.7593      2.00000
     29      -0.6496      2.00000
     30      -0.6092      2.00000
     31      -0.5906      2.00000
     32      -0.5357      2.00000
     33      -0.4380      2.00000
     34      -0.3990      2.00000
     35       0.4972      2.00000
     36       0.5161      2.00000
     37       0.5834      2.00000
     38       0.5995      2.00000
     39       0.6060      2.00000
     40       0.6334      2.00000
     41       0.6545      2.00000
     42       0.7394      2.00000
     43       0.8811      2.00000
     44       1.0601      2.00000
     45       1.1320      2.00000
     46       1.3547      2.00000
     47       1.4928      2.00000
     48       1.7028      2.00000
     49       1.8787      2.00000
     50       2.0305      2.00000
     51       2.2489      2.00000
     52       2.4009      2.00000
     53       2.9210      2.00000
     54       2.9510      2.00000
     55       5.0191      0.00000
     56       5.2841      0.00000
     57       6.5478      0.00000
     58       6.7643      0.00000
     59       7.0014      0.00000
     60       7.3109      0.00000
     61       8.1158      0.00000
     62       8.4427      0.00000
     63       8.8044      0.00000
     64       9.0761      0.00000
     65       9.3828      0.00000
     66       9.6788      0.00000
     67       9.7787      0.00000
     68      10.0828      0.00000
     69      10.2429      0.00000
     70      10.7423      0.00000
     71      11.3272      0.00000
     72      11.5792      0.00000
     73      11.8924      0.00000
     74      12.0828      0.00000
     75      12.1992      0.00000
     76      12.6517      0.00000
     77      12.8991      0.00000
     78      13.2634      0.00000
     79      13.9494      0.00000
     80      14.4225      0.00000
     81      14.6767      0.00000
     82      14.7699      0.00000
     83      14.9348      0.00000
     84      15.0456      0.00000
     85      15.4732      0.00000
     86      15.6684      0.00000
     87      15.7722      0.00000
     88      16.1374      0.00000
     89      16.4294      0.00000
     90      16.5699      0.00000
     91      16.8805      0.00000
     92      17.0346      0.00000
     93      17.3278      0.00000
     94      17.6433      0.00000
     95      17.7845      0.00000
     96      18.0244      0.00000
     97      18.2034      0.00000
     98      18.4780      0.00000
     99      18.5671      0.00000
    100      18.7084      0.00000
    101      19.0034      0.00000
    102      19.1128      0.00000
    103      19.2155      0.00000
    104      19.3896      0.00000
    105      19.7272      0.00000
    106      19.8648      0.00000
    107      20.2134      0.00000
    108      20.7468      0.00000
    109      21.0905      0.00000
    110      21.3478      0.00000
    111      22.0628      0.00000
    112      22.3844      0.00000
    113      22.7570      0.00000
    114      22.9347      0.00000
    115      23.2347      0.00000
    116      23.3240      0.00000
    117      23.5748      0.00000
    118      23.8036      0.00000
    119      23.8807      0.00000
    120      23.9939      0.00000
    121      24.0763      0.00000
    122      24.1909      0.00000
    123      24.3255      0.00000
    124      24.6303      0.00000
    125      24.7568      0.00000
    126      25.5470      0.00000
    127      25.6795      0.00000
    128      25.7681      0.00000
    129      25.9789      0.00000
    130      26.2263      0.00000
    131      26.3200      0.00000
    132      26.4981      0.00000
    133      26.6034      0.00000
    134      26.7004      0.00000
    135      26.8002      0.00000
    136      26.9638      0.00000
    137      27.1727      0.00000
    138      27.3072      0.00000
    139      27.6104      0.00000
    140      27.8593      0.00000
    141      28.2936      0.00000

 k-point    42 :       0.1429    0.2500    0.2857
  band No.  band energies     occupation 
      1     -25.4528      2.00000
      2     -25.4497      2.00000
      3     -25.4387      2.00000
      4     -25.4383      2.00000
      5     -25.4091      2.00000
      6     -25.4088      2.00000
      7     -25.3865      2.00000
      8     -25.3861      2.00000
      9     -25.3811      2.00000
     10     -25.3807      2.00000
     11     -12.6318      2.00000
     12     -11.8753      2.00000
     13     -11.3569      2.00000
     14     -11.1184      2.00000
     15     -10.9195      2.00000
     16     -10.8284      2.00000
     17      -6.2077      2.00000
     18      -5.6623      2.00000
     19      -2.7070      2.00000
     20      -2.5278      2.00000
     21      -2.0650      2.00000
     22      -1.9494      2.00000
     23      -1.4984      2.00000
     24      -1.3465      2.00000
     25      -1.1647      2.00000
     26      -1.0547      2.00000
     27      -0.9089      2.00000
     28      -0.7791      2.00000
     29      -0.6182      2.00000
     30      -0.5910      2.00000
     31      -0.5756      2.00000
     32      -0.5237      2.00000
     33      -0.4173      2.00000
     34      -0.3975      2.00000
     35       0.5029      2.00000
     36       0.5315      2.00000
     37       0.5724      2.00000
     38       0.6004      2.00000
     39       0.6230      2.00000
     40       0.6364      2.00000
     41       0.6608      2.00000
     42       0.7803      2.00000
     43       0.8974      2.00000
     44       0.9962      2.00000
     45       1.0894      2.00000
     46       1.2469      2.00000
     47       1.5178      2.00000
     48       1.6603      2.00000
     49       1.8391      2.00000
     50       2.0823      2.00000
     51       2.2048      2.00000
     52       2.4113      2.00000
     53       2.8157      2.00000
     54       3.1671      2.00000
     55       4.9920      0.00000
     56       5.3507      0.00000
     57       6.6190      0.00000
     58       6.8386      0.00000
     59       7.1501      0.00000
     60       7.6079      0.00000
     61       8.0387      0.00000
     62       8.5681      0.00000
     63       8.9672      0.00000
     64       9.1496      0.00000
     65       9.4252      0.00000
     66       9.6148      0.00000
     67       9.7501      0.00000
     68      10.1050      0.00000
     69      10.2683      0.00000
     70      10.8432      0.00000
     71      11.2629      0.00000
     72      11.4639      0.00000
     73      11.6737      0.00000
     74      12.1988      0.00000
     75      12.3296      0.00000
     76      12.5029      0.00000
     77      12.9001      0.00000
     78      13.3846      0.00000
     79      13.5721      0.00000
     80      14.1471      0.00000
     81      14.3586      0.00000
     82      14.4703      0.00000
     83      14.6943      0.00000
     84      14.7833      0.00000
     85      15.1709      0.00000
     86      15.6255      0.00000
     87      15.8314      0.00000
     88      16.1412      0.00000
     89      16.2145      0.00000
     90      16.5268      0.00000
     91      16.6022      0.00000
     92      17.0298      0.00000
     93      17.2672      0.00000
     94      17.4843      0.00000
     95      17.6833      0.00000
     96      17.8977      0.00000
     97      18.3468      0.00000
     98      18.6853      0.00000
     99      18.7816      0.00000
    100      18.8872      0.00000
    101      19.1660      0.00000
    102      19.6016      0.00000
    103      19.7810      0.00000
    104      19.8714      0.00000
    105      20.0924      0.00000
    106      20.4240      0.00000
    107      20.5760      0.00000
    108      21.0181      0.00000
    109      21.2228      0.00000
    110      21.7290      0.00000
    111      22.0627      0.00000
    112      22.2945      0.00000
    113      22.4841      0.00000
    114      22.5898      0.00000
    115      22.8707      0.00000
    116      23.0726      0.00000
    117      23.2089      0.00000
    118      23.3322      0.00000
    119      23.6224      0.00000
    120      23.7387      0.00000
    121      23.9736      0.00000
    122      24.0251      0.00000
    123      24.7086      0.00000
    124      24.8541      0.00000
    125      24.9696      0.00000
    126      25.2682      0.00000
    127      25.3556      0.00000
    128      25.6709      0.00000
    129      25.7693      0.00000
    130      26.0111      0.00000
    131      26.2069      0.00000
    132      26.4897      0.00000
    133      26.7716      0.00000
    134      26.9558      0.00000
    135      27.0582      0.00000
    136      27.4945      0.00000
    137      27.6290      0.00000
    138      27.7418      0.00000
    139      27.8365      0.00000
    140      28.0847      0.00000
    141      28.3021      0.00000

 k-point    43 :       0.2857    0.2500    0.2857
  band No.  band energies     occupation 
      1     -25.4528      2.00000
      2     -25.4497      2.00000
      3     -25.4387      2.00000
      4     -25.4383      2.00000
      5     -25.4091      2.00000
      6     -25.4088      2.00000
      7     -25.3865      2.00000
      8     -25.3861      2.00000
      9     -25.3811      2.00000
     10     -25.3806      2.00000
     11     -12.5616      2.00000
     12     -11.9019      2.00000
     13     -11.3934      2.00000
     14     -11.1556      2.00000
     15     -10.9513      2.00000
     16     -10.8195      2.00000
     17      -6.1879      2.00000
     18      -5.5657      2.00000
     19      -2.6322      2.00000
     20      -2.3969      2.00000
     21      -2.2087      2.00000
     22      -1.6872      2.00000
     23      -1.5719      2.00000
     24      -1.3580      2.00000
     25      -1.2098      2.00000
     26      -1.1069      2.00000
     27      -0.9134      2.00000
     28      -0.8597      2.00000
     29      -0.6266      2.00000
     30      -0.5994      2.00000
     31      -0.5579      2.00000
     32      -0.5034      2.00000
     33      -0.4419      2.00000
     34      -0.3793      2.00000
     35       0.5035      2.00000
     36       0.5297      2.00000
     37       0.5624      2.00000
     38       0.5973      2.00000
     39       0.6267      2.00000
     40       0.6388      2.00000
     41       0.6642      2.00000
     42       0.7282      2.00000
     43       0.9537      2.00000
     44       1.0550      2.00000
     45       1.1504      2.00000
     46       1.2164      2.00000
     47       1.4183      2.00000
     48       1.5963      2.00000
     49       1.7145      2.00000
     50       1.8828      2.00000
     51       2.3424      2.00000
     52       2.4232      2.00000
     53       2.5916      2.00000
     54       2.8450      2.00000
     55       5.2232      0.00000
     56       5.5627      0.00000
     57       6.8556      0.00000
     58       6.9221      0.00000
     59       7.2984      0.00000
     60       7.8860      0.00000
     61       8.1086      0.00000
     62       8.4670      0.00000
     63       8.9068      0.00000
     64       9.1227      0.00000
     65       9.4626      0.00000
     66       9.8368      0.00000
     67      10.0275      0.00000
     68      10.1006      0.00000
     69      10.3135      0.00000
     70      10.7040      0.00000
     71      11.0723      0.00000
     72      11.4052      0.00000
     73      11.5286      0.00000
     74      11.7363      0.00000
     75      11.9634      0.00000
     76      12.3418      0.00000
     77      12.7266      0.00000
     78      13.2284      0.00000
     79      13.4980      0.00000
     80      13.8540      0.00000
     81      14.0826      0.00000
     82      14.4923      0.00000
     83      14.6669      0.00000
     84      15.0644      0.00000
     85      15.2971      0.00000
     86      15.5822      0.00000
     87      16.1007      0.00000
     88      16.2261      0.00000
     89      16.7388      0.00000
     90      16.8349      0.00000
     91      17.0561      0.00000
     92      17.2855      0.00000
     93      17.4240      0.00000
     94      17.7257      0.00000
     95      17.8854      0.00000
     96      18.0303      0.00000
     97      18.1612      0.00000
     98      18.4941      0.00000
     99      18.7001      0.00000
    100      18.7881      0.00000
    101      19.1117      0.00000
    102      19.2832      0.00000
    103      19.4749      0.00000
    104      20.0067      0.00000
    105      20.3412      0.00000
    106      20.6278      0.00000
    107      20.8190      0.00000
    108      21.0295      0.00000
    109      21.2368      0.00000
    110      21.4538      0.00000
    111      21.8336      0.00000
    112      22.1544      0.00000
    113      22.2628      0.00000
    114      22.5058      0.00000
    115      22.6265      0.00000
    116      22.9005      0.00000
    117      23.3506      0.00000
    118      23.5196      0.00000
    119      23.6248      0.00000
    120      23.7687      0.00000
    121      24.1833      0.00000
    122      24.3566      0.00000
    123      24.5053      0.00000
    124      24.8459      0.00000
    125      25.0828      0.00000
    126      25.2127      0.00000
    127      25.4622      0.00000
    128      25.5523      0.00000
    129      25.8026      0.00000
    130      25.9496      0.00000
    131      26.1112      0.00000
    132      26.4258      0.00000
    133      26.5148      0.00000
    134      26.8804      0.00000
    135      26.9527      0.00000
    136      27.2848      0.00000
    137      27.4754      0.00000
    138      27.7645      0.00000
    139      27.8881      0.00000
    140      27.9632      0.00000
    141      28.1655      0.00000

 k-point    44 :       0.4286    0.2500    0.2857
  band No.  band energies     occupation 
      1     -25.4528      2.00000
      2     -25.4497      2.00000
      3     -25.4387      2.00000
      4     -25.4383      2.00000
      5     -25.4090      2.00000
      6     -25.4088      2.00000
      7     -25.3865      2.00000
      8     -25.3861      2.00000
      9     -25.3811      2.00000
     10     -25.3806      2.00000
     11     -12.4659      2.00000
     12     -11.8975      2.00000
     13     -11.4133      2.00000
     14     -11.2237      2.00000
     15     -11.0338      2.00000
     16     -10.8318      2.00000
     17      -6.1641      2.00000
     18      -5.4367      2.00000
     19      -2.5574      2.00000
     20      -2.3487      2.00000
     21      -2.1332      2.00000
     22      -1.7743      2.00000
     23      -1.5177      2.00000
     24      -1.3548      2.00000
     25      -1.2286      2.00000
     26      -1.1505      2.00000
     27      -0.9775      2.00000
     28      -0.7412      2.00000
     29      -0.6546      2.00000
     30      -0.6106      2.00000
     31      -0.5392      2.00000
     32      -0.4814      2.00000
     33      -0.4360      2.00000
     34      -0.3846      2.00000
     35       0.5074      2.00000
     36       0.5187      2.00000
     37       0.5792      2.00000
     38       0.6030      2.00000
     39       0.6380      2.00000
     40       0.6632      2.00000
     41       0.6718      2.00000
     42       0.7299      2.00000
     43       0.9506      2.00000
     44       1.0270      2.00000
     45       1.0865      2.00000
     46       1.2838      2.00000
     47       1.4193      2.00000
     48       1.5578      2.00000
     49       1.6849      2.00000
     50       1.8908      2.00000
     51       2.1362      2.00000
     52       2.3531      2.00000
     53       2.5284      2.00000
     54       2.7227      2.00000
     55       5.2851      0.00000
     56       5.5673      0.00000
     57       6.6417      0.00000
     58       6.8428      0.00000
     59       7.3733      0.00000
     60       7.9057      0.00000
     61       8.0709      0.00000
     62       8.2928      0.00000
     63       9.0516      0.00000
     64       9.1652      0.00000
     65       9.4315      0.00000
     66       9.9658      0.00000
     67      10.1102      0.00000
     68      10.4280      0.00000
     69      10.5894      0.00000
     70      10.7903      0.00000
     71      11.0670      0.00000
     72      11.2220      0.00000
     73      11.5999      0.00000
     74      11.8779      0.00000
     75      12.1408      0.00000
     76      12.2728      0.00000
     77      12.6033      0.00000
     78      12.7858      0.00000
     79      13.1215      0.00000
     80      13.6448      0.00000
     81      14.0774      0.00000
     82      14.2798      0.00000
     83      14.5847      0.00000
     84      14.8733      0.00000
     85      15.5148      0.00000
     86      15.8042      0.00000
     87      15.9744      0.00000
     88      16.5322      0.00000
     89      16.8578      0.00000
     90      17.1273      0.00000
     91      17.3065      0.00000
     92      17.4593      0.00000
     93      17.5449      0.00000
     94      17.7845      0.00000
     95      18.1502      0.00000
     96      18.3783      0.00000
     97      18.5493      0.00000
     98      18.6574      0.00000
     99      18.9123      0.00000
    100      19.0639      0.00000
    101      19.1723      0.00000
    102      19.4044      0.00000
    103      19.4850      0.00000
    104      19.7537      0.00000
    105      20.0302      0.00000
    106      20.5165      0.00000
    107      20.6878      0.00000
    108      20.8190      0.00000
    109      20.9911      0.00000
    110      21.4509      0.00000
    111      21.7653      0.00000
    112      22.0002      0.00000
    113      22.2929      0.00000
    114      22.5964      0.00000
    115      22.9714      0.00000
    116      23.2031      0.00000
    117      23.2934      0.00000
    118      23.4828      0.00000
    119      23.5748      0.00000
    120      23.7537      0.00000
    121      24.0077      0.00000
    122      24.2344      0.00000
    123      24.2792      0.00000
    124      24.4408      0.00000
    125      24.5278      0.00000
    126      24.8479      0.00000
    127      25.0515      0.00000
    128      25.3272      0.00000
    129      25.5200      0.00000
    130      25.8723      0.00000
    131      25.9265      0.00000
    132      26.1075      0.00000
    133      26.2640      0.00000
    134      26.4213      0.00000
    135      26.5904      0.00000
    136      26.7613      0.00000
    137      27.1219      0.00000
    138      27.3040      0.00000
    139      27.6718      0.00000
    140      27.7662      0.00000
    141      28.1208      0.00000

 k-point    45 :      -0.4286    0.2500    0.2857
  band No.  band energies     occupation 
      1     -25.4529      2.00000
      2     -25.4497      2.00000
      3     -25.4388      2.00000
      4     -25.4384      2.00000
      5     -25.4090      2.00000
      6     -25.4087      2.00000
      7     -25.3865      2.00000
      8     -25.3861      2.00000
      9     -25.3811      2.00000
     10     -25.3806      2.00000
     11     -12.4256      2.00000
     12     -11.8602      2.00000
     13     -11.3866      2.00000
     14     -11.2586      2.00000
     15     -11.1004      2.00000
     16     -10.8860      2.00000
     17      -6.1507      2.00000
     18      -5.3758      2.00000
     19      -2.5425      2.00000
     20      -2.2585      2.00000
     21      -2.1164      2.00000
     22      -1.9470      2.00000
     23      -1.6781      2.00000
     24      -1.3345      2.00000
     25      -1.1468      2.00000
     26      -1.0280      2.00000
     27      -0.9485      2.00000
     28      -0.6712      2.00000
     29      -0.6429      2.00000
     30      -0.5931      2.00000
     31      -0.5156      2.00000
     32      -0.4623      2.00000
     33      -0.4382      2.00000
     34      -0.4125      2.00000
     35       0.4991      2.00000
     36       0.5273      2.00000
     37       0.6069      2.00000
     38       0.6215      2.00000
     39       0.6467      2.00000
     40       0.6684      2.00000
     41       0.6779      2.00000
     42       0.7504      2.00000
     43       0.8313      2.00000
     44       0.9051      2.00000
     45       1.1656      2.00000
     46       1.3462      2.00000
     47       1.5403      2.00000
     48       1.6066      2.00000
     49       1.6649      2.00000
     50       1.6861      2.00000
     51       2.1632      2.00000
     52       2.3879      2.00000
     53       2.6455      2.00000
     54       2.7601      2.00000
     55       5.2099      0.00000
     56       5.3578      0.00000
     57       6.2747      0.00000
     58       6.5978      0.00000
     59       7.3298      0.00000
     60       7.6611      0.00000
     61       7.8425      0.00000
     62       8.1232      0.00000
     63       8.8779      0.00000
     64       8.9246      0.00000
     65       9.8965      0.00000
     66      10.1961      0.00000
     67      10.3204      0.00000
     68      10.5088      0.00000
     69      10.6348      0.00000
     70      10.9587      0.00000
     71      11.0654      0.00000
     72      11.7224      0.00000
     73      11.9695      0.00000
     74      12.2036      0.00000
     75      12.3661      0.00000
     76      12.5224      0.00000
     77      12.7707      0.00000
     78      13.0521      0.00000
     79      13.2848      0.00000
     80      13.4107      0.00000
     81      13.7632      0.00000
     82      13.9858      0.00000
     83      14.3368      0.00000
     84      14.7016      0.00000
     85      15.2798      0.00000
     86      15.4480      0.00000
     87      15.6986      0.00000
     88      16.0462      0.00000
     89      16.5276      0.00000
     90      16.7706      0.00000
     91      16.8928      0.00000
     92      17.1844      0.00000
     93      17.6039      0.00000
     94      18.1892      0.00000
     95      18.4057      0.00000
     96      18.8144      0.00000
     97      18.9259      0.00000
     98      19.1367      0.00000
     99      19.4405      0.00000
    100      19.6710      0.00000
    101      19.9609      0.00000
    102      20.0607      0.00000
    103      20.1893      0.00000
    104      20.3121      0.00000
    105      20.5988      0.00000
    106      20.7751      0.00000
    107      20.9090      0.00000
    108      21.0721      0.00000
    109      21.2095      0.00000
    110      21.4630      0.00000
    111      21.5210      0.00000
    112      21.6074      0.00000
    113      21.9475      0.00000
    114      22.0258      0.00000
    115      22.3383      0.00000
    116      22.4286      0.00000
    117      22.7166      0.00000
    118      22.8616      0.00000
    119      22.9153      0.00000
    120      23.1085      0.00000
    121      23.2842      0.00000
    122      23.4866      0.00000
    123      23.7451      0.00000
    124      24.0690      0.00000
    125      24.2212      0.00000
    126      24.4389      0.00000
    127      24.6598      0.00000
    128      24.8748      0.00000
    129      25.0043      0.00000
    130      25.7752      0.00000
    131      25.8141      0.00000
    132      26.1928      0.00000
    133      26.5534      0.00000
    134      26.7617      0.00000
    135      26.8845      0.00000
    136      27.2393      0.00000
    137      27.5673      0.00000
    138      27.7689      0.00000
    139      27.9742      0.00000
    140      28.1907      0.00000
    141      28.3456      0.00000

 k-point    46 :      -0.2857    0.2500    0.2857
  band No.  band energies     occupation 
      1     -25.4529      2.00000
      2     -25.4498      2.00000
      3     -25.4388      2.00000
      4     -25.4384      2.00000
      5     -25.4090      2.00000
      6     -25.4088      2.00000
      7     -25.3865      2.00000
      8     -25.3861      2.00000
      9     -25.3811      2.00000
     10     -25.3806      2.00000
     11     -12.4817      2.00000
     12     -11.8208      2.00000
     13     -11.2955      2.00000
     14     -11.2498      2.00000
     15     -11.1064      2.00000
     16     -10.9438      2.00000
     17      -6.1641      2.00000
     18      -5.4401      2.00000
     19      -2.6152      2.00000
     20      -2.4650      2.00000
     21      -2.2000      2.00000
     22      -1.6901      2.00000
     23      -1.6106      2.00000
     24      -1.2674      2.00000
     25      -1.0644      2.00000
     26      -1.0355      2.00000
     27      -0.8855      2.00000
     28      -0.6493      2.00000
     29      -0.6243      2.00000
     30      -0.6029      2.00000
     31      -0.5552      2.00000
     32      -0.5312      2.00000
     33      -0.4356      2.00000
     34      -0.4203      2.00000
     35       0.4323      2.00000
     36       0.5604      2.00000
     37       0.6084      2.00000
     38       0.6167      2.00000
     39       0.6361      2.00000
     40       0.6538      2.00000
     41       0.6644      2.00000
     42       0.7530      2.00000
     43       0.8709      2.00000
     44       0.8830      2.00000
     45       1.2378      2.00000
     46       1.3399      2.00000
     47       1.4536      2.00000
     48       1.6110      2.00000
     49       1.7194      2.00000
     50       1.9337      2.00000
     51       2.1022      2.00000
     52       2.5280      2.00000
     53       2.6205      2.00000
     54       2.7939      2.00000
     55       5.1755      0.00000
     56       5.2669      0.00000
     57       6.2373      0.00000
     58       6.5129      0.00000
     59       7.2076      0.00000
     60       7.4870      0.00000
     61       7.8523      0.00000
     62       8.1845      0.00000
     63       8.5457      0.00000
     64       8.6661      0.00000
     65       9.6893      0.00000
     66      10.1048      0.00000
     67      10.3369      0.00000
     68      10.4150      0.00000
     69      10.5552      0.00000
     70      11.0507      0.00000
     71      11.3407      0.00000
     72      11.7712      0.00000
     73      12.0584      0.00000
     74      12.1271      0.00000
     75      12.5543      0.00000
     76      12.7201      0.00000
     77      12.9546      0.00000
     78      13.1793      0.00000
     79      13.3050      0.00000
     80      13.9506      0.00000
     81      14.1251      0.00000
     82      14.2760      0.00000
     83      14.5663      0.00000
     84      14.6495      0.00000
     85      15.1914      0.00000
     86      15.3063      0.00000
     87      15.8957      0.00000
     88      15.9629      0.00000
     89      16.5389      0.00000
     90      16.7140      0.00000
     91      17.0402      0.00000
     92      17.2415      0.00000
     93      17.3671      0.00000
     94      17.6610      0.00000
     95      17.8749      0.00000
     96      18.6171      0.00000
     97      18.7536      0.00000
     98      19.0565      0.00000
     99      19.2087      0.00000
    100      19.6652      0.00000
    101      19.8910      0.00000
    102      20.0338      0.00000
    103      20.3075      0.00000
    104      20.6251      0.00000
    105      20.7397      0.00000
    106      20.8185      0.00000
    107      21.0106      0.00000
    108      21.0874      0.00000
    109      21.1928      0.00000
    110      21.2579      0.00000
    111      21.4536      0.00000
    112      21.5569      0.00000
    113      21.7107      0.00000
    114      21.8206      0.00000
    115      22.0652      0.00000
    116      22.4180      0.00000
    117      22.6184      0.00000
    118      22.7057      0.00000
    119      22.8772      0.00000
    120      22.9989      0.00000
    121      23.2684      0.00000
    122      23.5908      0.00000
    123      23.7337      0.00000
    124      24.0384      0.00000
    125      24.2457      0.00000
    126      24.3856      0.00000
    127      24.4888      0.00000
    128      25.1498      0.00000
    129      25.4562      0.00000
    130      25.8037      0.00000
    131      25.9454      0.00000
    132      26.2709      0.00000
    133      26.9260      0.00000
    134      27.1499      0.00000
    135      27.3817      0.00000
    136      27.4629      0.00000
    137      27.6160      0.00000
    138      27.7573      0.00000
    139      28.0344      0.00000
    140      28.4800      0.00000
    141      28.5331      0.00000

 k-point    47 :      -0.1429    0.2500    0.2857
  band No.  band energies     occupation 
      1     -25.4529      2.00000
      2     -25.4498      2.00000
      3     -25.4388      2.00000
      4     -25.4384      2.00000
      5     -25.4090      2.00000
      6     -25.4088      2.00000
      7     -25.3865      2.00000
      8     -25.3861      2.00000
      9     -25.3811      2.00000
     10     -25.3806      2.00000
     11     -12.5751      2.00000
     12     -11.8106      2.00000
     13     -11.2872      2.00000
     14     -11.1771      2.00000
     15     -11.0478      2.00000
     16     -10.9234      2.00000
     17      -6.1946      2.00000
     18      -5.5727      2.00000
     19      -2.7239      2.00000
     20      -2.5927      2.00000
     21      -2.2661      2.00000
     22      -1.5090      2.00000
     23      -1.3764      2.00000
     24      -1.2534      2.00000
     25      -1.1505      2.00000
     26      -1.0099      2.00000
     27      -0.8206      2.00000
     28      -0.7608      2.00000
     29      -0.6644      2.00000
     30      -0.6164      2.00000
     31      -0.5967      2.00000
     32      -0.5531      2.00000
     33      -0.4476      2.00000
     34      -0.4057      2.00000
     35       0.4403      2.00000
     36       0.5437      2.00000
     37       0.5936      2.00000
     38       0.6046      2.00000
     39       0.6055      2.00000
     40       0.6358      2.00000
     41       0.6694      2.00000
     42       0.7078      2.00000
     43       0.9190      2.00000
     44       1.0060      2.00000
     45       1.1320      2.00000
     46       1.3260      2.00000
     47       1.5977      2.00000
     48       1.7154      2.00000
     49       1.8234      2.00000
     50       1.9419      2.00000
     51       2.1921      2.00000
     52       2.4434      2.00000
     53       2.6224      2.00000
     54       2.8843      2.00000
     55       5.1305      0.00000
     56       5.2897      0.00000
     57       6.4869      0.00000
     58       6.6211      0.00000
     59       7.0514      0.00000
     60       7.3034      0.00000
     61       8.1517      0.00000
     62       8.3588      0.00000
     63       8.5785      0.00000
     64       8.7728      0.00000
     65       9.2189      0.00000
     66       9.7554      0.00000
     67      10.0882      0.00000
     68      10.2045      0.00000
     69      10.4243      0.00000
     70      10.8475      0.00000
     71      11.3685      0.00000
     72      11.6409      0.00000
     73      11.8601      0.00000
     74      12.1069      0.00000
     75      12.4060      0.00000
     76      12.5795      0.00000
     77      12.8091      0.00000
     78      13.2297      0.00000
     79      13.7371      0.00000
     80      14.4244      0.00000
     81      14.6276      0.00000
     82      14.8356      0.00000
     83      14.9939      0.00000
     84      15.2179      0.00000
     85      15.3588      0.00000
     86      15.6448      0.00000
     87      16.0295      0.00000
     88      16.2548      0.00000
     89      16.4678      0.00000
     90      16.7424      0.00000
     91      17.1946      0.00000
     92      17.2278      0.00000
     93      17.4827      0.00000
     94      17.7352      0.00000
     95      17.8467      0.00000
     96      18.1214      0.00000
     97      18.2448      0.00000
     98      18.4132      0.00000
     99      18.5883      0.00000
    100      18.7808      0.00000
    101      18.9668      0.00000
    102      19.2590      0.00000
    103      19.5582      0.00000
    104      19.6728      0.00000
    105      19.7475      0.00000
    106      19.9917      0.00000
    107      20.1639      0.00000
    108      20.6132      0.00000
    109      21.1630      0.00000
    110      21.6213      0.00000
    111      21.6747      0.00000
    112      22.0464      0.00000
    113      22.2676      0.00000
    114      22.5125      0.00000
    115      22.7130      0.00000
    116      22.7668      0.00000
    117      22.9996      0.00000
    118      23.4396      0.00000
    119      23.5884      0.00000
    120      23.6774      0.00000
    121      24.1777      0.00000
    122      24.3133      0.00000
    123      24.5433      0.00000
    124      24.7852      0.00000
    125      24.8448      0.00000
    126      25.1744      0.00000
    127      25.2574      0.00000
    128      25.5182      0.00000
    129      25.7323      0.00000
    130      25.9793      0.00000
    131      26.1535      0.00000
    132      26.3804      0.00000
    133      26.6042      0.00000
    134      26.7697      0.00000
    135      27.1261      0.00000
    136      27.3044      0.00000
    137      27.5048      0.00000
    138      27.7524      0.00000
    139      27.8931      0.00000
    140      28.0401      0.00000
    141      28.1635      0.00000

 k-point    48 :       0.0000    0.5000    0.2857
  band No.  band energies     occupation 
      1     -25.4528      2.00000
      2     -25.4496      2.00000
      3     -25.4387      2.00000
      4     -25.4382      2.00000
      5     -25.4089      2.00000
      6     -25.4086      2.00000
      7     -25.3864      2.00000
      8     -25.3859      2.00000
      9     -25.3810      2.00000
     10     -25.3805      2.00000
     11     -12.4665      2.00000
     12     -11.8793      2.00000
     13     -11.3875      2.00000
     14     -11.1859      2.00000
     15     -11.0546      2.00000
     16     -10.9022      2.00000
     17      -6.1686      2.00000
     18      -5.4869      2.00000
     19      -2.7094      2.00000
     20      -2.2606      2.00000
     21      -2.1539      2.00000
     22      -1.7998      2.00000
     23      -1.5915      2.00000
     24      -1.2833      2.00000
     25      -1.1505      2.00000
     26      -1.0185      2.00000
     27      -0.8589      2.00000
     28      -0.7230      2.00000
     29      -0.6995      2.00000
     30      -0.5620      2.00000
     31      -0.5311      2.00000
     32      -0.5074      2.00000
     33      -0.4547      2.00000
     34      -0.3912      2.00000
     35       0.4451      2.00000
     36       0.5099      2.00000
     37       0.5707      2.00000
     38       0.6016      2.00000
     39       0.6234      2.00000
     40       0.6525      2.00000
     41       0.6765      2.00000
     42       0.7596      2.00000
     43       0.9544      2.00000
     44       1.0737      2.00000
     45       1.2602      2.00000
     46       1.3161      2.00000
     47       1.4078      2.00000
     48       1.5614      2.00000
     49       1.6980      2.00000
     50       1.8161      2.00000
     51       2.1697      2.00000
     52       2.2860      2.00000
     53       2.6751      2.00000
     54       3.0244      2.00000
     55       5.0525      0.00000
     56       5.4137      0.00000
     57       6.2534      0.00000
     58       6.8675      0.00000
     59       7.3114      0.00000
     60       7.6150      0.00000
     61       7.9445      0.00000
     62       8.2724      0.00000
     63       8.7741      0.00000
     64       9.0443      0.00000
     65       9.4702      0.00000
     66       9.7401      0.00000
     67       9.9125      0.00000
     68      10.1832      0.00000
     69      10.2934      0.00000
     70      10.6434      0.00000
     71      10.8313      0.00000
     72      11.0134      0.00000
     73      11.8287      0.00000
     74      12.2644      0.00000
     75      12.5446      0.00000
     76      12.8251      0.00000
     77      13.0640      0.00000
     78      13.4150      0.00000
     79      13.6920      0.00000
     80      13.9835      0.00000
     81      14.0864      0.00000
     82      14.5477      0.00000
     83      15.0101      0.00000
     84      15.0708      0.00000
     85      15.4221      0.00000
     86      15.9850      0.00000
     87      16.1681      0.00000
     88      16.3654      0.00000
     89      16.7230      0.00000
     90      16.9202      0.00000
     91      17.0876      0.00000
     92      17.3582      0.00000
     93      17.4742      0.00000
     94      17.8108      0.00000
     95      18.0111      0.00000
     96      18.0605      0.00000
     97      18.4515      0.00000
     98      18.6291      0.00000
     99      18.8542      0.00000
    100      18.9648      0.00000
    101      19.0716      0.00000
    102      19.4004      0.00000
    103      19.6981      0.00000
    104      19.8080      0.00000
    105      20.0057      0.00000
    106      20.5010      0.00000
    107      20.6406      0.00000
    108      20.8296      0.00000
    109      21.3951      0.00000
    110      21.4687      0.00000
    111      21.7117      0.00000
    112      22.0037      0.00000
    113      22.2004      0.00000
    114      22.3138      0.00000
    115      22.4026      0.00000
    116      22.5311      0.00000
    117      22.8177      0.00000
    118      23.1004      0.00000
    119      23.3485      0.00000
    120      23.4698      0.00000
    121      23.9150      0.00000
    122      24.2122      0.00000
    123      24.4326      0.00000
    124      24.5821      0.00000
    125      24.6393      0.00000
    126      25.0708      0.00000
    127      25.3467      0.00000
    128      25.4577      0.00000
    129      25.5910      0.00000
    130      25.8257      0.00000
    131      25.9648      0.00000
    132      26.2787      0.00000
    133      26.3997      0.00000
    134      26.6436      0.00000
    135      26.8338      0.00000
    136      26.9708      0.00000
    137      27.3021      0.00000
    138      27.4058      0.00000
    139      27.6658      0.00000
    140      27.8395      0.00000
    141      27.9150      0.00000

 k-point    49 :       0.1429    0.5000    0.2857
  band No.  band energies     occupation 
      1     -25.4527      2.00000
      2     -25.4496      2.00000
      3     -25.4386      2.00000
      4     -25.4382      2.00000
      5     -25.4089      2.00000
      6     -25.4087      2.00000
      7     -25.3864      2.00000
      8     -25.3859      2.00000
      9     -25.3810      2.00000
     10     -25.3805      2.00000
     11     -12.4867      2.00000
     12     -11.8756      2.00000
     13     -11.3800      2.00000
     14     -11.1850      2.00000
     15     -11.0401      2.00000
     16     -10.8897      2.00000
     17      -6.1731      2.00000
     18      -5.5382      2.00000
     19      -2.7270      2.00000
     20      -2.3286      2.00000
     21      -2.1368      2.00000
     22      -1.8865      2.00000
     23      -1.5250      2.00000
     24      -1.4159      2.00000
     25      -1.1551      2.00000
     26      -1.0174      2.00000
     27      -0.7556      2.00000
     28      -0.6846      2.00000
     29      -0.6513      2.00000
     30      -0.5760      2.00000
     31      -0.5461      2.00000
     32      -0.5027      2.00000
     33      -0.4091      2.00000
     34      -0.3766      2.00000
     35       0.4251      2.00000
     36       0.5273      2.00000
     37       0.5904      2.00000
     38       0.6113      2.00000
     39       0.6192      2.00000
     40       0.6579      2.00000
     41       0.6983      2.00000
     42       0.7219      2.00000
     43       0.9132      2.00000
     44       1.1311      2.00000
     45       1.1665      2.00000
     46       1.3403      2.00000
     47       1.4423      2.00000
     48       1.5954      2.00000
     49       1.7025      2.00000
     50       1.8488      2.00000
     51       2.2469      2.00000
     52       2.5335      2.00000
     53       2.9125      2.00000
     54       3.0511      2.00000
     55       4.7370      0.00000
     56       5.2399      0.00000
     57       6.3152      0.00000
     58       6.6324      0.00000
     59       6.9979      0.00000
     60       7.4951      0.00000
     61       7.7605      0.00000
     62       8.0805      0.00000
     63       8.5543      0.00000
     64       9.0954      0.00000
     65       9.4366      0.00000
     66       9.6658      0.00000
     67      10.0868      0.00000
     68      10.3292      0.00000
     69      10.5540      0.00000
     70      10.7027      0.00000
     71      11.0378      0.00000
     72      11.4705      0.00000
     73      11.8468      0.00000
     74      12.2928      0.00000
     75      12.5283      0.00000
     76      12.8052      0.00000
     77      13.2136      0.00000
     78      13.7336      0.00000
     79      14.0163      0.00000
     80      14.0727      0.00000
     81      14.4267      0.00000
     82      14.5332      0.00000
     83      14.8454      0.00000
     84      14.9570      0.00000
     85      15.2490      0.00000
     86      15.4503      0.00000
     87      15.6273      0.00000
     88      16.3174      0.00000
     89      16.6481      0.00000
     90      16.8207      0.00000
     91      17.0350      0.00000
     92      17.1947      0.00000
     93      17.4616      0.00000
     94      17.6134      0.00000
     95      17.8122      0.00000
     96      18.1786      0.00000
     97      18.4026      0.00000
     98      18.7984      0.00000
     99      18.9979      0.00000
    100      19.1766      0.00000
    101      19.3045      0.00000
    102      19.5076      0.00000
    103      19.9460      0.00000
    104      20.0009      0.00000
    105      20.1947      0.00000
    106      20.5730      0.00000
    107      20.7059      0.00000
    108      20.9998      0.00000
    109      21.2717      0.00000
    110      21.3980      0.00000
    111      21.7150      0.00000
    112      21.9443      0.00000
    113      22.0910      0.00000
    114      22.3709      0.00000
    115      22.7214      0.00000
    116      23.0056      0.00000
    117      23.1105      0.00000
    118      23.2426      0.00000
    119      23.4905      0.00000
    120      23.6846      0.00000
    121      23.8662      0.00000
    122      23.9995      0.00000
    123      24.2247      0.00000
    124      24.3929      0.00000
    125      24.6088      0.00000
    126      24.6944      0.00000
    127      24.7716      0.00000
    128      24.9420      0.00000
    129      25.1232      0.00000
    130      25.3717      0.00000
    131      25.6799      0.00000
    132      25.7974      0.00000
    133      25.9325      0.00000
    134      26.1317      0.00000
    135      26.2519      0.00000
    136      26.5150      0.00000
    137      26.8830      0.00000
    138      27.0104      0.00000
    139      27.4448      0.00000
    140      27.7171      0.00000
    141      28.1388      0.00000

 k-point    50 :       0.2857    0.5000    0.2857
  band No.  band energies     occupation 
      1     -25.4527      2.00000
      2     -25.4496      2.00000
      3     -25.4386      2.00000
      4     -25.4382      2.00000
      5     -25.4090      2.00000
      6     -25.4087      2.00000
      7     -25.3864      2.00000
      8     -25.3860      2.00000
      9     -25.3811      2.00000
     10     -25.3805      2.00000
     11     -12.4823      2.00000
     12     -11.8910      2.00000
     13     -11.4236      2.00000
     14     -11.1407      2.00000
     15     -11.0020      2.00000
     16     -10.9104      2.00000
     17      -6.1694      2.00000
     18      -5.5568      2.00000
     19      -2.6858      2.00000
     20      -2.3431      2.00000
     21      -2.1416      2.00000
     22      -1.8805      2.00000
     23      -1.5851      2.00000
     24      -1.4617      2.00000
     25      -1.1162      2.00000
     26      -0.9990      2.00000
     27      -0.7925      2.00000
     28      -0.7587      2.00000
     29      -0.6009      2.00000
     30      -0.5748      2.00000
     31      -0.5405      2.00000
     32      -0.4650      2.00000
     33      -0.4094      2.00000
     34      -0.3352      2.00000
     35       0.4108      2.00000
     36       0.5674      2.00000
     37       0.5874      2.00000
     38       0.6102      2.00000
     39       0.6291      2.00000
     40       0.6646      2.00000
     41       0.6823      2.00000
     42       0.7539      2.00000
     43       0.8483      2.00000
     44       1.0151      2.00000
     45       1.2464      2.00000
     46       1.3508      2.00000
     47       1.4304      2.00000
     48       1.6001      2.00000
     49       1.6849      2.00000
     50       1.8881      2.00000
     51       2.2863      2.00000
     52       2.6098      2.00000
     53       2.9111      2.00000
     54       3.0371      2.00000
     55       4.6409      0.00000
     56       5.2427      0.00000
     57       6.2560      0.00000
     58       6.8046      0.00000
     59       6.8658      0.00000
     60       7.3756      0.00000
     61       7.7702      0.00000
     62       8.0306      0.00000
     63       8.5707      0.00000
     64       9.2318      0.00000
     65       9.3043      0.00000
     66       9.6331      0.00000
     67      10.0777      0.00000
     68      10.2323      0.00000
     69      10.5385      0.00000
     70      10.9246      0.00000
     71      11.3878      0.00000
     72      11.5815      0.00000
     73      12.0232      0.00000
     74      12.2805      0.00000
     75      12.4580      0.00000
     76      12.8703      0.00000
     77      13.3338      0.00000
     78      13.6080      0.00000
     79      13.8923      0.00000
     80      14.0837      0.00000
     81      14.4289      0.00000
     82      14.6343      0.00000
     83      14.7762      0.00000
     84      14.8238      0.00000
     85      14.9482      0.00000
     86      15.3383      0.00000
     87      15.5477      0.00000
     88      16.0336      0.00000
     89      16.3496      0.00000
     90      16.7241      0.00000
     91      17.0009      0.00000
     92      17.1281      0.00000
     93      17.3571      0.00000
     94      17.6388      0.00000
     95      17.9313      0.00000
     96      18.2709      0.00000
     97      18.7048      0.00000
     98      18.8572      0.00000
     99      19.1444      0.00000
    100      19.3338      0.00000
    101      19.5051      0.00000
    102      19.6986      0.00000
    103      20.1177      0.00000
    104      20.2166      0.00000
    105      20.4502      0.00000
    106      20.7896      0.00000
    107      21.0066      0.00000
    108      21.0538      0.00000
    109      21.1786      0.00000
    110      21.3844      0.00000
    111      21.7663      0.00000
    112      21.9002      0.00000
    113      22.0952      0.00000
    114      22.3414      0.00000
    115      22.6010      0.00000
    116      22.7942      0.00000
    117      22.9365      0.00000
    118      23.0764      0.00000
    119      23.3660      0.00000
    120      23.5302      0.00000
    121      23.6453      0.00000
    122      23.9341      0.00000
    123      24.0312      0.00000
    124      24.1294      0.00000
    125      24.3040      0.00000
    126      24.4960      0.00000
    127      24.5473      0.00000
    128      24.7441      0.00000
    129      24.8706      0.00000
    130      25.1849      0.00000
    131      25.3641      0.00000
    132      25.6830      0.00000
    133      25.9887      0.00000
    134      26.3798      0.00000
    135      26.5028      0.00000
    136      26.7834      0.00000
    137      26.9609      0.00000
    138      27.1614      0.00000
    139      27.4664      0.00000
    140      27.5945      0.00000
    141      27.9453      0.00000

 k-point    51 :       0.4286    0.5000    0.2857
  band No.  band energies     occupation 
      1     -25.4528      2.00000
      2     -25.4497      2.00000
      3     -25.4387      2.00000
      4     -25.4383      2.00000
      5     -25.4091      2.00000
      6     -25.4088      2.00000
      7     -25.3865      2.00000
      8     -25.3861      2.00000
      9     -25.3811      2.00000
     10     -25.3806      2.00000
     11     -12.4578      2.00000
     12     -11.9051      2.00000
     13     -11.4622      2.00000
     14     -11.1498      2.00000
     15     -11.0039      2.00000
     16     -10.8798      2.00000
     17      -6.1655      2.00000
     18      -5.5314      2.00000
     19      -2.6682      2.00000
     20      -2.3337      2.00000
     21      -2.0468      2.00000
     22      -1.8801      2.00000
     23      -1.5131      2.00000
     24      -1.3690      2.00000
     25      -1.1109      2.00000
     26      -1.0459      2.00000
     27      -0.9521      2.00000
     28      -0.8230      2.00000
     29      -0.6126      2.00000
     30      -0.5711      2.00000
     31      -0.5106      2.00000
     32      -0.4563      2.00000
     33      -0.4389      2.00000
     34      -0.3208      2.00000
     35       0.4349      2.00000
     36       0.5323      2.00000
     37       0.5689      2.00000
     38       0.5947      2.00000
     39       0.6483      2.00000
     40       0.6602      2.00000
     41       0.6851      2.00000
     42       0.6977      2.00000
     43       0.8731      2.00000
     44       1.0230      2.00000
     45       1.2711      2.00000
     46       1.3426      2.00000
     47       1.4455      2.00000
     48       1.5000      2.00000
     49       1.7647      2.00000
     50       1.9653      2.00000
     51       2.0620      2.00000
     52       2.5275      2.00000
     53       2.6309      2.00000
     54       2.7979      2.00000
     55       4.9597      0.00000
     56       5.5233      0.00000
     57       6.3377      0.00000
     58       7.0757      0.00000
     59       7.1156      0.00000
     60       7.3341      0.00000
     61       7.9955      0.00000
     62       8.1632      0.00000
     63       8.9160      0.00000
     64       9.1157      0.00000
     65       9.4511      0.00000
     66       9.5674      0.00000
     67       9.8636      0.00000
     68      10.1958      0.00000
     69      10.4692      0.00000
     70      10.5746      0.00000
     71      11.0116      0.00000
     72      11.2006      0.00000
     73      11.5201      0.00000
     74      12.5027      0.00000
     75      12.6807      0.00000
     76      12.9202      0.00000
     77      13.0964      0.00000
     78      13.5721      0.00000
     79      13.8806      0.00000
     80      13.9851      0.00000
     81      14.1726      0.00000
     82      14.4909      0.00000
     83      15.1408      0.00000
     84      15.2716      0.00000
     85      15.3213      0.00000
     86      15.5392      0.00000
     87      15.6644      0.00000
     88      15.9398      0.00000
     89      16.3126      0.00000
     90      16.4939      0.00000
     91      16.9642      0.00000
     92      17.1003      0.00000
     93      17.7285      0.00000
     94      17.8172      0.00000
     95      18.0123      0.00000
     96      18.4505      0.00000
     97      18.7021      0.00000
     98      18.8287      0.00000
     99      18.9498      0.00000
    100      19.1411      0.00000
    101      19.4927      0.00000
    102      19.6382      0.00000
    103      19.9912      0.00000
    104      20.2805      0.00000
    105      20.3600      0.00000
    106      20.4585      0.00000
    107      20.6950      0.00000
    108      20.9415      0.00000
    109      21.2122      0.00000
    110      21.2640      0.00000
    111      21.4844      0.00000
    112      21.6348      0.00000
    113      21.9461      0.00000
    114      22.1301      0.00000
    115      22.2773      0.00000
    116      22.4682      0.00000
    117      22.6638      0.00000
    118      22.9887      0.00000
    119      23.0912      0.00000
    120      23.4529      0.00000
    121      23.5831      0.00000
    122      23.8508      0.00000
    123      24.1647      0.00000
    124      24.3688      0.00000
    125      24.7618      0.00000
    126      25.0711      0.00000
    127      25.3160      0.00000
    128      25.5934      0.00000
    129      25.8203      0.00000
    130      25.9637      0.00000
    131      26.1347      0.00000
    132      26.3341      0.00000
    133      26.4633      0.00000
    134      26.6220      0.00000
    135      26.8271      0.00000
    136      26.9028      0.00000
    137      27.0437      0.00000
    138      27.1881      0.00000
    139      27.4071      0.00000
    140      27.5082      0.00000
    141      28.0105      0.00000

 k-point    52 :      -0.4286    0.5000    0.2857
  band No.  band energies     occupation 
      1     -25.4528      2.00000
      2     -25.4497      2.00000
      3     -25.4387      2.00000
      4     -25.4383      2.00000
      5     -25.4091      2.00000
      6     -25.4088      2.00000
      7     -25.3866      2.00000
      8     -25.3861      2.00000
      9     -25.3811      2.00000
     10     -25.3806      2.00000
     11     -12.4376      2.00000
     12     -11.8918      2.00000
     13     -11.4659      2.00000
     14     -11.2100      2.00000
     15     -11.0360      2.00000
     16     -10.8383      2.00000
     17      -6.1607      2.00000
     18      -5.4558      2.00000
     19      -2.6149      2.00000
     20      -2.3545      2.00000
     21      -1.9991      2.00000
     22      -1.8329      2.00000
     23      -1.4537      2.00000
     24      -1.3715      2.00000
     25      -1.1810      2.00000
     26      -1.1043      2.00000
     27      -1.0449      2.00000
     28      -0.7760      2.00000
     29      -0.6324      2.00000
     30      -0.5974      2.00000
     31      -0.4957      2.00000
     32      -0.4549      2.00000
     33      -0.4417      2.00000
     34      -0.3538      2.00000
     35       0.4951      2.00000
     36       0.5234      2.00000
     37       0.5562      2.00000
     38       0.5818      2.00000
     39       0.6438      2.00000
     40       0.6626      2.00000
     41       0.6644      2.00000
     42       0.7103      2.00000
     43       0.9347      2.00000
     44       0.9858      2.00000
     45       1.1380      2.00000
     46       1.3415      2.00000
     47       1.4627      2.00000
     48       1.5116      2.00000
     49       1.6891      2.00000
     50       2.0518      2.00000
     51       2.1774      2.00000
     52       2.3506      2.00000
     53       2.4790      2.00000
     54       2.5200      2.00000
     55       5.2123      0.00000
     56       5.6201      0.00000
     57       6.6992      0.00000
     58       6.8141      0.00000
     59       7.1213      0.00000
     60       7.6265      0.00000
     61       8.1809      0.00000
     62       8.2415      0.00000
     63       9.1300      0.00000
     64       9.2188      0.00000
     65       9.3267      0.00000
     66       9.7593      0.00000
     67       9.9991      0.00000
     68      10.1007      0.00000
     69      10.5262      0.00000
     70      10.6394      0.00000
     71      11.0354      0.00000
     72      11.1844      0.00000
     73      11.5815      0.00000
     74      11.9800      0.00000
     75      12.3974      0.00000
     76      12.7752      0.00000
     77      12.9508      0.00000
     78      13.2312      0.00000
     79      13.5507      0.00000
     80      13.8086      0.00000
     81      14.0392      0.00000
     82      14.2601      0.00000
     83      14.8682      0.00000
     84      14.9922      0.00000
     85      15.3359      0.00000
     86      15.6409      0.00000
     87      16.1189      0.00000
     88      16.2536      0.00000
     89      16.5486      0.00000
     90      17.0213      0.00000
     91      17.1079      0.00000
     92      17.3612      0.00000
     93      17.4610      0.00000
     94      18.0300      0.00000
     95      18.1800      0.00000
     96      18.3649      0.00000
     97      18.6089      0.00000
     98      18.8884      0.00000
     99      18.9850      0.00000
    100      19.2200      0.00000
    101      19.3270      0.00000
    102      19.6309      0.00000
    103      19.7095      0.00000
    104      19.8136      0.00000
    105      20.0187      0.00000
    106      20.3046      0.00000
    107      20.5709      0.00000
    108      20.8719      0.00000
    109      21.2191      0.00000
    110      21.4710      0.00000
    111      21.6018      0.00000
    112      21.9571      0.00000
    113      22.0714      0.00000
    114      22.1424      0.00000
    115      22.4204      0.00000
    116      22.5621      0.00000
    117      22.7843      0.00000
    118      22.9092      0.00000
    119      23.3506      0.00000
    120      23.5378      0.00000
    121      23.5878      0.00000
    122      24.0206      0.00000
    123      24.1000      0.00000
    124      24.4554      0.00000
    125      24.7098      0.00000
    126      24.9894      0.00000
    127      25.4533      0.00000
    128      25.6619      0.00000
    129      25.8871      0.00000
    130      26.2042      0.00000
    131      26.3266      0.00000
    132      26.5284      0.00000
    133      26.7482      0.00000
    134      26.8483      0.00000
    135      26.9761      0.00000
    136      27.0489      0.00000
    137      27.2285      0.00000
    138      27.4750      0.00000
    139      27.5924      0.00000
    140      27.7267      0.00000
    141      27.7920      0.00000

 k-point    53 :      -0.2857    0.5000    0.2857
  band No.  band energies     occupation 
      1     -25.4528      2.00000
      2     -25.4497      2.00000
      3     -25.4387      2.00000
      4     -25.4383      2.00000
      5     -25.4090      2.00000
      6     -25.4088      2.00000
      7     -25.3865      2.00000
      8     -25.3861      2.00000
      9     -25.3811      2.00000
     10     -25.3806      2.00000
     11     -12.4327      2.00000
     12     -11.8814      2.00000
     13     -11.4188      2.00000
     14     -11.2508      2.00000
     15     -11.0688      2.00000
     16     -10.8450      2.00000
     17      -6.1551      2.00000
     18      -5.3946      2.00000
     19      -2.5373      2.00000
     20      -2.3219      2.00000
     21      -2.0846      2.00000
     22      -1.8687      2.00000
     23      -1.5737      2.00000
     24      -1.3692      2.00000
     25      -1.2083      2.00000
     26      -1.0981      2.00000
     27      -0.9708      2.00000
     28      -0.7092      2.00000
     29      -0.6506      2.00000
     30      -0.6065      2.00000
     31      -0.5165      2.00000
     32      -0.4672      2.00000
     33      -0.4279      2.00000
     34      -0.3928      2.00000
     35       0.5105      2.00000
     36       0.5263      2.00000
     37       0.5903      2.00000
     38       0.6128      2.00000
     39       0.6414      2.00000
     40       0.6632      2.00000
     41       0.6788      2.00000
     42       0.7255      2.00000
     43       0.8996      2.00000
     44       0.9621      2.00000
     45       1.0902      2.00000
     46       1.3046      2.00000
     47       1.4811      2.00000
     48       1.5875      2.00000
     49       1.6613      2.00000
     50       1.8607      2.00000
     51       2.1798      2.00000
     52       2.3185      2.00000
     53       2.5461      2.00000
     54       2.6847      2.00000
     55       5.2561      0.00000
     56       5.4889      0.00000
     57       6.4850      0.00000
     58       6.7721      0.00000
     59       7.2571      0.00000
     60       7.8301      0.00000
     61       7.9207      0.00000
     62       8.1934      0.00000
     63       9.0388      0.00000
     64       9.1471      0.00000
     65       9.6006      0.00000
     66      10.1481      0.00000
     67      10.2295      0.00000
     68      10.4327      0.00000
     69      10.6755      0.00000
     70      10.8930      0.00000
     71      11.0341      0.00000
     72      11.3408      0.00000
     73      11.7091      0.00000
     74      12.0751      0.00000
     75      12.2994      0.00000
     76      12.4153      0.00000
     77      12.5726      0.00000
     78      12.8234      0.00000
     79      13.1884      0.00000
     80      13.5862      0.00000
     81      14.0187      0.00000
     82      14.2056      0.00000
     83      14.4764      0.00000
     84      14.6564      0.00000
     85      15.2481      0.00000
     86      15.5321      0.00000
     87      15.8894      0.00000
     88      16.4624      0.00000
     89      16.7292      0.00000
     90      16.9838      0.00000
     91      17.1812      0.00000
     92      17.3048      0.00000
     93      17.6758      0.00000
     94      17.8350      0.00000
     95      18.2825      0.00000
     96      18.5793      0.00000
     97      18.7390      0.00000
     98      19.0159      0.00000
     99      19.2041      0.00000
    100      19.3756      0.00000
    101      19.5140      0.00000
    102      19.7431      0.00000
    103      19.8356      0.00000
    104      20.0412      0.00000
    105      20.2927      0.00000
    106      20.5485      0.00000
    107      20.6860      0.00000
    108      20.8814      0.00000
    109      21.0716      0.00000
    110      21.4086      0.00000
    111      21.5914      0.00000
    112      21.7983      0.00000
    113      21.9871      0.00000
    114      22.1410      0.00000
    115      22.6053      0.00000
    116      22.9300      0.00000
    117      23.0310      0.00000
    118      23.3050      0.00000
    119      23.4461      0.00000
    120      23.6159      0.00000
    121      23.7121      0.00000
    122      23.8132      0.00000
    123      24.0965      0.00000
    124      24.2547      0.00000
    125      24.5129      0.00000
    126      24.6927      0.00000
    127      25.0057      0.00000
    128      25.2527      0.00000
    129      25.4464      0.00000
    130      25.6261      0.00000
    131      25.7458      0.00000
    132      25.9185      0.00000
    133      26.3260      0.00000
    134      26.5170      0.00000
    135      26.6659      0.00000
    136      26.7574      0.00000
    137      27.1050      0.00000
    138      27.5697      0.00000
    139      27.8011      0.00000
    140      28.1241      0.00000
    141      28.1768      0.00000

 k-point    54 :      -0.1429    0.5000    0.2857
  band No.  band energies     occupation 
      1     -25.4528      2.00000
      2     -25.4497      2.00000
      3     -25.4387      2.00000
      4     -25.4383      2.00000
      5     -25.4089      2.00000
      6     -25.4087      2.00000
      7     -25.3864      2.00000
      8     -25.3860      2.00000
      9     -25.3810      2.00000
     10     -25.3805      2.00000
     11     -12.4426      2.00000
     12     -11.8845      2.00000
     13     -11.4011      2.00000
     14     -11.2063      2.00000
     15     -11.0707      2.00000
     16     -10.8901      2.00000
     17      -6.1584      2.00000
     18      -5.4167      2.00000
     19      -2.6058      2.00000
     20      -2.2430      2.00000
     21      -2.0699      2.00000
     22      -1.9588      2.00000
     23      -1.5856      2.00000
     24      -1.3341      2.00000
     25      -1.1755      2.00000
     26      -1.0021      2.00000
     27      -0.9574      2.00000
     28      -0.7152      2.00000
     29      -0.6758      2.00000
     30      -0.5891      2.00000
     31      -0.5301      2.00000
     32      -0.4770      2.00000
     33      -0.4485      2.00000
     34      -0.4065      2.00000
     35       0.4860      2.00000
     36       0.5186      2.00000
     37       0.5759      2.00000
     38       0.6151      2.00000
     39       0.6391      2.00000
     40       0.6557      2.00000
     41       0.6764      2.00000
     42       0.7682      2.00000
     43       0.8911      2.00000
     44       1.0191      2.00000
     45       1.1713      2.00000
     46       1.3449      2.00000
     47       1.4586      2.00000
     48       1.5591      2.00000
     49       1.6859      2.00000
     50       1.7243      2.00000
     51       2.0903      2.00000
     52       2.3339      2.00000
     53       2.6095      2.00000
     54       2.8826      2.00000
     55       5.2242      0.00000
     56       5.4526      0.00000
     57       6.3412      0.00000
     58       6.6935      0.00000
     59       7.5232      0.00000
     60       7.7396      0.00000
     61       8.0171      0.00000
     62       8.3120      0.00000
     63       8.8564      0.00000
     64       8.9360      0.00000
     65       9.5735      0.00000
     66       9.9791      0.00000
     67      10.0366      0.00000
     68      10.3955      0.00000
     69      10.5454      0.00000
     70      10.7493      0.00000
     71      10.9834      0.00000
     72      11.5525      0.00000
     73      11.7000      0.00000
     74      11.9488      0.00000
     75      12.3606      0.00000
     76      12.4998      0.00000
     77      12.7625      0.00000
     78      13.1457      0.00000
     79      13.3025      0.00000
     80      13.4408      0.00000
     81      13.8993      0.00000
     82      14.3717      0.00000
     83      14.6973      0.00000
     84      15.1023      0.00000
     85      15.4898      0.00000
     86      15.7121      0.00000
     87      15.8913      0.00000
     88      16.2468      0.00000
     89      16.6887      0.00000
     90      16.7990      0.00000
     91      17.1711      0.00000
     92      17.4101      0.00000
     93      17.7038      0.00000
     94      18.0530      0.00000
     95      18.1222      0.00000
     96      18.2963      0.00000
     97      18.5341      0.00000
     98      18.5928      0.00000
     99      19.0219      0.00000
    100      19.4672      0.00000
    101      19.6347      0.00000
    102      19.6699      0.00000
    103      19.8270      0.00000
    104      20.1524      0.00000
    105      20.4718      0.00000
    106      20.5249      0.00000
    107      20.7363      0.00000
    108      20.9009      0.00000
    109      21.2072      0.00000
    110      21.3455      0.00000
    111      21.5017      0.00000
    112      21.5883      0.00000
    113      21.9603      0.00000
    114      22.1622      0.00000
    115      22.5859      0.00000
    116      22.7436      0.00000
    117      22.9593      0.00000
    118      23.0351      0.00000
    119      23.3767      0.00000
    120      23.5776      0.00000
    121      23.7403      0.00000
    122      23.8086      0.00000
    123      23.9814      0.00000
    124      24.4898      0.00000
    125      24.7232      0.00000
    126      24.8163      0.00000
    127      25.1553      0.00000
    128      25.3626      0.00000
    129      25.5289      0.00000
    130      25.9072      0.00000
    131      25.9933      0.00000
    132      26.1564      0.00000
    133      26.3244      0.00000
    134      26.5051      0.00000
    135      26.7708      0.00000
    136      27.0020      0.00000
    137      27.1510      0.00000
    138      27.5247      0.00000
    139      27.7443      0.00000
    140      27.7887      0.00000
    141      27.8305      0.00000

 k-point    55 :       0.0000    0.0000    0.4286
  band No.  band energies     occupation 
      1     -25.4518      2.00000
      2     -25.4507      2.00000
      3     -25.4384      2.00000
      4     -25.4382      2.00000
      5     -25.4089      2.00000
      6     -25.4088      2.00000
      7     -25.3863      2.00000
      8     -25.3861      2.00000
      9     -25.3809      2.00000
     10     -25.3807      2.00000
     11     -12.4784      2.00000
     12     -12.2181      2.00000
     13     -11.1903      2.00000
     14     -11.1635      2.00000
     15     -10.8283      2.00000
     16     -10.8271      2.00000
     17      -6.0118      2.00000
     18      -5.8281      2.00000
     19      -2.4039      2.00000
     20      -2.2695      2.00000
     21      -2.1796      2.00000
     22      -1.8933      2.00000
     23      -1.7397      2.00000
     24      -1.5958      2.00000
     25      -1.3938      2.00000
     26      -1.3593      2.00000
     27      -0.8202      2.00000
     28      -0.7440      2.00000
     29      -0.6283      2.00000
     30      -0.6174      2.00000
     31      -0.5303      2.00000
     32      -0.5130      2.00000
     33      -0.4497      2.00000
     34      -0.4416      2.00000
     35       0.5377      2.00000
     36       0.5598      2.00000
     37       0.5842      2.00000
     38       0.5862      2.00000
     39       0.6526      2.00000
     40       0.6528      2.00000
     41       0.7011      2.00000
     42       0.7438      2.00000
     43       0.8759      2.00000
     44       0.8809      2.00000
     45       0.9739      2.00000
     46       1.0175      2.00000
     47       1.4656      2.00000
     48       1.7218      2.00000
     49       1.9204      2.00000
     50       1.9338      2.00000
     51       2.7166      2.00000
     52       2.7426      2.00000
     53       2.9586      2.00000
     54       2.9610      2.00000
     55       5.0259      0.00000
     56       5.0664      0.00000
     57       6.5309      0.00000
     58       6.5564      0.00000
     59       7.9300      0.00000
     60       7.9979      0.00000
     61       8.5095      0.00000
     62       8.6222      0.00000
     63       9.3351      0.00000
     64       9.3616      0.00000
     65       9.6501      0.00000
     66       9.6598      0.00000
     67       9.9721      0.00000
     68      10.1944      0.00000
     69      10.5740      0.00000
     70      10.8153      0.00000
     71      11.2260      0.00000
     72      11.2873      0.00000
     73      11.7256      0.00000
     74      12.0143      0.00000
     75      12.4422      0.00000
     76      12.5715      0.00000
     77      12.9970      0.00000
     78      13.0242      0.00000
     79      13.4136      0.00000
     80      13.6563      0.00000
     81      13.8772      0.00000
     82      14.0014      0.00000
     83      14.2088      0.00000
     84      14.2876      0.00000
     85      14.4894      0.00000
     86      14.5422      0.00000
     87      14.7845      0.00000
     88      15.0218      0.00000
     89      15.2936      0.00000
     90      15.5015      0.00000
     91      16.2377      0.00000
     92      16.6427      0.00000
     93      17.3447      0.00000
     94      18.0737      0.00000
     95      18.6722      0.00000
     96      18.8071      0.00000
     97      19.0687      0.00000
     98      19.3759      0.00000
     99      19.6051      0.00000
    100      19.8006      0.00000
    101      20.0001      0.00000
    102      20.1264      0.00000
    103      20.5139      0.00000
    104      20.5501      0.00000
    105      21.2616      0.00000
    106      21.2657      0.00000
    107      21.3595      0.00000
    108      21.5044      0.00000
    109      21.9304      0.00000
    110      21.9850      0.00000
    111      22.0134      0.00000
    112      22.1370      0.00000
    113      22.4566      0.00000
    114      22.6257      0.00000
    115      22.7143      0.00000
    116      22.8120      0.00000
    117      23.1011      0.00000
    118      23.1347      0.00000
    119      23.4526      0.00000
    120      23.4544      0.00000
    121      23.6233      0.00000
    122      23.6714      0.00000
    123      24.3700      0.00000
    124      24.5559      0.00000
    125      24.8953      0.00000
    126      25.1021      0.00000
    127      25.2756      0.00000
    128      25.3555      0.00000
    129      25.4267      0.00000
    130      25.5360      0.00000
    131      25.8776      0.00000
    132      25.9425      0.00000
    133      26.5447      0.00000
    134      26.7316      0.00000
    135      27.0712      0.00000
    136      27.1345      0.00000
    137      27.2597      0.00000
    138      27.3671      0.00000
    139      27.6935      0.00000
    140      27.7148      0.00000
    141      27.8649      0.00000

 k-point    56 :       0.1429    0.0000    0.4286
  band No.  band energies     occupation 
      1     -25.4517      2.00000
      2     -25.4506      2.00000
      3     -25.4384      2.00000
      4     -25.4382      2.00000
      5     -25.4088      2.00000
      6     -25.4087      2.00000
      7     -25.3863      2.00000
      8     -25.3861      2.00000
      9     -25.3809      2.00000
     10     -25.3807      2.00000
     11     -12.4004      2.00000
     12     -12.2464      2.00000
     13     -11.2391      2.00000
     14     -11.1665      2.00000
     15     -10.8834      2.00000
     16     -10.8126      2.00000
     17      -6.0146      2.00000
     18      -5.7721      2.00000
     19      -2.4118      2.00000
     20      -2.2608      2.00000
     21      -2.1037      2.00000
     22      -1.9685      2.00000
     23      -1.7351      2.00000
     24      -1.5754      2.00000
     25      -1.3359      2.00000
     26      -1.1354      2.00000
     27      -0.9597      2.00000
     28      -0.7070      2.00000
     29      -0.6679      2.00000
     30      -0.6094      2.00000
     31      -0.5459      2.00000
     32      -0.5160      2.00000
     33      -0.4571      2.00000
     34      -0.4284      2.00000
     35       0.5424      2.00000
     36       0.5588      2.00000
     37       0.5720      2.00000
     38       0.5805      2.00000
     39       0.6258      2.00000
     40       0.6589      2.00000
     41       0.6761      2.00000
     42       0.7893      2.00000
     43       0.8619      2.00000
     44       0.9436      2.00000
     45       1.0064      2.00000
     46       1.1154      2.00000
     47       1.4987      2.00000
     48       1.5690      2.00000
     49       1.8829      2.00000
     50       2.0740      2.00000
     51       2.3931      2.00000
     52       2.5715      2.00000
     53       2.7954      2.00000
     54       2.9350      2.00000
     55       5.1632      0.00000
     56       5.2907      0.00000
     57       6.6355      0.00000
     58       6.7264      0.00000
     59       7.8090      0.00000
     60       8.0243      0.00000
     61       8.4666      0.00000
     62       8.5814      0.00000
     63       9.0736      0.00000
     64       9.3346      0.00000
     65       9.5696      0.00000
     66       9.8560      0.00000
     67      10.1194      0.00000
     68      10.1779      0.00000
     69      10.4342      0.00000
     70      10.5622      0.00000
     71      10.9712      0.00000
     72      11.2937      0.00000
     73      11.5525      0.00000
     74      11.8488      0.00000
     75      12.2533      0.00000
     76      12.3789      0.00000
     77      12.4721      0.00000
     78      13.1284      0.00000
     79      13.4245      0.00000
     80      13.5860      0.00000
     81      13.8505      0.00000
     82      14.2058      0.00000
     83      14.3665      0.00000
     84      14.5756      0.00000
     85      14.9055      0.00000
     86      15.2363      0.00000
     87      15.3417      0.00000
     88      15.5762      0.00000
     89      15.7268      0.00000
     90      15.9661      0.00000
     91      16.5691      0.00000
     92      16.9265      0.00000
     93      17.1922      0.00000
     94      17.9869      0.00000
     95      18.2849      0.00000
     96      18.5119      0.00000
     97      18.9027      0.00000
     98      19.0573      0.00000
     99      19.4149      0.00000
    100      19.6036      0.00000
    101      20.0031      0.00000
    102      20.1435      0.00000
    103      20.2848      0.00000
    104      20.4707      0.00000
    105      20.7764      0.00000
    106      20.9770      0.00000
    107      21.0687      0.00000
    108      21.4133      0.00000
    109      21.5149      0.00000
    110      21.7439      0.00000
    111      21.9446      0.00000
    112      22.2207      0.00000
    113      22.2856      0.00000
    114      22.6487      0.00000
    115      22.7780      0.00000
    116      22.8897      0.00000
    117      22.9786      0.00000
    118      23.2006      0.00000
    119      23.4510      0.00000
    120      23.6649      0.00000
    121      23.9543      0.00000
    122      24.2397      0.00000
    123      24.4723      0.00000
    124      24.7423      0.00000
    125      24.8999      0.00000
    126      25.0043      0.00000
    127      25.2500      0.00000
    128      25.4285      0.00000
    129      25.5427      0.00000
    130      25.6400      0.00000
    131      25.8733      0.00000
    132      26.1315      0.00000
    133      26.2425      0.00000
    134      26.5149      0.00000
    135      26.6511      0.00000
    136      26.8088      0.00000
    137      27.1075      0.00000
    138      27.5258      0.00000
    139      27.6116      0.00000
    140      27.7686      0.00000
    141      27.8735      0.00000

 k-point    57 :       0.2857    0.0000    0.4286
  band No.  band energies     occupation 
      1     -25.4518      2.00000
      2     -25.4507      2.00000
      3     -25.4384      2.00000
      4     -25.4382      2.00000
      5     -25.4088      2.00000
      6     -25.4087      2.00000
      7     -25.3862      2.00000
      8     -25.3861      2.00000
      9     -25.3808      2.00000
     10     -25.3806      2.00000
     11     -12.3083      2.00000
     12     -12.2126      2.00000
     13     -11.3133      2.00000
     14     -11.1916      2.00000
     15     -10.9611      2.00000
     16     -10.8426      2.00000
     17      -6.0012      2.00000
     18      -5.7179      2.00000
     19      -2.6010      2.00000
     20      -2.1797      2.00000
     21      -2.0885      2.00000
     22      -1.9922      2.00000
     23      -1.6052      2.00000
     24      -1.3935      2.00000
     25      -1.2777      2.00000
     26      -1.0109      2.00000
     27      -0.8441      2.00000
     28      -0.7938      2.00000
     29      -0.6698      2.00000
     30      -0.6191      2.00000
     31      -0.5459      2.00000
     32      -0.5149      2.00000
     33      -0.4625      2.00000
     34      -0.4021      2.00000
     35       0.5231      2.00000
     36       0.5349      2.00000
     37       0.5684      2.00000
     38       0.5889      2.00000
     39       0.6055      2.00000
     40       0.6424      2.00000
     41       0.6657      2.00000
     42       0.7484      2.00000
     43       0.9610      2.00000
     44       1.0488      2.00000
     45       1.2198      2.00000
     46       1.2683      2.00000
     47       1.4486      2.00000
     48       1.6314      2.00000
     49       1.6529      2.00000
     50       1.9842      2.00000
     51       2.2354      2.00000
     52       2.3942      2.00000
     53       2.6698      2.00000
     54       2.7890      2.00000
     55       5.1801      0.00000
     56       5.3970      0.00000
     57       6.5932      0.00000
     58       6.9002      0.00000
     59       7.4168      0.00000
     60       7.8116      0.00000
     61       8.2202      0.00000
     62       8.4788      0.00000
     63       8.9345      0.00000
     64       9.1700      0.00000
     65       9.4402      0.00000
     66       9.6746      0.00000
     67       9.8817      0.00000
     68      10.0396      0.00000
     69      10.2872      0.00000
     70      10.4932      0.00000
     71      10.9762      0.00000
     72      11.0866      0.00000
     73      11.4821      0.00000
     74      11.8404      0.00000
     75      12.3897      0.00000
     76      12.5474      0.00000
     77      12.9145      0.00000
     78      13.2514      0.00000
     79      13.4343      0.00000
     80      13.8620      0.00000
     81      14.0058      0.00000
     82      14.6675      0.00000
     83      14.8875      0.00000
     84      15.2126      0.00000
     85      15.4964      0.00000
     86      15.7297      0.00000
     87      15.9097      0.00000
     88      16.1268      0.00000
     89      16.4601      0.00000
     90      16.8079      0.00000
     91      17.0622      0.00000
     92      17.4844      0.00000
     93      17.5449      0.00000
     94      17.6540      0.00000
     95      17.9824      0.00000
     96      18.0781      0.00000
     97      18.2741      0.00000
     98      18.6435      0.00000
     99      18.7502      0.00000
    100      19.1178      0.00000
    101      19.4171      0.00000
    102      19.5670      0.00000
    103      20.0180      0.00000
    104      20.1357      0.00000
    105      20.3136      0.00000
    106      20.4924      0.00000
    107      20.8709      0.00000
    108      21.0895      0.00000
    109      21.2618      0.00000
    110      21.4146      0.00000
    111      21.7826      0.00000
    112      21.9264      0.00000
    113      22.1053      0.00000
    114      22.4439      0.00000
    115      22.5568      0.00000
    116      22.7791      0.00000
    117      23.0603      0.00000
    118      23.3724      0.00000
    119      23.4338      0.00000
    120      23.7611      0.00000
    121      23.8554      0.00000
    122      24.0861      0.00000
    123      24.4426      0.00000
    124      24.5706      0.00000
    125      24.7016      0.00000
    126      24.9906      0.00000
    127      25.3363      0.00000
    128      25.6315      0.00000
    129      25.9333      0.00000
    130      26.1676      0.00000
    131      26.2661      0.00000
    132      26.3494      0.00000
    133      26.5280      0.00000
    134      26.6186      0.00000
    135      26.7945      0.00000
    136      26.9948      0.00000
    137      27.0855      0.00000
    138      27.2580      0.00000
    139      27.4540      0.00000
    140      27.8256      0.00000
    141      27.9900      0.00000

 k-point    58 :       0.4286    0.0000    0.4286
  band No.  band energies     occupation 
      1     -25.4518      2.00000
      2     -25.4507      2.00000
      3     -25.4384      2.00000
      4     -25.4383      2.00000
      5     -25.4088      2.00000
      6     -25.4087      2.00000
      7     -25.3862      2.00000
      8     -25.3861      2.00000
      9     -25.3808      2.00000
     10     -25.3806      2.00000
     11     -12.2866      2.00000
     12     -12.1315      2.00000
     13     -11.3171      2.00000
     14     -11.2155      2.00000
     15     -11.0527      2.00000
     16     -10.8863      2.00000
     17      -5.9743      2.00000
     18      -5.7073      2.00000
     19      -2.7383      2.00000
     20      -2.1600      2.00000
     21      -2.1032      2.00000
     22      -1.8794      2.00000
     23      -1.6373      2.00000
     24      -1.2912      2.00000
     25      -1.1250      2.00000
     26      -1.0201      2.00000
     27      -0.8775      2.00000
     28      -0.7202      2.00000
     29      -0.6790      2.00000
     30      -0.5673      2.00000
     31      -0.5196      2.00000
     32      -0.5030      2.00000
     33      -0.4558      2.00000
     34      -0.3795      2.00000
     35       0.4485      2.00000
     36       0.5051      2.00000
     37       0.5770      2.00000
     38       0.5971      2.00000
     39       0.6140      2.00000
     40       0.6513      2.00000
     41       0.6905      2.00000
     42       0.7355      2.00000
     43       0.9604      2.00000
     44       1.1271      2.00000
     45       1.2216      2.00000
     46       1.3319      2.00000
     47       1.4056      2.00000
     48       1.6206      2.00000
     49       1.7887      2.00000
     50       1.9532      2.00000
     51       2.2590      2.00000
     52       2.4178      2.00000
     53       2.6403      2.00000
     54       2.7708      2.00000
     55       4.8959      0.00000
     56       5.2999      0.00000
     57       6.1554      0.00000
     58       6.8672      0.00000
     59       7.2808      0.00000
     60       7.5674      0.00000
     61       8.0058      0.00000
     62       8.1610      0.00000
     63       8.7448      0.00000
     64       9.0841      0.00000
     65       9.4894      0.00000
     66       9.7373      0.00000
     67       9.7980      0.00000
     68      10.0760      0.00000
     69      10.3612      0.00000
     70      10.4956      0.00000
     71      10.6023      0.00000
     72      11.0959      0.00000
     73      11.6522      0.00000
     74      12.1022      0.00000
     75      12.6526      0.00000
     76      12.9643      0.00000
     77      13.3158      0.00000
     78      13.5555      0.00000
     79      13.7932      0.00000
     80      14.0919      0.00000
     81      14.5358      0.00000
     82      14.8036      0.00000
     83      15.0240      0.00000
     84      15.3108      0.00000
     85      15.6800      0.00000
     86      15.9352      0.00000
     87      16.0909      0.00000
     88      16.3567      0.00000
     89      16.6703      0.00000
     90      16.7760      0.00000
     91      17.1613      0.00000
     92      17.4653      0.00000
     93      17.6333      0.00000
     94      17.8824      0.00000
     95      18.0312      0.00000
     96      18.2937      0.00000
     97      18.3782      0.00000
     98      18.6360      0.00000
     99      18.9048      0.00000
    100      18.9798      0.00000
    101      19.1078      0.00000
    102      19.4218      0.00000
    103      19.5273      0.00000
    104      19.7782      0.00000
    105      19.9959      0.00000
    106      20.2088      0.00000
    107      20.4306      0.00000
    108      20.7971      0.00000
    109      20.9797      0.00000
    110      21.1876      0.00000
    111      21.3611      0.00000
    112      21.6356      0.00000
    113      21.9874      0.00000
    114      22.1931      0.00000
    115      22.4875      0.00000
    116      22.8036      0.00000
    117      22.8889      0.00000
    118      23.1404      0.00000
    119      23.3706      0.00000
    120      23.5130      0.00000
    121      23.6828      0.00000
    122      23.8523      0.00000
    123      24.5671      0.00000
    124      24.6997      0.00000
    125      24.8764      0.00000
    126      25.1231      0.00000
    127      25.2865      0.00000
    128      25.4917      0.00000
    129      25.7552      0.00000
    130      26.0770      0.00000
    131      26.2777      0.00000
    132      26.4580      0.00000
    133      26.5679      0.00000
    134      26.6747      0.00000
    135      26.7915      0.00000
    136      26.9882      0.00000
    137      27.1730      0.00000
    138      27.3453      0.00000
    139      27.6352      0.00000
    140      27.8303      0.00000
    141      27.9845      0.00000

 k-point    59 :      -0.4286    0.0000    0.4286
  band No.  band energies     occupation 
      1     -25.4519      2.00000
      2     -25.4508      2.00000
      3     -25.4385      2.00000
      4     -25.4383      2.00000
      5     -25.4089      2.00000
      6     -25.4087      2.00000
      7     -25.3863      2.00000
      8     -25.3861      2.00000
      9     -25.3809      2.00000
     10     -25.3807      2.00000
     11     -12.3534      2.00000
     12     -12.0635      2.00000
     13     -11.2905      2.00000
     14     -11.1912      2.00000
     15     -11.0933      2.00000
     16     -10.8901      2.00000
     17      -5.9592      2.00000
     18      -5.7555      2.00000
     19      -2.7925      2.00000
     20      -2.2509      2.00000
     21      -2.1706      2.00000
     22      -1.7583      2.00000
     23      -1.4398      2.00000
     24      -1.3572      2.00000
     25      -1.1615      2.00000
     26      -1.0127      2.00000
     27      -0.8632      2.00000
     28      -0.7024      2.00000
     29      -0.6692      2.00000
     30      -0.5784      2.00000
     31      -0.5370      2.00000
     32      -0.5007      2.00000
     33      -0.4400      2.00000
     34      -0.3738      2.00000
     35       0.4392      2.00000
     36       0.4890      2.00000
     37       0.5797      2.00000
     38       0.5990      2.00000
     39       0.6356      2.00000
     40       0.6511      2.00000
     41       0.6889      2.00000
     42       0.7044      2.00000
     43       0.9509      2.00000
     44       1.0932      2.00000
     45       1.2602      2.00000
     46       1.2982      2.00000
     47       1.4557      2.00000
     48       1.6615      2.00000
     49       1.8715      2.00000
     50       2.0484      2.00000
     51       2.2080      2.00000
     52       2.4607      2.00000
     53       2.6191      2.00000
     54       2.7828      2.00000
     55       4.8167      0.00000
     56       5.2455      0.00000
     57       6.1411      0.00000
     58       6.7808      0.00000
     59       7.1838      0.00000
     60       7.4181      0.00000
     61       7.9107      0.00000
     62       8.1564      0.00000
     63       8.7350      0.00000
     64       8.9895      0.00000
     65       9.4428      0.00000
     66       9.7600      0.00000
     67       9.9992      0.00000
     68      10.1616      0.00000
     69      10.3657      0.00000
     70      10.4914      0.00000
     71      10.5972      0.00000
     72      10.9509      0.00000
     73      11.7920      0.00000
     74      12.2204      0.00000
     75      12.5810      0.00000
     76      12.8499      0.00000
     77      13.2250      0.00000
     78      13.9014      0.00000
     79      14.2229      0.00000
     80      14.3252      0.00000
     81      14.5710      0.00000
     82      14.9130      0.00000
     83      15.0986      0.00000
     84      15.2491      0.00000
     85      15.6712      0.00000
     86      15.8124      0.00000
     87      16.0661      0.00000
     88      16.4514      0.00000
     89      16.7375      0.00000
     90      16.8787      0.00000
     91      17.2694      0.00000
     92      17.4035      0.00000
     93      17.5744      0.00000
     94      17.7749      0.00000
     95      17.9899      0.00000
     96      18.1206      0.00000
     97      18.3078      0.00000
     98      18.6147      0.00000
     99      18.8318      0.00000
    100      18.8865      0.00000
    101      19.0413      0.00000
    102      19.1010      0.00000
    103      19.3570      0.00000
    104      19.6678      0.00000
    105      19.7148      0.00000
    106      20.1557      0.00000
    107      20.4349      0.00000
    108      20.7369      0.00000
    109      20.9103      0.00000
    110      21.1259      0.00000
    111      21.3542      0.00000
    112      21.6714      0.00000
    113      21.7547      0.00000
    114      21.9821      0.00000
    115      22.3395      0.00000
    116      23.1463      0.00000
    117      23.2309      0.00000
    118      23.4657      0.00000
    119      23.6380      0.00000
    120      23.6870      0.00000
    121      23.8220      0.00000
    122      24.2096      0.00000
    123      24.4660      0.00000
    124      24.7949      0.00000
    125      24.9215      0.00000
    126      25.1294      0.00000
    127      25.3151      0.00000
    128      25.5668      0.00000
    129      25.6946      0.00000
    130      25.8619      0.00000
    131      26.0962      0.00000
    132      26.3803      0.00000
    133      26.5207      0.00000
    134      26.7011      0.00000
    135      26.8340      0.00000
    136      26.9170      0.00000
    137      27.1147      0.00000
    138      27.3880      0.00000
    139      27.4073      0.00000
    140      27.5086      0.00000
    141      27.6472      0.00000

 k-point    60 :      -0.2857    0.0000    0.4286
  band No.  band energies     occupation 
      1     -25.4519      2.00000
      2     -25.4508      2.00000
      3     -25.4385      2.00000
      4     -25.4383      2.00000
      5     -25.4089      2.00000
      6     -25.4088      2.00000
      7     -25.3863      2.00000
      8     -25.3861      2.00000
      9     -25.3809      2.00000
     10     -25.3807      2.00000
     11     -12.4440      2.00000
     12     -12.0679      2.00000
     13     -11.2962      2.00000
     14     -11.1654      2.00000
     15     -10.9825      2.00000
     16     -10.8549      2.00000
     17      -5.9720      2.00000
     18      -5.8227      2.00000
     19      -2.7299      2.00000
     20      -2.3844      2.00000
     21      -2.1615      2.00000
     22      -1.7692      2.00000
     23      -1.4714      2.00000
     24      -1.3353      2.00000
     25      -1.2107      2.00000
     26      -1.0070      2.00000
     27      -0.8756      2.00000
     28      -0.7456      2.00000
     29      -0.6510      2.00000
     30      -0.6035      2.00000
     31      -0.5748      2.00000
     32      -0.5365      2.00000
     33      -0.4437      2.00000
     34      -0.3914      2.00000
     35       0.4968      2.00000
     36       0.5083      2.00000
     37       0.5726      2.00000
     38       0.5939      2.00000
     39       0.6209      2.00000
     40       0.6335      2.00000
     41       0.6792      2.00000
     42       0.7002      2.00000
     43       0.9832      2.00000
     44       1.0910      2.00000
     45       1.1196      2.00000
     46       1.3423      2.00000
     47       1.5023      2.00000
     48       1.7161      2.00000
     49       1.8028      2.00000
     50       2.0910      2.00000
     51       2.2304      2.00000
     52       2.4348      2.00000
     53       2.5853      2.00000
     54       2.8266      2.00000
     55       5.0834      0.00000
     56       5.2754      0.00000
     57       6.5397      0.00000
     58       6.7579      0.00000
     59       7.1390      0.00000
     60       7.4426      0.00000
     61       8.0451      0.00000
     62       8.5207      0.00000
     63       8.8211      0.00000
     64       9.0671      0.00000
     65       9.5188      0.00000
     66       9.6153      0.00000
     67       9.8624      0.00000
     68      10.1178      0.00000
     69      10.1892      0.00000
     70      10.4765      0.00000
     71      11.0120      0.00000
     72      11.2282      0.00000
     73      11.6293      0.00000
     74      11.9846      0.00000
     75      12.5037      0.00000
     76      12.6494      0.00000
     77      13.1680      0.00000
     78      13.7109      0.00000
     79      14.0435      0.00000
     80      14.1373      0.00000
     81      14.4082      0.00000
     82      14.6368      0.00000
     83      14.9341      0.00000
     84      15.0868      0.00000
     85      15.3528      0.00000
     86      15.5213      0.00000
     87      16.1144      0.00000
     88      16.2606      0.00000
     89      16.6087      0.00000
     90      16.8268      0.00000
     91      17.0713      0.00000
     92      17.2021      0.00000
     93      17.3893      0.00000
     94      17.6942      0.00000
     95      17.8692      0.00000
     96      18.0674      0.00000
     97      18.2020      0.00000
     98      18.3265      0.00000
     99      18.6457      0.00000
    100      18.8634      0.00000
    101      19.1282      0.00000
    102      19.2625      0.00000
    103      19.5746      0.00000
    104      19.8282      0.00000
    105      20.1268      0.00000
    106      20.4535      0.00000
    107      20.5659      0.00000
    108      20.7992      0.00000
    109      20.9791      0.00000
    110      21.1211      0.00000
    111      21.7733      0.00000
    112      21.9894      0.00000
    113      22.4587      0.00000
    114      22.6021      0.00000
    115      22.6887      0.00000
    116      22.8347      0.00000
    117      23.1979      0.00000
    118      23.5284      0.00000
    119      23.6742      0.00000
    120      23.9220      0.00000
    121      24.2912      0.00000
    122      24.3825      0.00000
    123      24.5661      0.00000
    124      24.7942      0.00000
    125      25.0625      0.00000
    126      25.1686      0.00000
    127      25.3857      0.00000
    128      25.5511      0.00000
    129      25.7244      0.00000
    130      25.8520      0.00000
    131      26.1305      0.00000
    132      26.3311      0.00000
    133      26.4427      0.00000
    134      26.6511      0.00000
    135      26.7564      0.00000
    136      26.8613      0.00000
    137      27.1320      0.00000
    138      27.5287      0.00000
    139      27.6267      0.00000
    140      27.7646      0.00000
    141      28.0032      0.00000

 k-point    61 :      -0.1429    0.0000    0.4286
  band No.  band energies     occupation 
      1     -25.4518      2.00000
      2     -25.4507      2.00000
      3     -25.4384      2.00000
      4     -25.4383      2.00000
      5     -25.4089      2.00000
      6     -25.4088      2.00000
      7     -25.3863      2.00000
      8     -25.3862      2.00000
      9     -25.3809      2.00000
     10     -25.3807      2.00000
     11     -12.4948      2.00000
     12     -12.1423      2.00000
     13     -11.2528      2.00000
     14     -11.1391      2.00000
     15     -10.8848      2.00000
     16     -10.8186      2.00000
     17      -5.9964      2.00000
     18      -5.8523      2.00000
     19      -2.5555      2.00000
     20      -2.3729      2.00000
     21      -2.1070      2.00000
     22      -1.9669      2.00000
     23      -1.6497      2.00000
     24      -1.4255      2.00000
     25      -1.3096      2.00000
     26      -1.1414      2.00000
     27      -0.8609      2.00000
     28      -0.7353      2.00000
     29      -0.6365      2.00000
     30      -0.5967      2.00000
     31      -0.5554      2.00000
     32      -0.5474      2.00000
     33      -0.4422      2.00000
     34      -0.4255      2.00000
     35       0.5311      2.00000
     36       0.5509      2.00000
     37       0.5757      2.00000
     38       0.5960      2.00000
     39       0.6111      2.00000
     40       0.6432      2.00000
     41       0.6975      2.00000
     42       0.7201      2.00000
     43       0.9035      2.00000
     44       0.9499      2.00000
     45       1.0473      2.00000
     46       1.2569      2.00000
     47       1.3506      2.00000
     48       1.8271      2.00000
     49       1.8654      2.00000
     50       2.0762      2.00000
     51       2.3449      2.00000
     52       2.6305      2.00000
     53       2.7183      2.00000
     54       2.9953      2.00000
     55       5.1594      0.00000
     56       5.2103      0.00000
     57       6.5630      0.00000
     58       6.6174      0.00000
     59       7.5348      0.00000
     60       7.6899      0.00000
     61       8.3399      0.00000
     62       8.6382      0.00000
     63       9.0863      0.00000
     64       9.3160      0.00000
     65       9.4928      0.00000
     66       9.6857      0.00000
     67       9.9180      0.00000
     68      10.0772      0.00000
     69      10.2889      0.00000
     70      10.5805      0.00000
     71      11.1426      0.00000
     72      11.4299      0.00000
     73      11.9078      0.00000
     74      12.1595      0.00000
     75      12.4368      0.00000
     76      12.7198      0.00000
     77      13.0417      0.00000
     78      13.2635      0.00000
     79      13.5015      0.00000
     80      13.8408      0.00000
     81      13.9466      0.00000
     82      14.0649      0.00000
     83      14.1788      0.00000
     84      14.5147      0.00000
     85      14.8905      0.00000
     86      15.2306      0.00000
     87      15.3802      0.00000
     88      15.6083      0.00000
     89      16.0808      0.00000
     90      16.1845      0.00000
     91      16.5572      0.00000
     92      16.6725      0.00000
     93      17.0581      0.00000
     94      17.3338      0.00000
     95      18.0922      0.00000
     96      18.2747      0.00000
     97      18.7031      0.00000
     98      18.9702      0.00000
     99      19.2170      0.00000
    100      19.5282      0.00000
    101      19.6726      0.00000
    102      20.0904      0.00000
    103      20.3443      0.00000
    104      20.6971      0.00000
    105      20.8519      0.00000
    106      21.0234      0.00000
    107      21.1861      0.00000
    108      21.2856      0.00000
    109      21.5972      0.00000
    110      21.7343      0.00000
    111      21.9274      0.00000
    112      22.0940      0.00000
    113      22.2516      0.00000
    114      22.3235      0.00000
    115      22.5778      0.00000
    116      22.8548      0.00000
    117      23.1022      0.00000
    118      23.2473      0.00000
    119      23.5022      0.00000
    120      23.5679      0.00000
    121      23.8589      0.00000
    122      23.9930      0.00000
    123      24.3257      0.00000
    124      24.4903      0.00000
    125      24.7167      0.00000
    126      25.3891      0.00000
    127      25.4921      0.00000
    128      25.7357      0.00000
    129      25.8512      0.00000
    130      26.0031      0.00000
    131      26.2751      0.00000
    132      26.3709      0.00000
    133      26.5718      0.00000
    134      26.6896      0.00000
    135      26.9550      0.00000
    136      27.1896      0.00000
    137      27.3221      0.00000
    138      27.3875      0.00000
    139      27.5654      0.00000
    140      27.7679      0.00000
    141      28.0168      0.00000

 k-point    62 :       0.0000    0.2500    0.4286
  band No.  band energies     occupation 
      1     -25.4519      2.00000
      2     -25.4508      2.00000
      3     -25.4385      2.00000
      4     -25.4383      2.00000
      5     -25.4089      2.00000
      6     -25.4088      2.00000
      7     -25.3863      2.00000
      8     -25.3861      2.00000
      9     -25.3809      2.00000
     10     -25.3807      2.00000
     11     -12.4621      2.00000
     12     -12.0822      2.00000
     13     -11.2908      2.00000
     14     -11.1560      2.00000
     15     -10.9544      2.00000
     16     -10.8437      2.00000
     17      -5.9780      2.00000
     18      -5.8352      2.00000
     19      -2.6943      2.00000
     20      -2.3958      2.00000
     21      -2.1442      2.00000
     22      -1.8300      2.00000
     23      -1.5159      2.00000
     24      -1.3239      2.00000
     25      -1.2297      2.00000
     26      -1.0260      2.00000
     27      -0.8745      2.00000
     28      -0.7466      2.00000
     29      -0.6574      2.00000
     30      -0.5925      2.00000
     31      -0.5789      2.00000
     32      -0.5451      2.00000
     33      -0.4431      2.00000
     34      -0.3997      2.00000
     35       0.5091      2.00000
     36       0.5218      2.00000
     37       0.5699      2.00000
     38       0.5952      2.00000
     39       0.6178      2.00000
     40       0.6296      2.00000
     41       0.6810      2.00000
     42       0.7048      2.00000
     43       0.9598      2.00000
     44       1.0514      2.00000
     45       1.1477      2.00000
     46       1.2857      2.00000
     47       1.5162      2.00000
     48       1.7067      2.00000
     49       1.8322      2.00000
     50       2.1083      2.00000
     51       2.2272      2.00000
     52       2.4330      2.00000
     53       2.6119      2.00000
     54       2.8742      2.00000
     55       5.1361      0.00000
     56       5.2795      0.00000
     57       6.5956      0.00000
     58       6.7423      0.00000
     59       7.1777      0.00000
     60       7.4820      0.00000
     61       8.1135      0.00000
     62       8.6240      0.00000
     63       8.8566      0.00000
     64       9.1285      0.00000
     65       9.5092      0.00000
     66       9.5803      0.00000
     67       9.8287      0.00000
     68      10.1112      0.00000
     69      10.2091      0.00000
     70      10.5096      0.00000
     71      11.0620      0.00000
     72      11.2411      0.00000
     73      11.6712      0.00000
     74      12.0387      0.00000
     75      12.4835      0.00000
     76      12.7092      0.00000
     77      13.0709      0.00000
     78      13.5854      0.00000
     79      13.9078      0.00000
     80      14.0418      0.00000
     81      14.2994      0.00000
     82      14.4884      0.00000
     83      14.7680      0.00000
     84      14.9628      0.00000
     85      15.2936      0.00000
     86      15.5259      0.00000
     87      15.9782      0.00000
     88      16.0872      0.00000
     89      16.4489      0.00000
     90      16.7439      0.00000
     91      16.9989      0.00000
     92      17.1597      0.00000
     93      17.3357      0.00000
     94      17.6210      0.00000
     95      17.8076      0.00000
     96      18.0619      0.00000
     97      18.1730      0.00000
     98      18.3126      0.00000
     99      18.7346      0.00000
    100      19.0439      0.00000
    101      19.1812      0.00000
    102      19.4464      0.00000
    103      19.8469      0.00000
    104      19.9633      0.00000
    105      20.2529      0.00000
    106      20.5493      0.00000
    107      20.7483      0.00000
    108      20.9851      0.00000
    109      21.1887      0.00000
    110      21.3429      0.00000
    111      21.8077      0.00000
    112      22.0012      0.00000
    113      22.3197      0.00000
    114      22.5978      0.00000
    115      22.7112      0.00000
    116      22.8899      0.00000
    117      23.0652      0.00000
    118      23.6038      0.00000
    119      23.9010      0.00000
    120      24.0237      0.00000
    121      24.1169      0.00000
    122      24.2473      0.00000
    123      24.4305      0.00000
    124      24.5962      0.00000
    125      24.9254      0.00000
    126      25.1341      0.00000
    127      25.3506      0.00000
    128      25.4886      0.00000
    129      25.7918      0.00000
    130      25.9666      0.00000
    131      26.2057      0.00000
    132      26.3966      0.00000
    133      26.5206      0.00000
    134      26.7833      0.00000
    135      26.8400      0.00000
    136      26.9719      0.00000
    137      27.2440      0.00000
    138      27.5652      0.00000
    139      27.6824      0.00000
    140      27.8216      0.00000
    141      27.9759      0.00000

 k-point    63 :       0.1429    0.2500    0.4286
  band No.  band energies     occupation 
      1     -25.4518      2.00000
      2     -25.4507      2.00000
      3     -25.4385      2.00000
      4     -25.4383      2.00000
      5     -25.4089      2.00000
      6     -25.4088      2.00000
      7     -25.3863      2.00000
      8     -25.3862      2.00000
      9     -25.3809      2.00000
     10     -25.3808      2.00000
     11     -12.4419      2.00000
     12     -12.1275      2.00000
     13     -11.2927      2.00000
     14     -11.1676      2.00000
     15     -10.9028      2.00000
     16     -10.8528      2.00000
     17      -5.9633      2.00000
     18      -5.8039      2.00000
     19      -2.6047      2.00000
     20      -2.2920      2.00000
     21      -2.1542      2.00000
     22      -1.8918      2.00000
     23      -1.6129      2.00000
     24      -1.3734      2.00000
     25      -1.2812      2.00000
     26      -1.0476      2.00000
     27      -0.9372      2.00000
     28      -0.8069      2.00000
     29      -0.6464      2.00000
     30      -0.5948      2.00000
     31      -0.5511      2.00000
     32      -0.5148      2.00000
     33      -0.4377      2.00000
     34      -0.4118      2.00000
     35       0.5135      2.00000
     36       0.5356      2.00000
     37       0.5743      2.00000
     38       0.5914      2.00000
     39       0.6287      2.00000
     40       0.6591      2.00000
     41       0.6797      2.00000
     42       0.7427      2.00000
     43       0.9298      2.00000
     44       1.0206      2.00000
     45       1.0824      2.00000
     46       1.2677      2.00000
     47       1.4079      2.00000
     48       1.7289      2.00000
     49       1.8186      2.00000
     50       2.0656      2.00000
     51       2.2565      2.00000
     52       2.3715      2.00000
     53       2.4218      2.00000
     54       3.0393      2.00000
     55       5.2049      0.00000
     56       5.3488      0.00000
     57       6.6739      0.00000
     58       6.7634      0.00000
     59       7.5736      0.00000
     60       7.8252      0.00000
     61       8.1761      0.00000
     62       8.7182      0.00000
     63       9.0613      0.00000
     64       9.2398      0.00000
     65       9.5210      0.00000
     66       9.5865      0.00000
     67       9.9095      0.00000
     68      10.0825      0.00000
     69      10.3297      0.00000
     70      10.5568      0.00000
     71      10.8106      0.00000
     72      11.1258      0.00000
     73      11.4572      0.00000
     74      12.1763      0.00000
     75      12.3647      0.00000
     76      12.6566      0.00000
     77      12.9435      0.00000
     78      13.2293      0.00000
     79      13.6275      0.00000
     80      13.7804      0.00000
     81      14.0340      0.00000
     82      14.3692      0.00000
     83      14.5219      0.00000
     84      14.7906      0.00000
     85      15.0490      0.00000
     86      15.5488      0.00000
     87      15.7885      0.00000
     88      16.0020      0.00000
     89      16.4701      0.00000
     90      16.5546      0.00000
     91      16.7333      0.00000
     92      17.0600      0.00000
     93      17.1845      0.00000
     94      17.5424      0.00000
     95      17.9313      0.00000
     96      18.0611      0.00000
     97      18.6853      0.00000
     98      18.8520      0.00000
     99      19.0524      0.00000
    100      19.2727      0.00000
    101      19.3700      0.00000
    102      19.6310      0.00000
    103      19.8268      0.00000
    104      20.0585      0.00000
    105      20.3121      0.00000
    106      20.5018      0.00000
    107      21.0769      0.00000
    108      21.1683      0.00000
    109      21.6458      0.00000
    110      21.8088      0.00000
    111      22.0084      0.00000
    112      22.1447      0.00000
    113      22.2668      0.00000
    114      22.6415      0.00000
    115      22.8178      0.00000
    116      22.9198      0.00000
    117      23.0215      0.00000
    118      23.3231      0.00000
    119      23.4156      0.00000
    120      23.5618      0.00000
    121      23.9156      0.00000
    122      24.1200      0.00000
    123      24.2882      0.00000
    124      24.6814      0.00000
    125      25.0845      0.00000
    126      25.2550      0.00000
    127      25.4318      0.00000
    128      25.5142      0.00000
    129      25.7023      0.00000
    130      26.0174      0.00000
    131      26.2631      0.00000
    132      26.4492      0.00000
    133      26.6624      0.00000
    134      26.9204      0.00000
    135      27.0819      0.00000
    136      27.1247      0.00000
    137      27.3592      0.00000
    138      27.4584      0.00000
    139      27.5241      0.00000
    140      27.6718      0.00000
    141      27.8922      0.00000

 k-point    64 :       0.2857    0.2500    0.4286
  band No.  band energies     occupation 
      1     -25.4519      2.00000
      2     -25.4507      2.00000
      3     -25.4385      2.00000
      4     -25.4383      2.00000
      5     -25.4090      2.00000
      6     -25.4089      2.00000
      7     -25.3864      2.00000
      8     -25.3862      2.00000
      9     -25.3810      2.00000
     10     -25.3808      2.00000
     11     -12.3648      2.00000
     12     -12.1466      2.00000
     13     -11.3045      2.00000
     14     -11.2268      2.00000
     15     -10.9278      2.00000
     16     -10.8647      2.00000
     17      -5.9504      2.00000
     18      -5.7180      2.00000
     19      -2.5166      2.00000
     20      -2.3924      2.00000
     21      -2.0838      2.00000
     22      -1.7917      2.00000
     23      -1.5552      2.00000
     24      -1.4399      2.00000
     25      -1.2055      2.00000
     26      -1.1624      2.00000
     27      -0.9002      2.00000
     28      -0.8758      2.00000
     29      -0.6549      2.00000
     30      -0.6273      2.00000
     31      -0.5222      2.00000
     32      -0.4814      2.00000
     33      -0.4457      2.00000
     34      -0.4164      2.00000
     35       0.5256      2.00000
     36       0.5475      2.00000
     37       0.5507      2.00000
     38       0.5753      2.00000
     39       0.6411      2.00000
     40       0.6468      2.00000
     41       0.6829      2.00000
     42       0.7370      2.00000
     43       1.0026      2.00000
     44       1.0400      2.00000
     45       1.1599      2.00000
     46       1.2384      2.00000
     47       1.4415      2.00000
     48       1.6090      2.00000
     49       1.7924      2.00000
     50       1.9715      2.00000
     51       2.0154      2.00000
     52       2.2964      2.00000
     53       2.6194      2.00000
     54       2.6540      2.00000
     55       5.3695      0.00000
     56       5.4518      0.00000
     57       6.8117      0.00000
     58       6.8384      0.00000
     59       7.7262      0.00000
     60       7.9348      0.00000
     61       8.2532      0.00000
     62       8.4429      0.00000
     63       9.1225      0.00000
     64       9.2551      0.00000
     65       9.6469      0.00000
     66       9.8155      0.00000
     67       9.9872      0.00000
     68      10.0995      0.00000
     69      10.2290      0.00000
     70      10.4407      0.00000
     71      10.8488      0.00000
     72      11.0549      0.00000
     73      11.5830      0.00000
     74      11.6579      0.00000
     75      11.9520      0.00000
     76      12.1769      0.00000
     77      12.7634      0.00000
     78      13.3194      0.00000
     79      13.4340      0.00000
     80      13.6269      0.00000
     81      14.1187      0.00000
     82      14.3249      0.00000
     83      14.8665      0.00000
     84      15.1610      0.00000
     85      15.3682      0.00000
     86      15.6849      0.00000
     87      16.0324      0.00000
     88      16.2969      0.00000
     89      16.6651      0.00000
     90      16.9911      0.00000
     91      17.0555      0.00000
     92      17.3319      0.00000
     93      17.6008      0.00000
     94      17.7261      0.00000
     95      18.0355      0.00000
     96      18.1468      0.00000
     97      18.3291      0.00000
     98      18.4642      0.00000
     99      18.7866      0.00000
    100      18.9508      0.00000
    101      19.1762      0.00000
    102      19.3854      0.00000
    103      19.6128      0.00000
    104      19.7421      0.00000
    105      20.0844      0.00000
    106      20.5998      0.00000
    107      20.8978      0.00000
    108      21.0150      0.00000
    109      21.1351      0.00000
    110      21.3661      0.00000
    111      21.9259      0.00000
    112      22.0422      0.00000
    113      22.4373      0.00000
    114      22.7399      0.00000
    115      22.9830      0.00000
    116      23.1624      0.00000
    117      23.3931      0.00000
    118      23.5833      0.00000
    119      23.7178      0.00000
    120      23.8272      0.00000
    121      24.0407      0.00000
    122      24.4251      0.00000
    123      24.5740      0.00000
    124      24.8058      0.00000
    125      24.9866      0.00000
    126      25.3407      0.00000
    127      25.4554      0.00000
    128      25.6315      0.00000
    129      25.8179      0.00000
    130      25.9529      0.00000
    131      26.1366      0.00000
    132      26.2312      0.00000
    133      26.3163      0.00000
    134      26.5566      0.00000
    135      26.6915      0.00000
    136      26.7301      0.00000
    137      27.0736      0.00000
    138      27.2104      0.00000
    139      27.3719      0.00000
    140      27.4982      0.00000
    141      27.6452      0.00000

 k-point    65 :       0.4286    0.2500    0.4286
  band No.  band energies     occupation 
      1     -25.4519      2.00000
      2     -25.4508      2.00000
      3     -25.4385      2.00000
      4     -25.4384      2.00000
      5     -25.4089      2.00000
      6     -25.4089      2.00000
      7     -25.3864      2.00000
      8     -25.3862      2.00000
      9     -25.3810      2.00000
     10     -25.3808      2.00000
     11     -12.2811      2.00000
     12     -12.1251      2.00000
     13     -11.3304      2.00000
     14     -11.2670      2.00000
     15     -11.0213      2.00000
     16     -10.8782      2.00000
     17      -5.9431      2.00000
     18      -5.6338      2.00000
     19      -2.5506      2.00000
     20      -2.3329      2.00000
     21      -2.0062      2.00000
     22      -1.8848      2.00000
     23      -1.6393      2.00000
     24      -1.3859      2.00000
     25      -1.2023      2.00000
     26      -1.0429      2.00000
     27      -0.9080      2.00000
     28      -0.8036      2.00000
     29      -0.6519      2.00000
     30      -0.6017      2.00000
     31      -0.5257      2.00000
     32      -0.4536      2.00000
     33      -0.4375      2.00000
     34      -0.4147      2.00000
     35       0.4947      2.00000
     36       0.5323      2.00000
     37       0.5766      2.00000
     38       0.5974      2.00000
     39       0.6413      2.00000
     40       0.6559      2.00000
     41       0.6901      2.00000
     42       0.7443      2.00000
     43       0.9757      2.00000
     44       1.0490      2.00000
     45       1.2186      2.00000
     46       1.3450      2.00000
     47       1.4936      2.00000
     48       1.5690      2.00000
     49       1.7408      2.00000
     50       1.8705      2.00000
     51       1.9781      2.00000
     52       2.2338      2.00000
     53       2.4500      2.00000
     54       2.7576      2.00000
     55       5.3029      0.00000
     56       5.3870      0.00000
     57       6.5464      0.00000
     58       6.7456      0.00000
     59       7.5923      0.00000
     60       7.6840      0.00000
     61       8.0304      0.00000
     62       8.4517      0.00000
     63       8.9393      0.00000
     64       9.1605      0.00000
     65       9.4786      0.00000
     66       9.8312      0.00000
     67       9.9387      0.00000
     68      10.2337      0.00000
     69      10.5433      0.00000
     70      10.6942      0.00000
     71      10.9799      0.00000
     72      11.2447      0.00000
     73      11.7534      0.00000
     74      11.7787      0.00000
     75      12.0529      0.00000
     76      12.5856      0.00000
     77      12.8179      0.00000
     78      13.0644      0.00000
     79      13.4058      0.00000
     80      13.5750      0.00000
     81      14.0548      0.00000
     82      14.3683      0.00000
     83      14.8670      0.00000
     84      14.9868      0.00000
     85      15.7623      0.00000
     86      15.9924      0.00000
     87      16.1703      0.00000
     88      16.3962      0.00000
     89      16.6915      0.00000
     90      16.9987      0.00000
     91      17.1651      0.00000
     92      17.4189      0.00000
     93      17.5448      0.00000
     94      17.7786      0.00000
     95      18.0389      0.00000
     96      18.3154      0.00000
     97      18.4685      0.00000
     98      18.6110      0.00000
     99      18.9320      0.00000
    100      19.1542      0.00000
    101      19.3241      0.00000
    102      19.5831      0.00000
    103      19.7391      0.00000
    104      20.0782      0.00000
    105      20.1313      0.00000
    106      20.2389      0.00000
    107      20.6855      0.00000
    108      21.0133      0.00000
    109      21.4413      0.00000
    110      21.5480      0.00000
    111      21.6610      0.00000
    112      22.0287      0.00000
    113      22.2532      0.00000
    114      22.3616      0.00000
    115      22.4803      0.00000
    116      22.6015      0.00000
    117      22.8075      0.00000
    118      23.0264      0.00000
    119      23.2500      0.00000
    120      23.8138      0.00000
    121      23.8511      0.00000
    122      24.0777      0.00000
    123      24.3762      0.00000
    124      24.4556      0.00000
    125      24.6495      0.00000
    126      24.7878      0.00000
    127      25.0306      0.00000
    128      25.1155      0.00000
    129      25.4028      0.00000
    130      25.7241      0.00000
    131      25.9676      0.00000
    132      26.1200      0.00000
    133      26.4102      0.00000
    134      26.5610      0.00000
    135      26.8463      0.00000
    136      26.9312      0.00000
    137      27.0430      0.00000
    138      27.3329      0.00000
    139      27.4454      0.00000
    140      27.8014      0.00000
    141      27.8751      0.00000

 k-point    66 :      -0.4286    0.2500    0.4286
  band No.  band energies     occupation 
      1     -25.4519      2.00000
      2     -25.4508      2.00000
      3     -25.4385      2.00000
      4     -25.4384      2.00000
      5     -25.4089      2.00000
      6     -25.4088      2.00000
      7     -25.3863      2.00000
      8     -25.3862      2.00000
      9     -25.3809      2.00000
     10     -25.3807      2.00000
     11     -12.2671      2.00000
     12     -12.0789      2.00000
     13     -11.3080      2.00000
     14     -11.2474      2.00000
     15     -11.1044      2.00000
     16     -10.9343      2.00000
     17      -5.9391      2.00000
     18      -5.6182      2.00000
     19      -2.5840      2.00000
     20      -2.2980      2.00000
     21      -2.0808      2.00000
     22      -1.9208      2.00000
     23      -1.7535      2.00000
     24      -1.3322      2.00000
     25      -1.1085      2.00000
     26      -0.9631      2.00000
     27      -0.8700      2.00000
     28      -0.7339      2.00000
     29      -0.6213      2.00000
     30      -0.5668      2.00000
     31      -0.5206      2.00000
     32      -0.4670      2.00000
     33      -0.4346      2.00000
     34      -0.3885      2.00000
     35       0.4207      2.00000
     36       0.5601      2.00000
     37       0.6042      2.00000
     38       0.6172      2.00000
     39       0.6487      2.00000
     40       0.6641      2.00000
     41       0.7041      2.00000
     42       0.7477      2.00000
     43       0.8883      2.00000
     44       0.9494      2.00000
     45       1.2453      2.00000
     46       1.3752      2.00000
     47       1.5164      2.00000
     48       1.6361      2.00000
     49       1.7153      2.00000
     50       1.9788      2.00000
     51       2.1097      2.00000
     52       2.3331      2.00000
     53       2.5085      2.00000
     54       2.8800      2.00000
     55       5.0027      0.00000
     56       5.2335      0.00000
     57       6.1776      0.00000
     58       6.4801      0.00000
     59       7.2941      0.00000
     60       7.3658      0.00000
     61       7.8320      0.00000
     62       8.1968      0.00000
     63       8.5979      0.00000
     64       8.7585      0.00000
     65       9.5937      0.00000
     66       9.9819      0.00000
     67      10.2293      0.00000
     68      10.4138      0.00000
     69      10.7418      0.00000
     70      10.9599      0.00000
     71      11.2879      0.00000
     72      11.6465      0.00000
     73      11.9269      0.00000
     74      12.1437      0.00000
     75      12.5493      0.00000
     76      12.9742      0.00000
     77      13.0818      0.00000
     78      13.2342      0.00000
     79      13.4782      0.00000
     80      13.7486      0.00000
     81      14.0659      0.00000
     82      14.2480      0.00000
     83      14.5832      0.00000
     84      14.8055      0.00000
     85      15.0295      0.00000
     86      15.5873      0.00000
     87      15.7819      0.00000
     88      16.1564      0.00000
     89      16.5576      0.00000
     90      16.7991      0.00000
     91      17.0944      0.00000
     92      17.3119      0.00000
     93      17.5542      0.00000
     94      17.9744      0.00000
     95      18.3571      0.00000
     96      18.5050      0.00000
     97      18.9288      0.00000
     98      19.0762      0.00000
     99      19.4992      0.00000
    100      19.6534      0.00000
    101      19.7892      0.00000
    102      19.9522      0.00000
    103      20.3201      0.00000
    104      20.4518      0.00000
    105      20.6320      0.00000
    106      20.7474      0.00000
    107      20.9097      0.00000
    108      21.0720      0.00000
    109      21.2015      0.00000
    110      21.4548      0.00000
    111      21.5832      0.00000
    112      21.8034      0.00000
    113      21.9286      0.00000
    114      22.0575      0.00000
    115      22.2278      0.00000
    116      22.3552      0.00000
    117      22.4067      0.00000
    118      22.6114      0.00000
    119      22.7577      0.00000
    120      23.0103      0.00000
    121      23.1550      0.00000
    122      23.3131      0.00000
    123      23.4837      0.00000
    124      23.6283      0.00000
    125      24.0078      0.00000
    126      24.2656      0.00000
    127      24.4267      0.00000
    128      24.7550      0.00000
    129      24.9931      0.00000
    130      25.1084      0.00000
    131      25.4370      0.00000
    132      25.6979      0.00000
    133      26.5448      0.00000
    134      26.7980      0.00000
    135      27.0559      0.00000
    136      27.2554      0.00000
    137      27.3767      0.00000
    138      27.9039      0.00000
    139      28.2197      0.00000
    140      28.3766      0.00000
    141      28.5927      0.00000

 k-point    67 :      -0.2857    0.2500    0.4286
  band No.  band energies     occupation 
      1     -25.4520      2.00000
      2     -25.4508      2.00000
      3     -25.4385      2.00000
      4     -25.4384      2.00000
      5     -25.4089      2.00000
      6     -25.4088      2.00000
      7     -25.3863      2.00000
      8     -25.3861      2.00000
      9     -25.3809      2.00000
     10     -25.3807      2.00000
     11     -12.3330      2.00000
     12     -12.0456      2.00000
     13     -11.2335      2.00000
     14     -11.2172      2.00000
     15     -11.1266      2.00000
     16     -10.9598      2.00000
     17      -5.9508      2.00000
     18      -5.6894      2.00000
     19      -2.6329      2.00000
     20      -2.5076      2.00000
     21      -2.1153      2.00000
     22      -1.6756      2.00000
     23      -1.6616      2.00000
     24      -1.3016      2.00000
     25      -1.0765      2.00000
     26      -1.0549      2.00000
     27      -0.7645      2.00000
     28      -0.6961      2.00000
     29      -0.6224      2.00000
     30      -0.6102      2.00000
     31      -0.5498      2.00000
     32      -0.5018      2.00000
     33      -0.4327      2.00000
     34      -0.3844      2.00000
     35       0.3934      2.00000
     36       0.5765      2.00000
     37       0.5957      2.00000
     38       0.6287      2.00000
     39       0.6359      2.00000
     40       0.6777      2.00000
     41       0.6798      2.00000
     42       0.7202      2.00000
     43       0.8936      2.00000
     44       0.9388      2.00000
     45       1.0915      2.00000
     46       1.3801      2.00000
     47       1.5084      2.00000
     48       1.8455      2.00000
     49       1.8786      2.00000
     50       2.1252      2.00000
     51       2.2148      2.00000
     52       2.3715      2.00000
     53       2.4838      2.00000
     54       2.8782      2.00000
     55       4.9038      0.00000
     56       5.1314      0.00000
     57       6.1793      0.00000
     58       6.4022      0.00000
     59       7.1330      0.00000
     60       7.1496      0.00000
     61       7.7465      0.00000
     62       8.1787      0.00000
     63       8.4968      0.00000
     64       8.7208      0.00000
     65       9.3697      0.00000
     66       9.8200      0.00000
     67      10.3594      0.00000
     68      10.4269      0.00000
     69      10.9826      0.00000
     70      11.1529      0.00000
     71      11.3282      0.00000
     72      11.3743      0.00000
     73      12.0237      0.00000
     74      12.0727      0.00000
     75      12.3846      0.00000
     76      12.6810      0.00000
     77      13.1617      0.00000
     78      13.7529      0.00000
     79      13.8380      0.00000
     80      13.9770      0.00000
     81      14.3693      0.00000
     82      14.4789      0.00000
     83      14.6734      0.00000
     84      14.9298      0.00000
     85      15.2973      0.00000
     86      15.3738      0.00000
     87      15.9247      0.00000
     88      16.0071      0.00000
     89      16.5701      0.00000
     90      16.9988      0.00000
     91      17.0984      0.00000
     92      17.6245      0.00000
     93      17.6630      0.00000
     94      18.0335      0.00000
     95      18.0744      0.00000
     96      18.5305      0.00000
     97      18.5419      0.00000
     98      18.9013      0.00000
     99      19.0674      0.00000
    100      19.2229      0.00000
    101      19.5146      0.00000
    102      19.5855      0.00000
    103      19.9699      0.00000
    104      20.1401      0.00000
    105      20.2932      0.00000
    106      20.5009      0.00000
    107      20.6631      0.00000
    108      20.8425      0.00000
    109      20.9071      0.00000
    110      21.2513      0.00000
    111      21.4688      0.00000
    112      21.8384      0.00000
    113      21.9195      0.00000
    114      22.1882      0.00000
    115      22.5954      0.00000
    116      22.8118      0.00000
    117      22.8723      0.00000
    118      23.0658      0.00000
    119      23.2909      0.00000
    120      23.4170      0.00000
    121      23.5540      0.00000
    122      23.6965      0.00000
    123      23.8164      0.00000
    124      23.9738      0.00000
    125      24.1589      0.00000
    126      24.2651      0.00000
    127      24.4838      0.00000
    128      24.6797      0.00000
    129      24.8074      0.00000
    130      25.1130      0.00000
    131      25.2178      0.00000
    132      25.8267      0.00000
    133      26.0981      0.00000
    134      26.3865      0.00000
    135      26.6593      0.00000
    136      26.9353      0.00000
    137      27.3005      0.00000
    138      27.8177      0.00000
    139      28.0799      0.00000
    140      28.1771      0.00000
    141      28.6455      0.00000

 k-point    68 :      -0.1429    0.2500    0.4286
  band No.  band energies     occupation 
      1     -25.4519      2.00000
      2     -25.4508      2.00000
      3     -25.4385      2.00000
      4     -25.4384      2.00000
      5     -25.4089      2.00000
      6     -25.4088      2.00000
      7     -25.3863      2.00000
      8     -25.3861      2.00000
      9     -25.3809      2.00000
     10     -25.3807      2.00000
     11     -12.4174      2.00000
     12     -12.0456      2.00000
     13     -11.2660      2.00000
     14     -11.1806      2.00000
     15     -11.0433      2.00000
     16     -10.8943      2.00000
     17      -5.9727      2.00000
     18      -5.7878      2.00000
     19      -2.7102      2.00000
     20      -2.5213      2.00000
     21      -2.1712      2.00000
     22      -1.5703      2.00000
     23      -1.4429      2.00000
     24      -1.3369      2.00000
     25      -1.1714      2.00000
     26      -1.0501      2.00000
     27      -0.8086      2.00000
     28      -0.7268      2.00000
     29      -0.6443      2.00000
     30      -0.6224      2.00000
     31      -0.5803      2.00000
     32      -0.5517      2.00000
     33      -0.4296      2.00000
     34      -0.3940      2.00000
     35       0.4431      2.00000
     36       0.5227      2.00000
     37       0.5856      2.00000
     38       0.5982      2.00000
     39       0.6217      2.00000
     40       0.6575      2.00000
     41       0.6677      2.00000
     42       0.6899      2.00000
     43       0.9694      2.00000
     44       1.0197      2.00000
     45       1.0773      2.00000
     46       1.3597      2.00000
     47       1.6499      2.00000
     48       1.7517      2.00000
     49       1.8825      2.00000
     50       2.1391      2.00000
     51       2.2333      2.00000
     52       2.4150      2.00000
     53       2.5635      2.00000
     54       2.7392      2.00000
     55       5.0146      0.00000
     56       5.1897      0.00000
     57       6.4124      0.00000
     58       6.6438      0.00000
     59       7.0677      0.00000
     60       7.1881      0.00000
     61       7.9969      0.00000
     62       8.3872      0.00000
     63       8.7060      0.00000
     64       8.8646      0.00000
     65       9.1321      0.00000
     66       9.6219      0.00000
     67      10.0466      0.00000
     68      10.2726      0.00000
     69      10.6070      0.00000
     70      10.8016      0.00000
     71      11.2408      0.00000
     72      11.4943      0.00000
     73      11.7580      0.00000
     74      11.8981      0.00000
     75      12.2413      0.00000
     76      12.4686      0.00000
     77      13.2448      0.00000
     78      13.5820      0.00000
     79      13.8490      0.00000
     80      14.1070      0.00000
     81      14.6608      0.00000
     82      14.9510      0.00000
     83      15.1098      0.00000
     84      15.2183      0.00000
     85      15.6126      0.00000
     86      15.7502      0.00000
     87      16.0084      0.00000
     88      16.3447      0.00000
     89      16.6751      0.00000
     90      16.7714      0.00000
     91      16.9931      0.00000
     92      17.5139      0.00000
     93      17.6318      0.00000
     94      17.8895      0.00000
     95      17.9999      0.00000
     96      18.2658      0.00000
     97      18.4002      0.00000
     98      18.5578      0.00000
     99      18.7227      0.00000
    100      18.7794      0.00000
    101      18.9476      0.00000
    102      19.1025      0.00000
    103      19.3320      0.00000
    104      19.4849      0.00000
    105      19.5702      0.00000
    106      19.8982      0.00000
    107      20.1684      0.00000
    108      20.7133      0.00000
    109      20.9371      0.00000
    110      21.1409      0.00000
    111      21.9164      0.00000
    112      22.0858      0.00000
    113      22.4977      0.00000
    114      22.8436      0.00000
    115      22.9711      0.00000
    116      23.0950      0.00000
    117      23.1999      0.00000
    118      23.4391      0.00000
    119      23.5767      0.00000
    120      23.8149      0.00000
    121      24.1856      0.00000
    122      24.2981      0.00000
    123      24.3747      0.00000
    124      24.5992      0.00000
    125      24.7693      0.00000
    126      24.9048      0.00000
    127      25.1091      0.00000
    128      25.2241      0.00000
    129      25.4478      0.00000
    130      25.6437      0.00000
    131      25.9198      0.00000
    132      26.0275      0.00000
    133      26.2495      0.00000
    134      26.3671      0.00000
    135      26.6241      0.00000
    136      26.9203      0.00000
    137      27.1660      0.00000
    138      27.4185      0.00000
    139      27.6118      0.00000
    140      27.7252      0.00000
    141      27.8728      0.00000

 k-point    69 :       0.0000    0.5000    0.4286
  band No.  band energies     occupation 
      1     -25.4519      2.00000
      2     -25.4508      2.00000
      3     -25.4385      2.00000
      4     -25.4383      2.00000
      5     -25.4089      2.00000
      6     -25.4087      2.00000
      7     -25.3863      2.00000
      8     -25.3861      2.00000
      9     -25.3808      2.00000
     10     -25.3807      2.00000
     11     -12.3120      2.00000
     12     -12.0918      2.00000
     13     -11.2987      2.00000
     14     -11.2048      2.00000
     15     -11.0943      2.00000
     16     -10.8942      2.00000
     17      -5.9636      2.00000
     18      -5.7254      2.00000
     19      -2.7778      2.00000
     20      -2.1729      2.00000
     21      -2.1425      2.00000
     22      -1.8459      2.00000
     23      -1.5489      2.00000
     24      -1.3082      2.00000
     25      -1.1138      2.00000
     26      -1.0314      2.00000
     27      -0.8646      2.00000
     28      -0.7040      2.00000
     29      -0.6793      2.00000
     30      -0.5628      2.00000
     31      -0.5224      2.00000
     32      -0.4957      2.00000
     33      -0.4431      2.00000
     34      -0.3746      2.00000
     35       0.4309      2.00000
     36       0.4948      2.00000
     37       0.5792      2.00000
     38       0.5990      2.00000
     39       0.6254      2.00000
     40       0.6528      2.00000
     41       0.6954      2.00000
     42       0.7376      2.00000
     43       0.9120      2.00000
     44       1.1339      2.00000
     45       1.2475      2.00000
     46       1.3178      2.00000
     47       1.4029      2.00000
     48       1.6563      2.00000
     49       1.8601      2.00000
     50       2.0011      2.00000
     51       2.1976      2.00000
     52       2.4439      2.00000
     53       2.6615      2.00000
     54       2.7963      2.00000
     55       4.7928      0.00000
     56       5.2602      0.00000
     57       6.0695      0.00000
     58       6.8148      0.00000
     59       7.2264      0.00000
     60       7.4730      0.00000
     61       7.9305      0.00000
     62       8.1125      0.00000
     63       8.7373      0.00000
     64       9.0101      0.00000
     65       9.4513      0.00000
     66       9.7640      0.00000
     67       9.8922      0.00000
     68      10.2002      0.00000
     69      10.3670      0.00000
     70      10.5211      0.00000
     71      10.5671      0.00000
     72      10.9126      0.00000
     73      11.7408      0.00000
     74      12.2254      0.00000
     75      12.8074      0.00000
     76      13.0224      0.00000
     77      13.2443      0.00000
     78      13.7143      0.00000
     79      13.9825      0.00000
     80      14.1013      0.00000
     81      14.6633      0.00000
     82      14.9420      0.00000
     83      15.0634      0.00000
     84      15.3024      0.00000
     85      15.5702      0.00000
     86      15.9319      0.00000
     87      16.0749      0.00000
     88      16.4178      0.00000
     89      16.7484      0.00000
     90      16.8444      0.00000
     91      17.2004      0.00000
     92      17.4970      0.00000
     93      17.6277      0.00000
     94      17.8740      0.00000
     95      18.0957      0.00000
     96      18.2203      0.00000
     97      18.3687      0.00000
     98      18.5296      0.00000
     99      18.7174      0.00000
    100      18.9466      0.00000
    101      19.0751      0.00000
    102      19.4146      0.00000
    103      19.5246      0.00000
    104      19.6319      0.00000
    105      20.0048      0.00000
    106      20.0804      0.00000
    107      20.1577      0.00000
    108      20.5336      0.00000
    109      21.0424      0.00000
    110      21.2396      0.00000
    111      21.6159      0.00000
    112      21.7279      0.00000
    113      21.9316      0.00000
    114      22.2078      0.00000
    115      22.3474      0.00000
    116      22.6343      0.00000
    117      22.8747      0.00000
    118      23.1146      0.00000
    119      23.2969      0.00000
    120      23.5786      0.00000
    121      23.6916      0.00000
    122      24.1180      0.00000
    123      24.5350      0.00000
    124      24.7608      0.00000
    125      24.8931      0.00000
    126      25.0822      0.00000
    127      25.2407      0.00000
    128      25.3606      0.00000
    129      25.7002      0.00000
    130      26.1435      0.00000
    131      26.3132      0.00000
    132      26.4429      0.00000
    133      26.4820      0.00000
    134      26.6040      0.00000
    135      26.8950      0.00000
    136      27.0686      0.00000
    137      27.1230      0.00000
    138      27.3654      0.00000
    139      27.5234      0.00000
    140      27.6922      0.00000
    141      27.8262      0.00000

 k-point    70 :       0.1429    0.5000    0.4286
  band No.  band energies     occupation 
      1     -25.4519      2.00000
      2     -25.4508      2.00000
      3     -25.4385      2.00000
      4     -25.4383      2.00000
      5     -25.4089      2.00000
      6     -25.4087      2.00000
      7     -25.3863      2.00000
      8     -25.3861      2.00000
      9     -25.3809      2.00000
     10     -25.3807      2.00000
     11     -12.3284      2.00000
     12     -12.0699      2.00000
     13     -11.3288      2.00000
     14     -11.1850      2.00000
     15     -11.0741      2.00000
     16     -10.9100      2.00000
     17      -5.9302      2.00000
     18      -5.7484      2.00000
     19      -2.7473      2.00000
     20      -2.2242      2.00000
     21      -2.1158      2.00000
     22      -1.9523      2.00000
     23      -1.4529      2.00000
     24      -1.3284      2.00000
     25      -1.2433      2.00000
     26      -1.0410      2.00000
     27      -0.7915      2.00000
     28      -0.7108      2.00000
     29      -0.6441      2.00000
     30      -0.5591      2.00000
     31      -0.5377      2.00000
     32      -0.4890      2.00000
     33      -0.4215      2.00000
     34      -0.3713      2.00000
     35       0.4139      2.00000
     36       0.5355      2.00000
     37       0.5886      2.00000
     38       0.6021      2.00000
     39       0.6361      2.00000
     40       0.6577      2.00000
     41       0.7118      2.00000
     42       0.7187      2.00000
     43       0.9056      2.00000
     44       1.1053      2.00000
     45       1.2070      2.00000
     46       1.3495      2.00000
     47       1.3963      2.00000
     48       1.6373      2.00000
     49       1.8371      2.00000
     50       2.0205      2.00000
     51       2.2225      2.00000
     52       2.5065      2.00000
     53       2.6785      2.00000
     54       2.9026      2.00000
     55       4.7357      0.00000
     56       5.1949      0.00000
     57       6.1632      0.00000
     58       6.6124      0.00000
     59       7.0636      0.00000
     60       7.4272      0.00000
     61       7.8741      0.00000
     62       8.1443      0.00000
     63       8.5728      0.00000
     64       9.1342      0.00000
     65       9.2982      0.00000
     66       9.6172      0.00000
     67      10.0408      0.00000
     68      10.3029      0.00000
     69      10.4281      0.00000
     70      10.7081      0.00000
     71      11.1003      0.00000
     72      11.2156      0.00000
     73      12.0427      0.00000
     74      12.1620      0.00000
     75      12.6190      0.00000
     76      12.7755      0.00000
     77      13.2184      0.00000
     78      13.8459      0.00000
     79      14.0847      0.00000
     80      14.1628      0.00000
     81      14.4433      0.00000
     82      14.6179      0.00000
     83      14.9547      0.00000
     84      15.0859      0.00000
     85      15.4216      0.00000
     86      15.6181      0.00000
     87      15.7122      0.00000
     88      16.4133      0.00000
     89      16.5128      0.00000
     90      16.6954      0.00000
     91      17.2123      0.00000
     92      17.4323      0.00000
     93      17.6536      0.00000
     94      17.8269      0.00000
     95      18.0498      0.00000
     96      18.2620      0.00000
     97      18.5575      0.00000
     98      18.7283      0.00000
     99      18.8703      0.00000
    100      19.0288      0.00000
    101      19.2670      0.00000
    102      19.5433      0.00000
    103      19.7261      0.00000
    104      20.0594      0.00000
    105      20.1897      0.00000
    106      20.5071      0.00000
    107      20.7344      0.00000
    108      20.9649      0.00000
    109      21.1177      0.00000
    110      21.3447      0.00000
    111      21.5620      0.00000
    112      21.7280      0.00000
    113      21.8734      0.00000
    114      22.1008      0.00000
    115      22.4028      0.00000
    116      22.5070      0.00000
    117      22.8579      0.00000
    118      23.0381      0.00000
    119      23.1645      0.00000
    120      23.3873      0.00000
    121      23.6622      0.00000
    122      23.7439      0.00000
    123      24.2555      0.00000
    124      24.5063      0.00000
    125      24.7283      0.00000
    126      24.8552      0.00000
    127      25.1194      0.00000
    128      25.2527      0.00000
    129      25.5671      0.00000
    130      25.6408      0.00000
    131      25.7500      0.00000
    132      25.9065      0.00000
    133      26.0590      0.00000
    134      26.3126      0.00000
    135      26.4874      0.00000
    136      26.6914      0.00000
    137      26.7982      0.00000
    138      27.1096      0.00000
    139      27.2597      0.00000
    140      27.7771      0.00000
    141      27.9777      0.00000

 k-point    71 :       0.2857    0.5000    0.4286
  band No.  band energies     occupation 
      1     -25.4519      2.00000
      2     -25.4508      2.00000
      3     -25.4385      2.00000
      4     -25.4383      2.00000
      5     -25.4090      2.00000
      6     -25.4088      2.00000
      7     -25.3863      2.00000
      8     -25.3862      2.00000
      9     -25.3809      2.00000
     10     -25.3807      2.00000
     11     -12.3148      2.00000
     12     -12.0594      2.00000
     13     -11.3882      2.00000
     14     -11.1878      2.00000
     15     -11.0128      2.00000
     16     -10.9482      2.00000
     17      -5.8879      2.00000
     18      -5.7280      2.00000
     19      -2.6496      2.00000
     20      -2.2560      2.00000
     21      -2.1425      2.00000
     22      -1.9463      2.00000
     23      -1.4867      2.00000
     24      -1.3571      2.00000
     25      -1.2620      2.00000
     26      -0.9895      2.00000
     27      -0.8546      2.00000
     28      -0.7872      2.00000
     29      -0.6179      2.00000
     30      -0.5585      2.00000
     31      -0.5136      2.00000
     32      -0.4845      2.00000
     33      -0.4100      2.00000
     34      -0.3759      2.00000
     35       0.4242      2.00000
     36       0.5558      2.00000
     37       0.5886      2.00000
     38       0.6089      2.00000
     39       0.6351      2.00000
     40       0.6635      2.00000
     41       0.6941      2.00000
     42       0.7511      2.00000
     43       0.9123      2.00000
     44       1.0299      2.00000
     45       1.2150      2.00000
     46       1.3169      2.00000
     47       1.5104      2.00000
     48       1.6592      2.00000
     49       1.8086      2.00000
     50       1.9127      2.00000
     51       2.0788      2.00000
     52       2.4320      2.00000
     53       2.5218      2.00000
     54       2.9175      2.00000
     55       4.9018      0.00000
     56       5.2971      0.00000
     57       6.4058      0.00000
     58       6.6756      0.00000
     59       6.9718      0.00000
     60       7.4418      0.00000
     61       7.8911      0.00000
     62       8.3006      0.00000
     63       8.5371      0.00000
     64       8.9935      0.00000
     65       9.4562      0.00000
     66       9.7428      0.00000
     67       9.8820      0.00000
     68      10.2712      0.00000
     69      10.6100      0.00000
     70      11.0477      0.00000
     71      11.3887      0.00000
     72      11.6319      0.00000
     73      11.7607      0.00000
     74      12.1045      0.00000
     75      12.4019      0.00000
     76      12.5811      0.00000
     77      13.1807      0.00000
     78      13.5321      0.00000
     79      13.7838      0.00000
     80      13.9073      0.00000
     81      14.4587      0.00000
     82      14.5558      0.00000
     83      14.7187      0.00000
     84      15.0104      0.00000
     85      15.1424      0.00000
     86      15.4325      0.00000
     87      15.7510      0.00000
     88      16.0283      0.00000
     89      16.3681      0.00000
     90      16.8258      0.00000
     91      17.0444      0.00000
     92      17.3341      0.00000
     93      17.5105      0.00000
     94      17.7822      0.00000
     95      18.1094      0.00000
     96      18.4587      0.00000
     97      18.7717      0.00000
     98      19.0264      0.00000
     99      19.1584      0.00000
    100      19.5997      0.00000
    101      19.6969      0.00000
    102      19.8591      0.00000
    103      20.0259      0.00000
    104      20.2032      0.00000
    105      20.4512      0.00000
    106      20.6006      0.00000
    107      20.8310      0.00000
    108      21.0247      0.00000
    109      21.2833      0.00000
    110      21.3878      0.00000
    111      21.5630      0.00000
    112      21.8342      0.00000
    113      21.9967      0.00000
    114      22.1109      0.00000
    115      22.3559      0.00000
    116      22.5442      0.00000
    117      22.6667      0.00000
    118      22.9960      0.00000
    119      23.1219      0.00000
    120      23.2335      0.00000
    121      23.5087      0.00000
    122      23.7337      0.00000
    123      23.8686      0.00000
    124      23.9568      0.00000
    125      24.1296      0.00000
    126      24.3938      0.00000
    127      24.7722      0.00000
    128      25.0752      0.00000
    129      25.2106      0.00000
    130      25.2989      0.00000
    131      25.4589      0.00000
    132      25.6124      0.00000
    133      25.8408      0.00000
    134      26.0232      0.00000
    135      26.3673      0.00000
    136      26.7523      0.00000
    137      27.2195      0.00000
    138      27.3970      0.00000
    139      27.9183      0.00000
    140      28.3113      0.00000
    141      28.5176      0.00000

 k-point    72 :       0.4286    0.5000    0.4286
  band No.  band energies     occupation 
      1     -25.4519      2.00000
      2     -25.4508      2.00000
      3     -25.4385      2.00000
      4     -25.4384      2.00000
      5     -25.4090      2.00000
      6     -25.4089      2.00000
      7     -25.3864      2.00000
      8     -25.3862      2.00000
      9     -25.3810      2.00000
     10     -25.3808      2.00000
     11     -12.2831      2.00000
     12     -12.0611      2.00000
     13     -11.4175      2.00000
     14     -11.2538      2.00000
     15     -10.9635      2.00000
     16     -10.9484      2.00000
     17      -5.8774      2.00000
     18      -5.6788      2.00000
     19      -2.6014      2.00000
     20      -2.3618      2.00000
     21      -1.9671      2.00000
     22      -1.8242      2.00000
     23      -1.5513      2.00000
     24      -1.3708      2.00000
     25      -1.1844      2.00000
     26      -1.0019      2.00000
     27      -0.9833      2.00000
     28      -0.9019      2.00000
     29      -0.6033      2.00000
     30      -0.5795      2.00000
     31      -0.4969      2.00000
     32      -0.4699      2.00000
     33      -0.4422      2.00000
     34      -0.3717      2.00000
     35       0.4775      2.00000
     36       0.5351      2.00000
     37       0.5664      2.00000
     38       0.5973      2.00000
     39       0.6327      2.00000
     40       0.6644      2.00000
     41       0.6842      2.00000
     42       0.6903      2.00000
     43       1.0162      2.00000
     44       1.0701      2.00000
     45       1.2554      2.00000
     46       1.2690      2.00000
     47       1.5285      2.00000
     48       1.5942      2.00000
     49       1.8098      2.00000
     50       1.9591      2.00000
     51       2.0250      2.00000
     52       2.2036      2.00000
     53       2.3049      2.00000
     54       2.5753      2.00000
     55       5.2549      0.00000
     56       5.5021      0.00000
     57       6.7080      0.00000
     58       6.9208      0.00000
     59       7.1082      0.00000
     60       7.4119      0.00000
     61       8.1658      0.00000
     62       8.2778      0.00000
     63       8.9025      0.00000
     64       9.2572      0.00000
     65       9.3575      0.00000
     66       9.6581      0.00000
     67       9.9621      0.00000
     68      10.2467      0.00000
     69      10.4473      0.00000
     70      10.6276      0.00000
     71      11.1779      0.00000
     72      11.3405      0.00000
     73      11.7271      0.00000
     74      11.8475      0.00000
     75      11.9672      0.00000
     76      12.5890      0.00000
     77      12.8673      0.00000
     78      13.3219      0.00000
     79      13.5536      0.00000
     80      13.9580      0.00000
     81      14.3752      0.00000
     82      14.4544      0.00000
     83      15.0255      0.00000
     84      15.2709      0.00000
     85      15.4325      0.00000
     86      15.9535      0.00000
     87      16.2746      0.00000
     88      16.3516      0.00000
     89      16.5545      0.00000
     90      16.7262      0.00000
     91      17.1692      0.00000
     92      17.4727      0.00000
     93      17.6619      0.00000
     94      17.8567      0.00000
     95      18.1443      0.00000
     96      18.2799      0.00000
     97      18.5023      0.00000
     98      18.6568      0.00000
     99      18.8439      0.00000
    100      19.1200      0.00000
    101      19.3127      0.00000
    102      19.5167      0.00000
    103      19.6909      0.00000
    104      20.0105      0.00000
    105      20.2342      0.00000
    106      20.5393      0.00000
    107      20.7067      0.00000
    108      20.9741      0.00000
    109      21.1818      0.00000
    110      21.3148      0.00000
    111      21.4092      0.00000
    112      21.8418      0.00000
    113      22.0628      0.00000
    114      22.4559      0.00000
    115      22.5650      0.00000
    116      22.7471      0.00000
    117      22.9581      0.00000
    118      23.0979      0.00000
    119      23.4835      0.00000
    120      23.5650      0.00000
    121      23.7398      0.00000
    122      23.8991      0.00000
    123      23.9908      0.00000
    124      24.1948      0.00000
    125      24.3539      0.00000
    126      24.4999      0.00000
    127      24.8059      0.00000
    128      25.0862      0.00000
    129      25.1534      0.00000
    130      25.3381      0.00000
    131      25.6007      0.00000
    132      26.1613      0.00000
    133      26.3524      0.00000
    134      26.8326      0.00000
    135      26.9350      0.00000
    136      27.1278      0.00000
    137      27.3321      0.00000
    138      27.3934      0.00000
    139      27.6396      0.00000
    140      27.8777      0.00000
    141      28.1570      0.00000

 k-point    73 :      -0.4286    0.5000    0.4286
  band No.  band energies     occupation 
      1     -25.4519      2.00000
      2     -25.4508      2.00000
      3     -25.4386      2.00000
      4     -25.4384      2.00000
      5     -25.4090      2.00000
      6     -25.4089      2.00000
      7     -25.3864      2.00000
      8     -25.3862      2.00000
      9     -25.3810      2.00000
     10     -25.3808      2.00000
     11     -12.2606      2.00000
     12     -12.0740      2.00000
     13     -11.3833      2.00000
     14     -11.3097      2.00000
     15     -11.0119      2.00000
     16     -10.8971      2.00000
     17      -5.8995      2.00000
     18      -5.6209      2.00000
     19      -2.5207      2.00000
     20      -2.4414      2.00000
     21      -1.8795      2.00000
     22      -1.8034      2.00000
     23      -1.5794      2.00000
     24      -1.4578      2.00000
     25      -1.1319      2.00000
     26      -1.0589      2.00000
     27      -0.9926      2.00000
     28      -0.8883      2.00000
     29      -0.6069      2.00000
     30      -0.5908      2.00000
     31      -0.4980      2.00000
     32      -0.4853      2.00000
     33      -0.4051      2.00000
     34      -0.4025      2.00000
     35       0.5132      2.00000
     36       0.5240      2.00000
     37       0.5680      2.00000
     38       0.5941      2.00000
     39       0.6463      2.00000
     40       0.6567      2.00000
     41       0.6784      2.00000
     42       0.6952      2.00000
     43       1.0126      2.00000
     44       1.0481      2.00000
     45       1.2523      2.00000
     46       1.2927      2.00000
     47       1.5429      2.00000
     48       1.6342      2.00000
     49       1.7339      2.00000
     50       1.8703      2.00000
     51       2.0714      2.00000
     52       2.1912      2.00000
     53       2.2900      2.00000
     54       2.4296      2.00000
     55       5.4124      0.00000
     56       5.4681      0.00000
     57       6.7362      0.00000
     58       6.8573      0.00000
     59       7.2440      0.00000
     60       7.4857      0.00000
     61       8.2318      0.00000
     62       8.3106      0.00000
     63       9.1834      0.00000
     64       9.2108      0.00000
     65       9.4713      0.00000
     66       9.6407      0.00000
     67       9.9961      0.00000
     68      10.1476      0.00000
     69      10.5834      0.00000
     70      10.7346      0.00000
     71      10.9880      0.00000
     72      11.2761      0.00000
     73      11.5466      0.00000
     74      11.8667      0.00000
     75      11.8931      0.00000
     76      12.5464      0.00000
     77      12.8944      0.00000
     78      13.0606      0.00000
     79      13.3611      0.00000
     80      13.5647      0.00000
     81      14.3333      0.00000
     82      14.3842      0.00000
     83      14.9648      0.00000
     84      15.1659      0.00000
     85      15.8552      0.00000
     86      16.1130      0.00000
     87      16.2633      0.00000
     88      16.5431      0.00000
     89      16.8266      0.00000
     90      17.1641      0.00000
     91      17.3147      0.00000
     92      17.5513      0.00000
     93      17.7151      0.00000
     94      17.7771      0.00000
     95      17.9118      0.00000
     96      18.1256      0.00000
     97      18.3865      0.00000
     98      18.4907      0.00000
     99      18.6183      0.00000
    100      19.0837      0.00000
    101      19.2277      0.00000
    102      19.3841      0.00000
    103      19.7483      0.00000
    104      19.8457      0.00000
    105      20.2072      0.00000
    106      20.5483      0.00000
    107      20.7027      0.00000
    108      20.9565      0.00000
    109      21.1233      0.00000
    110      21.2539      0.00000
    111      21.6600      0.00000
    112      21.8126      0.00000
    113      22.1873      0.00000
    114      22.4985      0.00000
    115      22.6379      0.00000
    116      22.7949      0.00000
    117      23.0025      0.00000
    118      23.0675      0.00000
    119      23.3181      0.00000
    120      23.5685      0.00000
    121      23.7905      0.00000
    122      23.9512      0.00000
    123      24.2961      0.00000
    124      24.4257      0.00000
    125      24.5116      0.00000
    126      24.7029      0.00000
    127      24.9569      0.00000
    128      25.1688      0.00000
    129      25.4244      0.00000
    130      25.4851      0.00000
    131      25.7851      0.00000
    132      25.9009      0.00000
    133      26.0997      0.00000
    134      26.6244      0.00000
    135      26.9468      0.00000
    136      27.0984      0.00000
    137      27.2155      0.00000
    138      27.3137      0.00000
    139      27.5624      0.00000
    140      27.7005      0.00000
    141      28.0239      0.00000

 k-point    74 :      -0.2857    0.5000    0.4286
  band No.  band energies     occupation 
      1     -25.4519      2.00000
      2     -25.4508      2.00000
      3     -25.4385      2.00000
      4     -25.4384      2.00000
      5     -25.4089      2.00000
      6     -25.4089      2.00000
      7     -25.3864      2.00000
      8     -25.3862      2.00000
      9     -25.3810      2.00000
     10     -25.3808      2.00000
     11     -12.2590      2.00000
     12     -12.0979      2.00000
     13     -11.3331      2.00000
     14     -11.2821      2.00000
     15     -11.0637      2.00000
     16     -10.8961      2.00000
     17      -5.9320      2.00000
     18      -5.6064      2.00000
     19      -2.5363      2.00000
     20      -2.3290      2.00000
     21      -2.0055      2.00000
     22      -1.9415      2.00000
     23      -1.6719      2.00000
     24      -1.3809      2.00000
     25      -1.1589      2.00000
     26      -0.9967      2.00000
     27      -0.9163      2.00000
     28      -0.7926      2.00000
     29      -0.6308      2.00000
     30      -0.5811      2.00000
     31      -0.5094      2.00000
     32      -0.4498      2.00000
     33      -0.4449      2.00000
     34      -0.3992      2.00000
     35       0.4745      2.00000
     36       0.5373      2.00000
     37       0.5958      2.00000
     38       0.6062      2.00000
     39       0.6467      2.00000
     40       0.6568      2.00000
     41       0.6875      2.00000
     42       0.7375      2.00000
     43       0.9477      2.00000
     44       0.9936      2.00000
     45       1.2700      2.00000
     46       1.3842      2.00000
     47       1.4716      2.00000
     48       1.6364      2.00000
     49       1.6883      2.00000
     50       1.8873      2.00000
     51       2.0093      2.00000
     52       2.2339      2.00000
     53       2.4495      2.00000
     54       2.7700      2.00000
     55       5.2121      0.00000
     56       5.3388      0.00000
     57       6.4051      0.00000
     58       6.6524      0.00000
     59       7.4303      0.00000
     60       7.4901      0.00000
     61       7.9856      0.00000
     62       8.3277      0.00000
     63       8.8046      0.00000
     64       8.9815      0.00000
     65       9.5607      0.00000
     66       9.9229      0.00000
     67      10.1081      0.00000
     68      10.4414      0.00000
     69      10.5775      0.00000
     70      10.8384      0.00000
     71      11.1152      0.00000
     72      11.5313      0.00000
     73      11.7436      0.00000
     74      11.9248      0.00000
     75      12.1638      0.00000
     76      12.7258      0.00000
     77      12.9133      0.00000
     78      13.0921      0.00000
     79      13.3922      0.00000
     80      13.6005      0.00000
     81      14.0674      0.00000
     82      14.4208      0.00000
     83      14.5950      0.00000
     84      14.8186      0.00000
     85      15.3634      0.00000
     86      15.9018      0.00000
     87      16.2048      0.00000
     88      16.3239      0.00000
     89      16.5847      0.00000
     90      16.9279      0.00000
     91      17.1207      0.00000
     92      17.3368      0.00000
     93      17.6445      0.00000
     94      17.7728      0.00000
     95      18.0776      0.00000
     96      18.2809      0.00000
     97      18.7628      0.00000
     98      18.9318      0.00000
     99      19.1779      0.00000
    100      19.4574      0.00000
    101      19.6679      0.00000
    102      19.8467      0.00000
    103      20.0708      0.00000
    104      20.2522      0.00000
    105      20.4048      0.00000
    106      20.5880      0.00000
    107      20.8032      0.00000
    108      20.9723      0.00000
    109      21.3479      0.00000
    110      21.5216      0.00000
    111      21.6295      0.00000
    112      21.8954      0.00000
    113      22.0136      0.00000
    114      22.1556      0.00000
    115      22.2146      0.00000
    116      22.4810      0.00000
    117      22.5406      0.00000
    118      22.6203      0.00000
    119      22.9265      0.00000
    120      23.2949      0.00000
    121      23.4237      0.00000
    122      23.8304      0.00000
    123      24.1006      0.00000
    124      24.2833      0.00000
    125      24.4606      0.00000
    126      24.6607      0.00000
    127      24.7275      0.00000
    128      24.9678      0.00000
    129      25.1842      0.00000
    130      25.3959      0.00000
    131      25.5572      0.00000
    132      25.9880      0.00000
    133      26.1315      0.00000
    134      26.5541      0.00000
    135      26.7105      0.00000
    136      27.0824      0.00000
    137      27.3164      0.00000
    138      27.4615      0.00000
    139      27.8738      0.00000
    140      28.0518      0.00000
    141      28.4791      0.00000

 k-point    75 :      -0.1429    0.5000    0.4286
  band No.  band energies     occupation 
      1     -25.4519      2.00000
      2     -25.4508      2.00000
      3     -25.4385      2.00000
      4     -25.4383      2.00000
      5     -25.4089      2.00000
      6     -25.4088      2.00000
      7     -25.3863      2.00000
      8     -25.3861      2.00000
      9     -25.3809      2.00000
     10     -25.3807      2.00000
     11     -12.2804      2.00000
     12     -12.1067      2.00000
     13     -11.3175      2.00000
     14     -11.2284      2.00000
     15     -11.0626      2.00000
     16     -10.9175      2.00000
     17      -5.9601      2.00000
     18      -5.6593      2.00000
     19      -2.6826      2.00000
     20      -2.1723      2.00000
     21      -2.0945      2.00000
     22      -1.8859      2.00000
     23      -1.7510      2.00000
     24      -1.3002      2.00000
     25      -1.1364      2.00000
     26      -0.9619      2.00000
     27      -0.8654      2.00000
     28      -0.7487      2.00000
     29      -0.6528      2.00000
     30      -0.5646      2.00000
     31      -0.5308      2.00000
     32      -0.4809      2.00000
     33      -0.4407      2.00000
     34      -0.3904      2.00000
     35       0.4238      2.00000
     36       0.5390      2.00000
     37       0.5930      2.00000
     38       0.6090      2.00000
     39       0.6238      2.00000
     40       0.6546      2.00000
     41       0.7001      2.00000
     42       0.7528      2.00000
     43       0.9503      2.00000
     44       1.0736      2.00000
     45       1.1786      2.00000
     46       1.3518      2.00000
     47       1.5126      2.00000
     48       1.6068      2.00000
     49       1.7103      2.00000
     50       1.9095      2.00000
     51       2.1890      2.00000
     52       2.3761      2.00000
     53       2.5627      2.00000
     54       2.8081      2.00000
     55       5.0031      0.00000
     56       5.2804      0.00000
     57       6.1666      0.00000
     58       6.6516      0.00000
     59       7.3571      0.00000
     60       7.5686      0.00000
     61       7.9153      0.00000
     62       8.2381      0.00000
     63       8.6943      0.00000
     64       8.9863      0.00000
     65       9.3704      0.00000
     66       9.8130      0.00000
     67      10.0882      0.00000
     68      10.2733      0.00000
     69      10.4242      0.00000
     70      10.6443      0.00000
     71      10.9940      0.00000
     72      11.2861      0.00000
     73      11.7386      0.00000
     74      12.0294      0.00000
     75      12.8149      0.00000
     76      12.9910      0.00000
     77      13.1907      0.00000
     78      13.4322      0.00000
     79      13.5355      0.00000
     80      13.7418      0.00000
     81      14.2513      0.00000
     82      14.5830      0.00000
     83      14.8736      0.00000
     84      15.0761      0.00000
     85      15.3094      0.00000
     86      15.7903      0.00000
     87      16.1985      0.00000
     88      16.2713      0.00000
     89      16.6694      0.00000
     90      16.7571      0.00000
     91      17.0674      0.00000
     92      17.2952      0.00000
     93      17.7366      0.00000
     94      17.9060      0.00000
     95      18.0942      0.00000
     96      18.2799      0.00000
     97      18.5351      0.00000
     98      18.9038      0.00000
     99      19.0616      0.00000
    100      19.3687      0.00000
    101      19.5090      0.00000
    102      19.6377      0.00000
    103      19.9053      0.00000
    104      19.9913      0.00000
    105      20.3192      0.00000
    106      20.4450      0.00000
    107      20.6716      0.00000
    108      20.9567      0.00000
    109      21.0477      0.00000
    110      21.3065      0.00000
    111      21.4719      0.00000
    112      21.6695      0.00000
    113      22.0291      0.00000
    114      22.1633      0.00000
    115      22.3096      0.00000
    116      22.5405      0.00000
    117      22.6689      0.00000
    118      22.8967      0.00000
    119      23.1219      0.00000
    120      23.3279      0.00000
    121      23.4589      0.00000
    122      23.6532      0.00000
    123      23.9153      0.00000
    124      24.0494      0.00000
    125      24.2281      0.00000
    126      24.6187      0.00000
    127      24.8463      0.00000
    128      25.4999      0.00000
    129      25.6280      0.00000
    130      25.7999      0.00000
    131      25.9267      0.00000
    132      26.4428      0.00000
    133      26.5831      0.00000
    134      26.7089      0.00000
    135      27.1002      0.00000
    136      27.2331      0.00000
    137      27.4656      0.00000
    138      27.6137      0.00000
    139      27.6789      0.00000
    140      27.9362      0.00000
    141      28.1878      0.00000

 k-point    76 :       0.3438    0.3438    0.5000
  band No.  band energies     occupation 
      1     -25.4536      2.00000
      2     -25.4536      2.00000
      3     -25.4407      2.00000
      4     -25.4407      2.00000
      5     -25.4112      2.00000
      6     -25.4112      2.00000
      7     -25.3886      2.00000
      8     -25.3886      2.00000
      9     -25.3832      2.00000
     10     -25.3832      2.00000
     11     -12.2188      2.00000
     12     -12.2188      2.00000
     13     -11.3072      2.00000
     14     -11.3072      2.00000
     15     -10.9265      2.00000
     16     -10.9265      2.00000
     17      -5.7978      2.00000
     18      -5.7978      2.00000
     19      -2.4857      2.00000
     20      -2.4857      2.00000
     21      -1.8913      2.00000
     22      -1.8913      2.00000
     23      -1.4458      2.00000
     24      -1.4458      2.00000
     25      -1.2008      2.00000
     26      -1.2008      2.00000
     27      -0.8900      2.00000
     28      -0.8900      2.00000
     29      -0.6348      2.00000
     30      -0.6348      2.00000
     31      -0.4946      2.00000
     32      -0.4946      2.00000
     33      -0.4238      2.00000
     34      -0.4238      2.00000
     35       0.5258      2.00000
     36       0.5258      2.00000
     37       0.5624      2.00000
     38       0.5624      2.00000
     39       0.6437      2.00000
     40       0.6437      2.00000
     41       0.6973      2.00000
     42       0.6973      2.00000
     43       1.0684      2.00000
     44       1.0684      2.00000
     45       1.2529      2.00000
     46       1.2529      2.00000
     47       1.5260      2.00000
     48       1.5260      2.00000
     49       1.8275      2.00000
     50       1.8275      2.00000
     51       2.0876      2.00000
     52       2.0876      2.00000
     53       2.4916      2.00000
     54       2.4916      2.00000
     55       5.4480      0.00000
     56       5.4480      0.00000
     57       6.8641      0.00000
     58       6.8641      0.00000
     59       7.6178      0.00000
     60       7.6178      0.00000
     61       8.2741      0.00000
     62       8.2741      0.00000
     63       9.2639      0.00000
     64       9.2639      0.00000
     65       9.6819      0.00000
     66       9.6819      0.00000
     67       9.9187      0.00000
     68       9.9187      0.00000
     69      10.4830      0.00000
     70      10.4830      0.00000
     71      10.9674      0.00000
     72      10.9674      0.00000
     73      11.4997      0.00000
     74      11.4997      0.00000
     75      12.2265      0.00000
     76      12.2265      0.00000
     77      12.8846      0.00000
     78      12.8846      0.00000
     79      13.5931      0.00000
     80      13.5931      0.00000
     81      14.4930      0.00000
     82      14.4930      0.00000
     83      15.1093      0.00000
     84      15.1093      0.00000
     85      15.8065      0.00000
     86      15.8065      0.00000
     87      16.3861      0.00000
     88      16.3861      0.00000
     89      17.1382      0.00000
     90      17.1382      0.00000
     91      17.3131      0.00000
     92      17.3131      0.00000
     93      17.5785      0.00000
     94      17.5785      0.00000
     95      18.1174      0.00000
     96      18.1174      0.00000
     97      18.4126      0.00000
     98      18.4126      0.00000
     99      18.6450      0.00000
    100      18.6450      0.00000
    101      18.9942      0.00000
    102      18.9942      0.00000
    103      19.6732      0.00000
    104      19.6732      0.00000
    105      20.3236      0.00000
    106      20.3236      0.00000
    107      20.7181      0.00000
    108      20.7181      0.00000
    109      21.2919      0.00000
    110      21.2919      0.00000
    111      21.9452      0.00000
    112      21.9452      0.00000
    113      22.3268      0.00000
    114      22.3268      0.00000
    115      22.9971      0.00000
    116      22.9971      0.00000
    117      23.3030      0.00000
    118      23.3030      0.00000
    119      23.8057      0.00000
    120      23.8057      0.00000
    121      24.1050      0.00000
    122      24.1050      0.00000
    123      24.5507      0.00000
    124      24.5507      0.00000
    125      25.0962      0.00000
    126      25.0962      0.00000
    127      25.5106      0.00000
    128      25.5106      0.00000
    129      25.7176      0.00000
    130      25.7176      0.00000
    131      26.0452      0.00000
    132      26.0452      0.00000
    133      26.4857      0.00000
    134      26.4857      0.00000
    135      26.7341      0.00000
    136      26.7341      0.00000
    137      26.8519      0.00000
    138      26.8519      0.00000
    139      27.4632      0.00000
    140      27.4639      0.00000
    141      27.7295      0.00000

 k-point    77 :       0.3594    0.3594    0.5000
  band No.  band energies     occupation 
      1     -25.4538      2.00000
      2     -25.4538      2.00000
      3     -25.4409      2.00000
      4     -25.4409      2.00000
      5     -25.4114      2.00000
      6     -25.4114      2.00000
      7     -25.3887      2.00000
      8     -25.3887      2.00000
      9     -25.3834      2.00000
     10     -25.3834      2.00000
     11     -12.2107      2.00000
     12     -12.2107      2.00000
     13     -11.3152      2.00000
     14     -11.3152      2.00000
     15     -10.9316      2.00000
     16     -10.9316      2.00000
     17      -5.7914      2.00000
     18      -5.7914      2.00000
     19      -2.4886      2.00000
     20      -2.4886      2.00000
     21      -1.8802      2.00000
     22      -1.8802      2.00000
     23      -1.4501      2.00000
     24      -1.4501      2.00000
     25      -1.1949      2.00000
     26      -1.1949      2.00000
     27      -0.8937      2.00000
     28      -0.8937      2.00000
     29      -0.6299      2.00000
     30      -0.6299      2.00000
     31      -0.4946      2.00000
     32      -0.4946      2.00000
     33      -0.4212      2.00000
     34      -0.4212      2.00000
     35       0.5239      2.00000
     36       0.5239      2.00000
     37       0.5636      2.00000
     38       0.5636      2.00000
     39       0.6443      2.00000
     40       0.6443      2.00000
     41       0.6947      2.00000
     42       0.6947      2.00000
     43       1.0753      2.00000
     44       1.0753      2.00000
     45       1.2530      2.00000
     46       1.2530      2.00000
     47       1.5348      2.00000
     48       1.5348      2.00000
     49       1.8192      2.00000
     50       1.8192      2.00000
     51       2.0865      2.00000
     52       2.0865      2.00000
     53       2.4632      2.00000
     54       2.4632      2.00000
     55       5.4527      0.00000
     56       5.4527      0.00000
     57       6.8668      0.00000
     58       6.8668      0.00000
     59       7.5692      0.00000
     60       7.5692      0.00000
     61       8.2664      0.00000
     62       8.2664      0.00000
     63       9.2664      0.00000
     64       9.2664      0.00000
     65       9.6604      0.00000
     66       9.6604      0.00000
     67       9.9234      0.00000
     68       9.9234      0.00000
     69      10.5180      0.00000
     70      10.5180      0.00000
     71      10.9852      0.00000
     72      10.9852      0.00000
     73      11.4853      0.00000
     74      11.4853      0.00000
     75      12.2738      0.00000
     76      12.2738      0.00000
     77      12.8398      0.00000
     78      12.8398      0.00000
     79      13.5891      0.00000
     80      13.5891      0.00000
     81      14.5697      0.00000
     82      14.5697      0.00000
     83      15.0752      0.00000
     84      15.0752      0.00000
     85      15.8586      0.00000
     86      15.8586      0.00000
     87      16.4174      0.00000
     88      16.4174      0.00000
     89      17.1339      0.00000
     90      17.1339      0.00000
     91      17.3238      0.00000
     92      17.3238      0.00000
     93      17.5975      0.00000
     94      17.5975      0.00000
     95      18.1217      0.00000
     96      18.1217      0.00000
     97      18.4108      0.00000
     98      18.4108      0.00000
     99      18.6338      0.00000
    100      18.6338      0.00000
    101      18.9661      0.00000
    102      18.9661      0.00000
    103      19.7852      0.00000
    104      19.7852      0.00000
    105      20.2457      0.00000
    106      20.2457      0.00000
    107      20.6936      0.00000
    108      20.6936      0.00000
    109      21.2807      0.00000
    110      21.2807      0.00000
    111      21.8967      0.00000
    112      21.8967      0.00000
    113      22.2932      0.00000
    114      22.2932      0.00000
    115      23.0333      0.00000
    116      23.0333      0.00000
    117      23.3032      0.00000
    118      23.3032      0.00000
    119      23.7562      0.00000
    120      23.7562      0.00000
    121      24.1024      0.00000
    122      24.1024      0.00000
    123      24.5222      0.00000
    124      24.5222      0.00000
    125      24.9801      0.00000
    126      24.9801      0.00000
    127      25.4052      0.00000
    128      25.4052      0.00000
    129      25.7059      0.00000
    130      25.7059      0.00000
    131      26.0161      0.00000
    132      26.0161      0.00000
    133      26.4575      0.00000
    134      26.4575      0.00000
    135      26.7109      0.00000
    136      26.7109      0.00000
    137      26.9366      0.00000
    138      26.9366      0.00000
    139      27.4517      0.00000
    140      27.4517      0.00000
    141      27.8809      0.00000

 k-point    78 :       0.3750    0.3750    0.5000
  band No.  band energies     occupation 
      1     -25.4539      2.00000
      2     -25.4539      2.00000
      3     -25.4410      2.00000
      4     -25.4410      2.00000
      5     -25.4115      2.00000
      6     -25.4115      2.00000
      7     -25.3889      2.00000
      8     -25.3889      2.00000
      9     -25.3835      2.00000
     10     -25.3835      2.00000
     11     -12.2032      2.00000
     12     -12.2032      2.00000
     13     -11.3227      2.00000
     14     -11.3227      2.00000
     15     -10.9362      2.00000
     16     -10.9362      2.00000
     17      -5.7854      2.00000
     18      -5.7854      2.00000
     19      -2.4908      2.00000
     20      -2.4908      2.00000
     21      -1.8686      2.00000
     22      -1.8686      2.00000
     23      -1.4595      2.00000
     24      -1.4595      2.00000
     25      -1.1846      2.00000
     26      -1.1846      2.00000
     27      -0.8993      2.00000
     28      -0.8993      2.00000
     29      -0.6244      2.00000
     30      -0.6244      2.00000
     31      -0.4951      2.00000
     32      -0.4951      2.00000
     33      -0.4184      2.00000
     34      -0.4184      2.00000
     35       0.5220      2.00000
     36       0.5220      2.00000
     37       0.5650      2.00000
     38       0.5650      2.00000
     39       0.6450      2.00000
     40       0.6450      2.00000
     41       0.6921      2.00000
     42       0.6921      2.00000
     43       1.0802      2.00000
     44       1.0802      2.00000
     45       1.2514      2.00000
     46       1.2514      2.00000
     47       1.5461      2.00000
     48       1.5461      2.00000
     49       1.8126      2.00000
     50       1.8126      2.00000
     51       2.0860      2.00000
     52       2.0860      2.00000
     53       2.4367      2.00000
     54       2.4367      2.00000
     55       5.4561      0.00000
     56       5.4561      0.00000
     57       6.8677      0.00000
     58       6.8677      0.00000
     59       7.5237      0.00000
     60       7.5237      0.00000
     61       8.2603      0.00000
     62       8.2603      0.00000
     63       9.2678      0.00000
     64       9.2678      0.00000
     65       9.6401      0.00000
     66       9.6401      0.00000
     67       9.9303      0.00000
     68       9.9303      0.00000
     69      10.5469      0.00000
     70      10.5469      0.00000
     71      11.0040      0.00000
     72      11.0040      0.00000
     73      11.4815      0.00000
     74      11.4815      0.00000
     75      12.3138      0.00000
     76      12.3138      0.00000
     77      12.8051      0.00000
     78      12.8051      0.00000
     79      13.5841      0.00000
     80      13.5841      0.00000
     81      14.6317      0.00000
     82      14.6317      0.00000
     83      15.0419      0.00000
     84      15.0419      0.00000
     85      15.9067      0.00000
     86      15.9067      0.00000
     87      16.4409      0.00000
     88      16.4409      0.00000
     89      17.1154      0.00000
     90      17.1154      0.00000
     91      17.3398      0.00000
     92      17.3398      0.00000
     93      17.6126      0.00000
     94      17.6126      0.00000
     95      18.1279      0.00000
     96      18.1279      0.00000
     97      18.3946      0.00000
     98      18.3946      0.00000
     99      18.6539      0.00000
    100      18.6539      0.00000
    101      18.9515      0.00000
    102      18.9515      0.00000
    103      19.8893      0.00000
    104      19.8893      0.00000
    105      20.1812      0.00000
    106      20.1812      0.00000
    107      20.6652      0.00000
    108      20.6652      0.00000
    109      21.2948      0.00000
    110      21.2948      0.00000
    111      21.7740      0.00000
    112      21.7740      0.00000
    113      22.3404      0.00000
    114      22.3404      0.00000
    115      23.0453      0.00000
    116      23.0453      0.00000
    117      23.3174      0.00000
    118      23.3174      0.00000
    119      23.6848      0.00000
    120      23.6848      0.00000
    121      24.1079      0.00000
    122      24.1079      0.00000
    123      24.4831      0.00000
    124      24.4831      0.00000
    125      24.8643      0.00000
    126      24.8643      0.00000
    127      25.2993      0.00000
    128      25.2993      0.00000
    129      25.6778      0.00000
    130      25.6778      0.00000
    131      26.0060      0.00000
    132      26.0060      0.00000
    133      26.4240      0.00000
    134      26.4240      0.00000
    135      26.6800      0.00000
    136      26.6800      0.00000
    137      27.0572      0.00000
    138      27.0572      0.00000
    139      27.4483      0.00000
    140      27.4483      0.00000
    141      28.0227      0.00000

 k-point    79 :       0.3906    0.3906    0.5000
  band No.  band energies     occupation 
      1     -25.4541      2.00000
      2     -25.4541      2.00000
      3     -25.4411      2.00000
      4     -25.4411      2.00000
      5     -25.4116      2.00000
      6     -25.4116      2.00000
      7     -25.3890      2.00000
      8     -25.3890      2.00000
      9     -25.3836      2.00000
     10     -25.3836      2.00000
     11     -12.1962      2.00000
     12     -12.1962      2.00000
     13     -11.3297      2.00000
     14     -11.3297      2.00000
     15     -10.9404      2.00000
     16     -10.9404      2.00000
     17      -5.7800      2.00000
     18      -5.7800      2.00000
     19      -2.4925      2.00000
     20      -2.4925      2.00000
     21      -1.8567      2.00000
     22      -1.8567      2.00000
     23      -1.4727      2.00000
     24      -1.4727      2.00000
     25      -1.1710      2.00000
     26      -1.1710      2.00000
     27      -0.9065      2.00000
     28      -0.9065      2.00000
     29      -0.6187      2.00000
     30      -0.6187      2.00000
     31      -0.4959      2.00000
     32      -0.4959      2.00000
     33      -0.4156      2.00000
     34      -0.4156      2.00000
     35       0.5202      2.00000
     36       0.5202      2.00000
     37       0.5665      2.00000
     38       0.5665      2.00000
     39       0.6458      2.00000
     40       0.6458      2.00000
     41       0.6896      2.00000
     42       0.6896      2.00000
     43       1.0831      2.00000
     44       1.0831      2.00000
     45       1.2491      2.00000
     46       1.2491      2.00000
     47       1.5588      2.00000
     48       1.5588      2.00000
     49       1.8079      2.00000
     50       1.8079      2.00000
     51       2.0850      2.00000
     52       2.0850      2.00000
     53       2.4128      2.00000
     54       2.4128      2.00000
     55       5.4583      0.00000
     56       5.4583      0.00000
     57       6.8670      0.00000
     58       6.8670      0.00000
     59       7.4824      0.00000
     60       7.4824      0.00000
     61       8.2553      0.00000
     62       8.2553      0.00000
     63       9.2682      0.00000
     64       9.2682      0.00000
     65       9.6216      0.00000
     66       9.6216      0.00000
     67       9.9390      0.00000
     68       9.9390      0.00000
     69      10.5675      0.00000
     70      10.5675      0.00000
     71      11.0244      0.00000
     72      11.0244      0.00000
     73      11.4883      0.00000
     74      11.4883      0.00000
     75      12.3375      0.00000
     76      12.3375      0.00000
     77      12.7895      0.00000
     78      12.7895      0.00000
     79      13.5777      0.00000
     80      13.5777      0.00000
     81      14.6630      0.00000
     82      14.6630      0.00000
     83      15.0272      0.00000
     84      15.0272      0.00000
     85      15.9503      0.00000
     86      15.9503      0.00000
     87      16.4554      0.00000
     88      16.4554      0.00000
     89      17.0962      0.00000
     90      17.0962      0.00000
     91      17.3509      0.00000
     92      17.3509      0.00000
     93      17.6222      0.00000
     94      17.6222      0.00000
     95      18.1416      0.00000
     96      18.1416      0.00000
     97      18.3586      0.00000
     98      18.3586      0.00000
     99      18.7056      0.00000
    100      18.7056      0.00000
    101      18.9519      0.00000
    102      18.9519      0.00000
    103      19.9227      0.00000
    104      19.9227      0.00000
    105      20.1788      0.00000
    106      20.1788      0.00000
    107      20.6475      0.00000
    108      20.6475      0.00000
    109      21.3155      0.00000
    110      21.3155      0.00000
    111      21.6429      0.00000
    112      21.6429      0.00000
    113      22.4166      0.00000
    114      22.4166      0.00000
    115      23.0224      0.00000
    116      23.0224      0.00000
    117      23.3503      0.00000
    118      23.3503      0.00000
    119      23.5992      0.00000
    120      23.5992      0.00000
    121      24.1174      0.00000
    122      24.1174      0.00000
    123      24.4280      0.00000
    124      24.4280      0.00000
    125      24.7621      0.00000
    126      24.7621      0.00000
    127      25.1956      0.00000
    128      25.1956      0.00000
    129      25.6415      0.00000
    130      25.6415      0.00000
    131      26.0110      0.00000
    132      26.0110      0.00000
    133      26.3937      0.00000
    134      26.3937      0.00000
    135      26.6456      0.00000
    136      26.6456      0.00000
    137      27.1861      0.00000
    138      27.1861      0.00000
    139      27.4649      0.00000
    140      27.4649      0.00000
    141      28.1251      0.00000

 k-point    80 :       0.4062    0.4062    0.5000
  band No.  band energies     occupation 
      1     -25.4542      2.00000
      2     -25.4542      2.00000
      3     -25.4413      2.00000
      4     -25.4413      2.00000
      5     -25.4118      2.00000
      6     -25.4118      2.00000
      7     -25.3891      2.00000
      8     -25.3891      2.00000
      9     -25.3837      2.00000
     10     -25.3837      2.00000
     11     -12.1898      2.00000
     12     -12.1898      2.00000
     13     -11.3360      2.00000
     14     -11.3360      2.00000
     15     -10.9442      2.00000
     16     -10.9442      2.00000
     17      -5.7751      2.00000
     18      -5.7751      2.00000
     19      -2.4937      2.00000
     20      -2.4937      2.00000
     21      -1.8449      2.00000
     22      -1.8449      2.00000
     23      -1.4880      2.00000
     24      -1.4880      2.00000
     25      -1.1553      2.00000
     26      -1.1553      2.00000
     27      -0.9152      2.00000
     28      -0.9152      2.00000
     29      -0.6130      2.00000
     30      -0.6130      2.00000
     31      -0.4970      2.00000
     32      -0.4970      2.00000
     33      -0.4129      2.00000
     34      -0.4129      2.00000
     35       0.5187      2.00000
     36       0.5187      2.00000
     37       0.5681      2.00000
     38       0.5681      2.00000
     39       0.6465      2.00000
     40       0.6465      2.00000
     41       0.6873      2.00000
     42       0.6873      2.00000
     43       1.0839      2.00000
     44       1.0839      2.00000
     45       1.2471      2.00000
     46       1.2471      2.00000
     47       1.5719      2.00000
     48       1.5719      2.00000
     49       1.8050      2.00000
     50       1.8050      2.00000
     51       2.0831      2.00000
     52       2.0831      2.00000
     53       2.3920      2.00000
     54       2.3920      2.00000
     55       5.4595      0.00000
     56       5.4595      0.00000
     57       6.8650      0.00000
     58       6.8650      0.00000
     59       7.4461      0.00000
     60       7.4461      0.00000
     61       8.2511      0.00000
     62       8.2511      0.00000
     63       9.2678      0.00000
     64       9.2678      0.00000
     65       9.6055      0.00000
     66       9.6055      0.00000
     67       9.9487      0.00000
     68       9.9487      0.00000
     69      10.5790      0.00000
     70      10.5790      0.00000
     71      11.0465      0.00000
     72      11.0465      0.00000
     73      11.5052      0.00000
     74      11.5052      0.00000
     75      12.3369      0.00000
     76      12.3369      0.00000
     77      12.8010      0.00000
     78      12.8010      0.00000
     79      13.5695      0.00000
     80      13.5695      0.00000
     81      14.6506      0.00000
     82      14.6506      0.00000
     83      15.0462      0.00000
     84      15.0462      0.00000
     85      15.9896      0.00000
     86      15.9896      0.00000
     87      16.4595      0.00000
     88      16.4595      0.00000
     89      17.0813      0.00000
     90      17.0813      0.00000
     91      17.3552      0.00000
     92      17.3552      0.00000
     93      17.6278      0.00000
     94      17.6278      0.00000
     95      18.1651      0.00000
     96      18.1651      0.00000
     97      18.3131      0.00000
     98      18.3131      0.00000
     99      18.7657      0.00000
    100      18.7657      0.00000
    101      18.9738      0.00000
    102      18.9738      0.00000
    103      19.8766      0.00000
    104      19.8766      0.00000
    105      20.2199      0.00000
    106      20.2199      0.00000
    107      20.6705      0.00000
    108      20.6705      0.00000
    109      21.2931      0.00000
    110      21.2931      0.00000
    111      21.5716      0.00000
    112      21.5716      0.00000
    113      22.4969      0.00000
    114      22.4969      0.00000
    115      22.9684      0.00000
    116      22.9684      0.00000
    117      23.3730      0.00000
    118      23.3730      0.00000
    119      23.5321      0.00000
    120      23.5321      0.00000
    121      24.1250      0.00000
    122      24.1250      0.00000
    123      24.3503      0.00000
    124      24.3503      0.00000
    125      24.6883      0.00000
    126      24.6883      0.00000
    127      25.0945      0.00000
    128      25.0945      0.00000
    129      25.6063      0.00000
    130      25.6063      0.00000
    131      26.0251      0.00000
    132      26.0251      0.00000
    133      26.3684      0.00000
    134      26.3684      0.00000
    135      26.6082      0.00000
    136      26.6082      0.00000
    137      27.3010      0.00000
    138      27.3010      0.00000
    139      27.5131      0.00000
    140      27.5131      0.00000
    141      28.1639      0.00000

 k-point    81 :       0.4219    0.4219    0.5000
  band No.  band energies     occupation 
      1     -25.4543      2.00000
      2     -25.4543      2.00000
      3     -25.4413      2.00000
      4     -25.4413      2.00000
      5     -25.4118      2.00000
      6     -25.4118      2.00000
      7     -25.3892      2.00000
      8     -25.3892      2.00000
      9     -25.3838      2.00000
     10     -25.3838      2.00000
     11     -12.1843      2.00000
     12     -12.1843      2.00000
     13     -11.3415      2.00000
     14     -11.3415      2.00000
     15     -10.9474      2.00000
     16     -10.9474      2.00000
     17      -5.7709      2.00000
     18      -5.7709      2.00000
     19      -2.4945      2.00000
     20      -2.4945      2.00000
     21      -1.8332      2.00000
     22      -1.8332      2.00000
     23      -1.5042      2.00000
     24      -1.5042      2.00000
     25      -1.1387      2.00000
     26      -1.1387      2.00000
     27      -0.9249      2.00000
     28      -0.9249      2.00000
     29      -0.6076      2.00000
     30      -0.6076      2.00000
     31      -0.4983      2.00000
     32      -0.4983      2.00000
     33      -0.4103      2.00000
     34      -0.4103      2.00000
     35       0.5173      2.00000
     36       0.5173      2.00000
     37       0.5697      2.00000
     38       0.5697      2.00000
     39       0.6471      2.00000
     40       0.6471      2.00000
     41       0.6854      2.00000
     42       0.6854      2.00000
     43       1.0830      2.00000
     44       1.0830      2.00000
     45       1.2458      2.00000
     46       1.2458      2.00000
     47       1.5845      2.00000
     48       1.5845      2.00000
     49       1.8039      2.00000
     50       1.8039      2.00000
     51       2.0799      2.00000
     52       2.0799      2.00000
     53       2.3748      2.00000
     54       2.3748      2.00000
     55       5.4600      0.00000
     56       5.4600      0.00000
     57       6.8623      0.00000
     58       6.8623      0.00000
     59       7.4151      0.00000
     60       7.4151      0.00000
     61       8.2477      0.00000
     62       8.2477      0.00000
     63       9.2671      0.00000
     64       9.2671      0.00000
     65       9.5917      0.00000
     66       9.5917      0.00000
     67       9.9590      0.00000
     68       9.9590      0.00000
     69      10.5824      0.00000
     70      10.5824      0.00000
     71      11.0691      0.00000
     72      11.0691      0.00000
     73      11.5306      0.00000
     74      11.5306      0.00000
     75      12.3125      0.00000
     76      12.3125      0.00000
     77      12.8387      0.00000
     78      12.8387      0.00000
     79      13.5587      0.00000
     80      13.5587      0.00000
     81      14.6041      0.00000
     82      14.6041      0.00000
     83      15.0919      0.00000
     84      15.0919      0.00000
     85      16.0254      0.00000
     86      16.0254      0.00000
     87      16.4526      0.00000
     88      16.4526      0.00000
     89      17.0712      0.00000
     90      17.0712      0.00000
     91      17.3544      0.00000
     92      17.3544      0.00000
     93      17.6312      0.00000
     94      17.6312      0.00000
     95      18.1964      0.00000
     96      18.1964      0.00000
     97      18.2681      0.00000
     98      18.2681      0.00000
     99      18.8089      0.00000
    100      18.8089      0.00000
    101      19.0264      0.00000
    102      19.0264      0.00000
    103      19.8127      0.00000
    104      19.8127      0.00000
    105      20.2270      0.00000
    106      20.2270      0.00000
    107      20.7440      0.00000
    108      20.7440      0.00000
    109      21.2080      0.00000
    110      21.2080      0.00000
    111      21.5933      0.00000
    112      21.5933      0.00000
    113      22.5666      0.00000
    114      22.5666      0.00000
    115      22.8931      0.00000
    116      22.8931      0.00000
    117      23.3226      0.00000
    118      23.3226      0.00000
    119      23.5499      0.00000
    120      23.5499      0.00000
    121      24.1182      0.00000
    122      24.1182      0.00000
    123      24.2639      0.00000
    124      24.2639      0.00000
    125      24.6418      0.00000
    126      24.6418      0.00000
    127      24.9983      0.00000
    128      24.9983      0.00000
    129      25.5770      0.00000
    130      25.5770      0.00000
    131      26.0447      0.00000
    132      26.0447      0.00000
    133      26.3478      0.00000
    134      26.3478      0.00000
    135      26.5682      0.00000
    136      26.5682      0.00000
    137      27.3852      0.00000
    138      27.3852      0.00000
    139      27.5983      0.00000
    140      27.5983      0.00000
    141      28.1655      0.00000

 k-point    82 :       0.4375    0.4375    0.5000
  band No.  band energies     occupation 
      1     -25.4543      2.00000
      2     -25.4543      2.00000
      3     -25.4414      2.00000
      4     -25.4414      2.00000
      5     -25.4119      2.00000
      6     -25.4119      2.00000
      7     -25.3893      2.00000
      8     -25.3893      2.00000
      9     -25.3839      2.00000
     10     -25.3839      2.00000
     11     -12.1796      2.00000
     12     -12.1796      2.00000
     13     -11.3461      2.00000
     14     -11.3461      2.00000
     15     -10.9501      2.00000
     16     -10.9501      2.00000
     17      -5.7673      2.00000
     18      -5.7673      2.00000
     19      -2.4950      2.00000
     20      -2.4950      2.00000
     21      -1.8222      2.00000
     22      -1.8222      2.00000
     23      -1.5199      2.00000
     24      -1.5199      2.00000
     25      -1.1221      2.00000
     26      -1.1221      2.00000
     27      -0.9353      2.00000
     28      -0.9353      2.00000
     29      -0.6026      2.00000
     30      -0.6026      2.00000
     31      -0.4996      2.00000
     32      -0.4996      2.00000
     33      -0.4081      2.00000
     34      -0.4081      2.00000
     35       0.5161      2.00000
     36       0.5161      2.00000
     37       0.5712      2.00000
     38       0.5712      2.00000
     39       0.6475      2.00000
     40       0.6475      2.00000
     41       0.6838      2.00000
     42       0.6838      2.00000
     43       1.0810      2.00000
     44       1.0810      2.00000
     45       1.2454      2.00000
     46       1.2454      2.00000
     47       1.5958      2.00000
     48       1.5958      2.00000
     49       1.8042      2.00000
     50       1.8042      2.00000
     51       2.0754      2.00000
     52       2.0754      2.00000
     53       2.3613      2.00000
     54       2.3613      2.00000
     55       5.4600      0.00000
     56       5.4600      0.00000
     57       6.8591      0.00000
     58       6.8591      0.00000
     59       7.3897      0.00000
     60       7.3897      0.00000
     61       8.2448      0.00000
     62       8.2448      0.00000
     63       9.2661      0.00000
     64       9.2661      0.00000
     65       9.5803      0.00000
     66       9.5803      0.00000
     67       9.9691      0.00000
     68       9.9691      0.00000
     69      10.5801      0.00000
     70      10.5801      0.00000
     71      11.0907      0.00000
     72      11.0907      0.00000
     73      11.5624      0.00000
     74      11.5624      0.00000
     75      12.2727      0.00000
     76      12.2727      0.00000
     77      12.8935      0.00000
     78      12.8935      0.00000
     79      13.5448      0.00000
     80      13.5448      0.00000
     81      14.5432      0.00000
     82      14.5432      0.00000
     83      15.1468      0.00000
     84      15.1468      0.00000
     85      16.0589      0.00000
     86      16.0589      0.00000
     87      16.4352      0.00000
     88      16.4352      0.00000
     89      17.0646      0.00000
     90      17.0646      0.00000
     91      17.3518      0.00000
     92      17.3518      0.00000
     93      17.6339      0.00000
     94      17.6339      0.00000
     95      18.2096      0.00000
     96      18.2096      0.00000
     97      18.2512      0.00000
     98      18.2512      0.00000
     99      18.8276      0.00000
    100      18.8276      0.00000
    101      19.1034      0.00000
    102      19.1034      0.00000
    103      19.7575      0.00000
    104      19.7575      0.00000
    105      20.2015      0.00000
    106      20.2015      0.00000
    107      20.7986      0.00000
    108      20.7986      0.00000
    109      21.1597      0.00000
    110      21.1597      0.00000
    111      21.6562      0.00000
    112      21.6562      0.00000
    113      22.5977      0.00000
    114      22.5977      0.00000
    115      22.8191      0.00000
    116      22.8191      0.00000
    117      23.2441      0.00000
    118      23.2441      0.00000
    119      23.6150      0.00000
    120      23.6150      0.00000
    121      24.0649      0.00000
    122      24.0649      0.00000
    123      24.2162      0.00000
    124      24.2162      0.00000
    125      24.6050      0.00000
    126      24.6050      0.00000
    127      24.9142      0.00000
    128      24.9142      0.00000
    129      25.5546      0.00000
    130      25.5546      0.00000
    131      26.0678      0.00000
    132      26.0678      0.00000
    133      26.3314      0.00000
    134      26.3314      0.00000
    135      26.5270      0.00000
    136      26.5270      0.00000
    137      27.4477      0.00000
    138      27.4477      0.00000
    139      27.6955      0.00000
    140      27.6957      0.00000
    141      28.1625      0.00000

 k-point    83 :       0.4531    0.4531    0.5000
  band No.  band energies     occupation 
      1     -25.4544      2.00000
      2     -25.4544      2.00000
      3     -25.4415      2.00000
      4     -25.4415      2.00000
      5     -25.4120      2.00000
      6     -25.4120      2.00000
      7     -25.3893      2.00000
      8     -25.3893      2.00000
      9     -25.3839      2.00000
     10     -25.3839      2.00000
     11     -12.1759      2.00000
     12     -12.1759      2.00000
     13     -11.3498      2.00000
     14     -11.3498      2.00000
     15     -10.9522      2.00000
     16     -10.9522      2.00000
     17      -5.7645      2.00000
     18      -5.7645      2.00000
     19      -2.4953      2.00000
     20      -2.4953      2.00000
     21      -1.8125      2.00000
     22      -1.8125      2.00000
     23      -1.5339      2.00000
     24      -1.5339      2.00000
     25      -1.1066      2.00000
     26      -1.1066      2.00000
     27      -0.9457      2.00000
     28      -0.9457      2.00000
     29      -0.5985      2.00000
     30      -0.5985      2.00000
     31      -0.5009      2.00000
     32      -0.5009      2.00000
     33      -0.4062      2.00000
     34      -0.4062      2.00000
     35       0.5152      2.00000
     36       0.5152      2.00000
     37       0.5725      2.00000
     38       0.5725      2.00000
     39       0.6477      2.00000
     40       0.6477      2.00000
     41       0.6826      2.00000
     42       0.6826      2.00000
     43       1.0785      2.00000
     44       1.0785      2.00000
     45       1.2455      2.00000
     46       1.2455      2.00000
     47       1.6051      2.00000
     48       1.6051      2.00000
     49       1.8056      2.00000
     50       1.8056      2.00000
     51       2.0704      2.00000
     52       2.0704      2.00000
     53       2.3514      2.00000
     54       2.3514      2.00000
     55       5.4597      0.00000
     56       5.4597      0.00000
     57       6.8561      0.00000
     58       6.8561      0.00000
     59       7.3701      0.00000
     60       7.3701      0.00000
     61       8.2425      0.00000
     62       8.2425      0.00000
     63       9.2652      0.00000
     64       9.2652      0.00000
     65       9.5714      0.00000
     66       9.5714      0.00000
     67       9.9783      0.00000
     68       9.9783      0.00000
     69      10.5747      0.00000
     70      10.5747      0.00000
     71      11.1092      0.00000
     72      11.1092      0.00000
     73      11.5974      0.00000
     74      11.5974      0.00000
     75      12.2270      0.00000
     76      12.2270      0.00000
     77      12.9545      0.00000
     78      12.9545      0.00000
     79      13.5279      0.00000
     80      13.5279      0.00000
     81      14.4828      0.00000
     82      14.4828      0.00000
     83      15.1990      0.00000
     84      15.1990      0.00000
     85      16.0907      0.00000
     86      16.0907      0.00000
     87      16.4097      0.00000
     88      16.4097      0.00000
     89      17.0601      0.00000
     90      17.0601      0.00000
     91      17.3495      0.00000
     92      17.3495      0.00000
     93      17.6367      0.00000
     94      17.6367      0.00000
     95      18.1781      0.00000
     96      18.1781      0.00000
     97      18.2879      0.00000
     98      18.2879      0.00000
     99      18.8291      0.00000
    100      18.8291      0.00000
    101      19.1849      0.00000
    102      19.1849      0.00000
    103      19.7201      0.00000
    104      19.7201      0.00000
    105      20.1685      0.00000
    106      20.1685      0.00000
    107      20.7483      0.00000
    108      20.7483      0.00000
    109      21.2349      0.00000
    110      21.2349      0.00000
    111      21.7294      0.00000
    112      21.7294      0.00000
    113      22.5376      0.00000
    114      22.5376      0.00000
    115      22.7948      0.00000
    116      22.7948      0.00000
    117      23.1853      0.00000
    118      23.1853      0.00000
    119      23.6849      0.00000
    120      23.6849      0.00000
    121      23.9772      0.00000
    122      23.9772      0.00000
    123      24.2128      0.00000
    124      24.2128      0.00000
    125      24.5597      0.00000
    126      24.5597      0.00000
    127      24.8525      0.00000
    128      24.8525      0.00000
    129      25.5385      0.00000
    130      25.5385      0.00000
    131      26.0926      0.00000
    132      26.0926      0.00000
    133      26.3185      0.00000
    134      26.3185      0.00000
    135      26.4868      0.00000
    136      26.4868      0.00000
    137      27.5029      0.00000
    138      27.5029      0.00000
    139      27.7704      0.00000
    140      27.7705      0.00000
    141      28.1675      0.00000

 k-point    84 :       0.4688    0.4688    0.5000
  band No.  band energies     occupation 
      1     -25.4544      2.00000
      2     -25.4544      2.00000
      3     -25.4415      2.00000
      4     -25.4415      2.00000
      5     -25.4120      2.00000
      6     -25.4120      2.00000
      7     -25.3894      2.00000
      8     -25.3894      2.00000
      9     -25.3840      2.00000
     10     -25.3840      2.00000
     11     -12.1732      2.00000
     12     -12.1732      2.00000
     13     -11.3525      2.00000
     14     -11.3525      2.00000
     15     -10.9537      2.00000
     16     -10.9537      2.00000
     17      -5.7625      2.00000
     18      -5.7625      2.00000
     19      -2.4954      2.00000
     20      -2.4954      2.00000
     21      -1.8046      2.00000
     22      -1.8046      2.00000
     23      -1.5451      2.00000
     24      -1.5451      2.00000
     25      -1.0935      2.00000
     26      -1.0935      2.00000
     27      -0.9550      2.00000
     28      -0.9550      2.00000
     29      -0.5954      2.00000
     30      -0.5954      2.00000
     31      -0.5019      2.00000
     32      -0.5019      2.00000
     33      -0.4048      2.00000
     34      -0.4048      2.00000
     35       0.5146      2.00000
     36       0.5146      2.00000
     37       0.5735      2.00000
     38       0.5735      2.00000
     39       0.6478      2.00000
     40       0.6478      2.00000
     41       0.6817      2.00000
     42       0.6817      2.00000
     43       1.0762      2.00000
     44       1.0762      2.00000
     45       1.2459      2.00000
     46       1.2459      2.00000
     47       1.6119      2.00000
     48       1.6119      2.00000
     49       1.8074      2.00000
     50       1.8074      2.00000
     51       2.0656      2.00000
     52       2.0656      2.00000
     53       2.3448      2.00000
     54       2.3448      2.00000
     55       5.4593      0.00000
     56       5.4593      0.00000
     57       6.8536      0.00000
     58       6.8536      0.00000
     59       7.3562      0.00000
     60       7.3562      0.00000
     61       8.2409      0.00000
     62       8.2409      0.00000
     63       9.2644      0.00000
     64       9.2644      0.00000
     65       9.5651      0.00000
     66       9.5651      0.00000
     67       9.9856      0.00000
     68       9.9856      0.00000
     69      10.5687      0.00000
     70      10.5687      0.00000
     71      11.1232      0.00000
     72      11.1232      0.00000
     73      11.6306      0.00000
     74      11.6306      0.00000
     75      12.1845      0.00000
     76      12.1845      0.00000
     77      13.0112      0.00000
     78      13.0112      0.00000
     79      13.5095      0.00000
     80      13.5095      0.00000
     81      14.4326      0.00000
     82      14.4326      0.00000
     83      15.2409      0.00000
     84      15.2409      0.00000
     85      16.1204      0.00000
     86      16.1204      0.00000
     87      16.3805      0.00000
     88      16.3805      0.00000
     89      17.0570      0.00000
     90      17.0570      0.00000
     91      17.3485      0.00000
     92      17.3485      0.00000
     93      17.6393      0.00000
     94      17.6393      0.00000
     95      18.1497      0.00000
     96      18.1497      0.00000
     97      18.3271      0.00000
     98      18.3271      0.00000
     99      18.8208      0.00000
    100      18.8208      0.00000
    101      19.2533      0.00000
    102      19.2533      0.00000
    103      19.7022      0.00000
    104      19.7022      0.00000
    105      20.1442      0.00000
    106      20.1442      0.00000
    107      20.6508      0.00000
    108      20.6508      0.00000
    109      21.3670      0.00000
    110      21.3670      0.00000
    111      21.8035      0.00000
    112      21.8035      0.00000
    113      22.4097      0.00000
    114      22.4097      0.00000
    115      22.8003      0.00000
    116      22.8003      0.00000
    117      23.1592      0.00000
    118      23.1592      0.00000
    119      23.7373      0.00000
    120      23.7373      0.00000
    121      23.9052      0.00000
    122      23.9052      0.00000
    123      24.2251      0.00000
    124      24.2251      0.00000
    125      24.5003      0.00000
    126      24.5003      0.00000
    127      24.8175      0.00000
    128      24.8175      0.00000
    129      25.5279      0.00000
    130      25.5279      0.00000
    131      26.1166      0.00000
    132      26.1166      0.00000
    133      26.3086      0.00000
    134      26.3086      0.00000
    135      26.4516      0.00000
    136      26.4516      0.00000
    137      27.5535      0.00000
    138      27.5535      0.00000
    139      27.8058      0.00000
    140      27.8061      0.00000
    141      28.1817      0.00000

 k-point    85 :       0.4844    0.4844    0.5000
  band No.  band energies     occupation 
      1     -25.4545      2.00000
      2     -25.4545      2.00000
      3     -25.4416      2.00000
      4     -25.4416      2.00000
      5     -25.4121      2.00000
      6     -25.4121      2.00000
      7     -25.3894      2.00000
      8     -25.3894      2.00000
      9     -25.3840      2.00000
     10     -25.3840      2.00000
     11     -12.1715      2.00000
     12     -12.1715      2.00000
     13     -11.3542      2.00000
     14     -11.3542      2.00000
     15     -10.9546      2.00000
     16     -10.9546      2.00000
     17      -5.7613      2.00000
     18      -5.7613      2.00000
     19      -2.4955      2.00000
     20      -2.4955      2.00000
     21      -1.7995      2.00000
     22      -1.7995      2.00000
     23      -1.5523      2.00000
     24      -1.5523      2.00000
     25      -1.0845      2.00000
     26      -1.0845      2.00000
     27      -0.9617      2.00000
     28      -0.9617      2.00000
     29      -0.5934      2.00000
     30      -0.5934      2.00000
     31      -0.5026      2.00000
     32      -0.5026      2.00000
     33      -0.4040      2.00000
     34      -0.4040      2.00000
     35       0.5142      2.00000
     36       0.5142      2.00000
     37       0.5741      2.00000
     38       0.5741      2.00000
     39       0.6479      2.00000
     40       0.6479      2.00000
     41       0.6813      2.00000
     42       0.6813      2.00000
     43       1.0746      2.00000
     44       1.0746      2.00000
     45       1.2463      2.00000
     46       1.2463      2.00000
     47       1.6161      2.00000
     48       1.6161      2.00000
     49       1.8088      2.00000
     50       1.8088      2.00000
     51       2.0621      2.00000
     52       2.0621      2.00000
     53       2.3410      2.00000
     54       2.3410      2.00000
     55       5.4590      0.00000
     56       5.4590      0.00000
     57       6.8520      0.00000
     58       6.8520      0.00000
     59       7.3479      0.00000
     60       7.3479      0.00000
     61       8.2399      0.00000
     62       8.2399      0.00000
     63       9.2639      0.00000
     64       9.2639      0.00000
     65       9.5612      0.00000
     66       9.5612      0.00000
     67       9.9904      0.00000
     68       9.9904      0.00000
     69      10.5643      0.00000
     70      10.5643      0.00000
     71      11.1319      0.00000
     72      11.1319      0.00000
     73      11.6554      0.00000
     74      11.6554      0.00000
     75      12.1536      0.00000
     76      12.1536      0.00000
     77      13.0526      0.00000
     78      13.0526      0.00000
     79      13.4940      0.00000
     80      13.4940      0.00000
     81      14.3995      0.00000
     82      14.3995      0.00000
     83      15.2679      0.00000
     84      15.2679      0.00000
     85      16.1441      0.00000
     86      16.1441      0.00000
     87      16.3551      0.00000
     88      16.3551      0.00000
     89      17.0550      0.00000
     90      17.0550      0.00000
     91      17.3484      0.00000
     92      17.3484      0.00000
     93      17.6414      0.00000
     94      17.6414      0.00000
     95      18.1312      0.00000
     96      18.1312      0.00000
     97      18.3564      0.00000
     98      18.3564      0.00000
     99      18.8103      0.00000
    100      18.8103      0.00000
    101      19.2974      0.00000
    102      19.2974      0.00000
    103      19.6982      0.00000
    104      19.6982      0.00000
    105      20.1347      0.00000
    106      20.1347      0.00000
    107      20.5686      0.00000
    108      20.5686      0.00000
    109      21.4805      0.00000
    110      21.4805      0.00000
    111      21.8759      0.00000
    112      21.8759      0.00000
    113      22.2754      0.00000
    114      22.2754      0.00000
    115      22.8013      0.00000
    116      22.8013      0.00000
    117      23.1578      0.00000
    118      23.1578      0.00000
    119      23.7469      0.00000
    120      23.7469      0.00000
    121      23.8826      0.00000
    122      23.8826      0.00000
    123      24.2444      0.00000
    124      24.2444      0.00000
    125      24.4410      0.00000
    126      24.4410      0.00000
    127      24.8023      0.00000
    128      24.8023      0.00000
    129      25.5218      0.00000
    130      25.5218      0.00000
    131      26.1354      0.00000
    132      26.1354      0.00000
    133      26.3017      0.00000
    134      26.3017      0.00000
    135      26.4266      0.00000
    136      26.4266      0.00000
    137      27.5931      0.00000
    138      27.5931      0.00000
    139      27.8108      0.00000
    140      27.8111      0.00000
    141      28.1945      0.00000

 k-point    86 :       0.5000    0.5000    0.5000
  band No.  band energies     occupation 
      1     -25.4545      2.00000
      2     -25.4545      2.00000
      3     -25.4416      2.00000
      4     -25.4416      2.00000
      5     -25.4121      2.00000
      6     -25.4121      2.00000
      7     -25.3894      2.00000
      8     -25.3894      2.00000
      9     -25.3840      2.00000
     10     -25.3840      2.00000
     11     -12.1710      2.00000
     12     -12.1710      2.00000
     13     -11.3547      2.00000
     14     -11.3547      2.00000
     15     -10.9549      2.00000
     16     -10.9549      2.00000
     17      -5.7609      2.00000
     18      -5.7609      2.00000
     19      -2.4955      2.00000
     20      -2.4955      2.00000
     21      -1.7977      2.00000
     22      -1.7977      2.00000
     23      -1.5548      2.00000
     24      -1.5548      2.00000
     25      -1.0812      2.00000
     26      -1.0812      2.00000
     27      -0.9642      2.00000
     28      -0.9642      2.00000
     29      -0.5927      2.00000
     30      -0.5927      2.00000
     31      -0.5028      2.00000
     32      -0.5028      2.00000
     33      -0.4037      2.00000
     34      -0.4037      2.00000
     35       0.5140      2.00000
     36       0.5140      2.00000
     37       0.5744      2.00000
     38       0.5744      2.00000
     39       0.6479      2.00000
     40       0.6479      2.00000
     41       0.6811      2.00000
     42       0.6811      2.00000
     43       1.0740      2.00000
     44       1.0740      2.00000
     45       1.2464      2.00000
     46       1.2464      2.00000
     47       1.6176      2.00000
     48       1.6176      2.00000
     49       1.8093      2.00000
     50       1.8093      2.00000
     51       2.0609      2.00000
     52       2.0609      2.00000
     53       2.3398      2.00000
     54       2.3398      2.00000
     55       5.4589      0.00000
     56       5.4589      0.00000
     57       6.8514      0.00000
     58       6.8514      0.00000
     59       7.3451      0.00000
     60       7.3451      0.00000
     61       8.2396      0.00000
     62       8.2396      0.00000
     63       9.2637      0.00000
     64       9.2637      0.00000
     65       9.5600      0.00000
     66       9.5600      0.00000
     67       9.9920      0.00000
     68       9.9920      0.00000
     69      10.5627      0.00000
     70      10.5627      0.00000
     71      11.1349      0.00000
     72      11.1349      0.00000
     73      11.6648      0.00000
     74      11.6648      0.00000
     75      12.1421      0.00000
     76      12.1421      0.00000
     77      13.0681      0.00000
     78      13.0681      0.00000
     79      13.4876      0.00000
     80      13.4876      0.00000
     81      14.3880      0.00000
     82      14.3880      0.00000
     83      15.2772      0.00000
     84      15.2772      0.00000
     85      16.1538      0.00000
     86      16.1538      0.00000
     87      16.3445      0.00000
     88      16.3445      0.00000
     89      17.0543      0.00000
     90      17.0543      0.00000
     91      17.3484      0.00000
     92      17.3484      0.00000
     93      17.6422      0.00000
     94      17.6422      0.00000
     95      18.1249      0.00000
     96      18.1249      0.00000
     97      18.3674      0.00000
     98      18.3674      0.00000
     99      18.8055      0.00000
    100      18.8055      0.00000
    101      19.3124      0.00000
    102      19.3124      0.00000
    103      19.6984      0.00000
    104      19.6984      0.00000
    105      20.1338      0.00000
    106      20.1338      0.00000
    107      20.5362      0.00000
    108      20.5362      0.00000
    109      21.5257      0.00000
    110      21.5257      0.00000
    111      21.9182      0.00000
    112      21.9182      0.00000
    113      22.2059      0.00000
    114      22.2059      0.00000
    115      22.8000      0.00000
    116      22.8000      0.00000
    117      23.1609      0.00000
    118      23.1609      0.00000
    119      23.7393      0.00000
    120      23.7393      0.00000
    121      23.8858      0.00000
    122      23.8858      0.00000
    123      24.2567      0.00000
    124      24.2567      0.00000
    125      24.4128      0.00000
    126      24.4128      0.00000
    127      24.7983      0.00000
    128      24.7983      0.00000
    129      25.5198      0.00000
    130      25.5198      0.00000
    131      26.1427      0.00000
    132      26.1427      0.00000
    133      26.2991      0.00000
    134      26.2991      0.00000
    135      26.4174      0.00000
    136      26.4174      0.00000
    137      27.6092      0.00000
    138      27.6092      0.00000
    139      27.8082      0.00000
    140      27.8084      0.00000
    141      28.1990      0.00000

 k-point    87 :       0.5000    0.4853    0.5000
  band No.  band energies     occupation 
      1     -25.4545      2.00000
      2     -25.4545      2.00000
      3     -25.4416      2.00000
      4     -25.4416      2.00000
      5     -25.4121      2.00000
      6     -25.4121      2.00000
      7     -25.3894      2.00000
      8     -25.3894      2.00000
      9     -25.3840      2.00000
     10     -25.3840      2.00000
     11     -12.1731      2.00000
     12     -12.1690      2.00000
     13     -11.3593      2.00000
     14     -11.3494      2.00000
     15     -10.9607      2.00000
     16     -10.9495      2.00000
     17      -5.7653      2.00000
     18      -5.7567      2.00000
     19      -2.5040      2.00000
     20      -2.4862      2.00000
     21      -1.8054      2.00000
     22      -1.7955      2.00000
     23      -1.5563      2.00000
     24      -1.5496      2.00000
     25      -1.0966      2.00000
     26      -1.0665      2.00000
     27      -0.9655      2.00000
     28      -0.9612      2.00000
     29      -0.5935      2.00000
     30      -0.5922      2.00000
     31      -0.5031      2.00000
     32      -0.5018      2.00000
     33      -0.4074      2.00000
     34      -0.4003      2.00000
     35       0.5116      2.00000
     36       0.5162      2.00000
     37       0.5743      2.00000
     38       0.5749      2.00000
     39       0.6454      2.00000
     40       0.6504      2.00000
     41       0.6809      2.00000
     42       0.6813      2.00000
     43       1.0721      2.00000
     44       1.0746      2.00000
     45       1.2460      2.00000
     46       1.2481      2.00000
     47       1.6136      2.00000
     48       1.6206      2.00000
     49       1.7901      2.00000
     50       1.8305      2.00000
     51       2.0442      2.00000
     52       2.0779      2.00000
     53       2.3119      2.00000
     54       2.3709      2.00000
     55       5.4472      0.00000
     56       5.4673      0.00000
     57       6.8321      0.00000
     58       6.8666      0.00000
     59       7.3391      0.00000
     60       7.3490      0.00000
     61       8.2363      0.00000
     62       8.2426      0.00000
     63       9.2387      0.00000
     64       9.2836      0.00000
     65       9.5258      0.00000
     66       9.5903      0.00000
     67       9.9610      0.00000
     68      10.0315      0.00000
     69      10.5488      0.00000
     70      10.5833      0.00000
     71      11.1292      0.00000
     72      11.1438      0.00000
     73      11.6574      0.00000
     74      11.6703      0.00000
     75      12.1297      0.00000
     76      12.1618      0.00000
     77      13.0133      0.00000
     78      13.1196      0.00000
     79      13.4870      0.00000
     80      13.4944      0.00000
     81      14.3882      0.00000
     82      14.3912      0.00000
     83      15.2393      0.00000
     84      15.2994      0.00000
     85      16.0981      0.00000
     86      16.1910      0.00000
     87      16.3081      0.00000
     88      16.3881      0.00000
     89      17.0453      0.00000
     90      17.0551      0.00000
     91      17.3211      0.00000
     92      17.3463      0.00000
     93      17.6045      0.00000
     94      17.7186      0.00000
     95      18.1126      0.00000
     96      18.1372      0.00000
     97      18.3552      0.00000
     98      18.3763      0.00000
     99      18.7812      0.00000
    100      18.8444      0.00000
    101      19.3020      0.00000
    102      19.3197      0.00000
    103      19.6809      0.00000
    104      19.7272      0.00000
    105      20.1366      0.00000
    106      20.1417      0.00000
    107      20.5415      0.00000
    108      20.5537      0.00000
    109      21.5117      0.00000
    110      21.5197      0.00000
    111      21.8892      0.00000
    112      21.9188      0.00000
    113      22.2094      0.00000
    114      22.2377      0.00000
    115      22.7697      0.00000
    116      22.8258      0.00000
    117      23.0940      0.00000
    118      23.2165      0.00000
    119      23.6599      0.00000
    120      23.7448      0.00000
    121      23.9077      0.00000
    122      23.9186      0.00000
    123      24.2425      0.00000
    124      24.2686      0.00000
    125      24.3375      0.00000
    126      24.4869      0.00000
    127      24.7787      0.00000
    128      24.8295      0.00000
    129      25.4646      0.00000
    130      25.5419      0.00000
    131      26.0578      0.00000
    132      26.1804      0.00000
    133      26.2484      0.00000
    134      26.3539      0.00000
    135      26.4168      0.00000
    136      26.5099      0.00000
    137      27.5618      0.00000
    138      27.6012      0.00000
    139      27.7963      0.00000
    140      27.8223      0.00000
    141      28.1381      0.00000

 k-point    88 :       0.5000    0.4706    0.5000
  band No.  band energies     occupation 
      1     -25.4544      2.00000
      2     -25.4544      2.00000
      3     -25.4415      2.00000
      4     -25.4415      2.00000
      5     -25.4120      2.00000
      6     -25.4120      2.00000
      7     -25.3894      2.00000
      8     -25.3894      2.00000
      9     -25.3840      2.00000
     10     -25.3840      2.00000
     11     -12.1755      2.00000
     12     -12.1673      2.00000
     13     -11.3632      2.00000
     14     -11.3433      2.00000
     15     -10.9669      2.00000
     16     -10.9446      2.00000
     17      -5.7699      2.00000
     18      -5.7527      2.00000
     19      -2.5118      2.00000
     20      -2.4760      2.00000
     21      -1.8192      2.00000
     22      -1.7973      2.00000
     23      -1.5567      2.00000
     24      -1.5391      2.00000
     25      -1.1122      2.00000
     26      -1.0531      2.00000
     27      -0.9653      2.00000
     28      -0.9562      2.00000
     29      -0.5948      2.00000
     30      -0.5915      2.00000
     31      -0.5030      2.00000
     32      -0.4997      2.00000
     33      -0.4114      2.00000
     34      -0.3974      2.00000
     35       0.5089      2.00000
     36       0.5183      2.00000
     37       0.5743      2.00000
     38       0.5763      2.00000
     39       0.6430      2.00000
     40       0.6528      2.00000
     41       0.6807      2.00000
     42       0.6815      2.00000
     43       1.0688      2.00000
     44       1.0742      2.00000
     45       1.2459      2.00000
     46       1.2520      2.00000
     47       1.6085      2.00000
     48       1.6230      2.00000
     49       1.7732      2.00000
     50       1.8532      2.00000
     51       2.0290      2.00000
     52       2.0934      2.00000
     53       2.2886      2.00000
     54       2.4044      2.00000
     55       5.4321      0.00000
     56       5.4722      0.00000
     57       6.8093      0.00000
     58       6.8771      0.00000
     59       7.3310      0.00000
     60       7.3513      0.00000
     61       8.2308      0.00000
     62       8.2476      0.00000
     63       9.2099      0.00000
     64       9.2950      0.00000
     65       9.4941      0.00000
     66       9.6119      0.00000
     67       9.9433      0.00000
     68      10.0755      0.00000
     69      10.5396      0.00000
     70      10.6118      0.00000
     71      11.1252      0.00000
     72      11.1582      0.00000
     73      11.6466      0.00000
     74      11.6754      0.00000
     75      12.1248      0.00000
     76      12.1882      0.00000
     77      12.9586      0.00000
     78      13.1644      0.00000
     79      13.4851      0.00000
     80      13.5152      0.00000
     81      14.3908      0.00000
     82      14.3983      0.00000
     83      15.1868      0.00000
     84      15.3058      0.00000
     85      16.0298      0.00000
     86      16.1983      0.00000
     87      16.2898      0.00000
     88      16.4337      0.00000
     89      17.0202      0.00000
     90      17.0528      0.00000
     91      17.2682      0.00000
     92      17.3301      0.00000
     93      17.6065      0.00000
     94      17.8144      0.00000
     95      18.1012      0.00000
     96      18.1478      0.00000
     97      18.3347      0.00000
     98      18.3937      0.00000
     99      18.7635      0.00000
    100      18.9010      0.00000
    101      19.2924      0.00000
    102      19.3214      0.00000
    103      19.6712      0.00000
    104      19.7712      0.00000
    105      20.1469      0.00000
    106      20.1615      0.00000
    107      20.5666      0.00000
    108      20.5958      0.00000
    109      21.4740      0.00000
    110      21.4986      0.00000
    111      21.8508      0.00000
    112      21.8919      0.00000
    113      22.2280      0.00000
    114      22.3026      0.00000
    115      22.7295      0.00000
    116      22.8514      0.00000
    117      23.0257      0.00000
    118      23.2519      0.00000
    119      23.5845      0.00000
    120      23.6636      0.00000
    121      23.9186      0.00000
    122      24.0100      0.00000
    123      24.2177      0.00000
    124      24.2484      0.00000
    125      24.3120      0.00000
    126      24.5319      0.00000
    127      24.7907      0.00000
    128      24.8652      0.00000
    129      25.3927      0.00000
    130      25.5162      0.00000
    131      25.9840      0.00000
    132      26.1445      0.00000
    133      26.2187      0.00000
    134      26.4118      0.00000
    135      26.5179      0.00000
    136      26.6288      0.00000
    137      27.4799      0.00000
    138      27.5518      0.00000
    139      27.7560      0.00000
    140      27.8399      0.00000
    141      28.0947      0.00000

 k-point    89 :       0.5000    0.4559    0.5000
  band No.  band energies     occupation 
      1     -25.4544      2.00000
      2     -25.4544      2.00000
      3     -25.4415      2.00000
      4     -25.4415      2.00000
      5     -25.4120      2.00000
      6     -25.4120      2.00000
      7     -25.3893      2.00000
      8     -25.3893      2.00000
      9     -25.3839      2.00000
     10     -25.3839      2.00000
     11     -12.1780      2.00000
     12     -12.1657      2.00000
     13     -11.3664      2.00000
     14     -11.3366      2.00000
     15     -10.9733      2.00000
     16     -10.9402      2.00000
     17      -5.7747      2.00000
     18      -5.7490      2.00000
     19      -2.5188      2.00000
     20      -2.4649      2.00000
     21      -1.8382      2.00000
     22      -1.8019      2.00000
     23      -1.5568      2.00000
     24      -1.5244      2.00000
     25      -1.1277      2.00000
     26      -1.0412      2.00000
     27      -0.9637      2.00000
     28      -0.9492      2.00000
     29      -0.5967      2.00000
     30      -0.5906      2.00000
     31      -0.5027      2.00000
     32      -0.4966      2.00000
     33      -0.4157      2.00000
     34      -0.3948      2.00000
     35       0.5056      2.00000
     36       0.5206      2.00000
     37       0.5743      2.00000
     38       0.5785      2.00000
     39       0.6409      2.00000
     40       0.6548      2.00000
     41       0.6804      2.00000
     42       0.6820      2.00000
     43       1.0640      2.00000
     44       1.0728      2.00000
     45       1.2457      2.00000
     46       1.2580      2.00000
     47       1.6022      2.00000
     48       1.6250      2.00000
     49       1.7588      2.00000
     50       1.8769      2.00000
     51       2.0161      2.00000
     52       2.1047      2.00000
     53       2.2720      2.00000
     54       2.4400      2.00000
     55       5.4137      0.00000
     56       5.4739      0.00000
     57       6.7836      0.00000
     58       6.8824      0.00000
     59       7.3211      0.00000
     60       7.3525      0.00000
     61       8.2221      0.00000
     62       8.2550      0.00000
     63       9.1776      0.00000
     64       9.2922      0.00000
     65       9.4728      0.00000
     66       9.6221      0.00000
     67       9.9426      0.00000
     68      10.1210      0.00000
     69      10.5329      0.00000
     70      10.6479      0.00000
     71      11.1224      0.00000
     72      11.1795      0.00000
     73      11.6323      0.00000
     74      11.6814      0.00000
     75      12.1270      0.00000
     76      12.2204      0.00000
     77      12.9066      0.00000
     78      13.1997      0.00000
     79      13.4822      0.00000
     80      13.5506      0.00000
     81      14.3947      0.00000
     82      14.4095      0.00000
     83      15.1219      0.00000
     84      15.2968      0.00000
     85      15.9531      0.00000
     86      16.1736      0.00000
     87      16.2928      0.00000
     88      16.4767      0.00000
     89      16.9765      0.00000
     90      17.0443      0.00000
     91      17.2145      0.00000
     92      17.3093      0.00000
     93      17.6316      0.00000
     94      17.9104      0.00000
     95      18.0929      0.00000
     96      18.1541      0.00000
     97      18.3170      0.00000
     98      18.4224      0.00000
     99      18.7490      0.00000
    100      18.9707      0.00000
    101      19.2866      0.00000
    102      19.3186      0.00000
    103      19.6699      0.00000
    104      19.8307      0.00000
    105      20.1621      0.00000
    106      20.1928      0.00000
    107      20.6085      0.00000
    108      20.6605      0.00000
    109      21.4155      0.00000
    110      21.4644      0.00000
    111      21.8140      0.00000
    112      21.8549      0.00000
    113      22.2373      0.00000
    114      22.3861      0.00000
    115      22.6786      0.00000
    116      22.8757      0.00000
    117      22.9672      0.00000
    118      23.2603      0.00000
    119      23.5272      0.00000
    120      23.5632      0.00000
    121      23.9019      0.00000
    122      24.0880      0.00000
    123      24.1489      0.00000
    124      24.2634      0.00000
    125      24.3128      0.00000
    126      24.5467      0.00000
    127      24.8029      0.00000
    128      24.9381      0.00000
    129      25.3136      0.00000
    130      25.4478      0.00000
    131      25.9333      0.00000
    132      26.1013      0.00000
    133      26.2050      0.00000
    134      26.4597      0.00000
    135      26.6561      0.00000
    136      26.7465      0.00000
    137      27.3826      0.00000
    138      27.4905      0.00000
    139      27.6914      0.00000
    140      27.8320      0.00000
    141      28.0825      0.00000

 k-point    90 :       0.5000    0.4412    0.5000
  band No.  band energies     occupation 
      1     -25.4543      2.00000
      2     -25.4543      2.00000
      3     -25.4414      2.00000
      4     -25.4414      2.00000
      5     -25.4119      2.00000
      6     -25.4119      2.00000
      7     -25.3893      2.00000
      8     -25.3893      2.00000
      9     -25.3839      2.00000
     10     -25.3839      2.00000
     11     -12.1807      2.00000
     12     -12.1642      2.00000
     13     -11.3688      2.00000
     14     -11.3294      2.00000
     15     -10.9799      2.00000
     16     -10.9363      2.00000
     17      -5.7795      2.00000
     18      -5.7457      2.00000
     19      -2.5252      2.00000
     20      -2.4531      2.00000
     21      -1.8607      2.00000
     22      -1.8088      2.00000
     23      -1.5570      2.00000
     24      -1.5073      2.00000
     25      -1.1426      2.00000
     26      -1.0309      2.00000
     27      -0.9609      2.00000
     28      -0.9402      2.00000
     29      -0.5989      2.00000
     30      -0.5894      2.00000
     31      -0.5023      2.00000
     32      -0.4924      2.00000
     33      -0.4204      2.00000
     34      -0.3926      2.00000
     35       0.5019      2.00000
     36       0.5230      2.00000
     37       0.5745      2.00000
     38       0.5814      2.00000
     39       0.6392      2.00000
     40       0.6563      2.00000
     41       0.6802      2.00000
     42       0.6829      2.00000
     43       1.0582      2.00000
     44       1.0704      2.00000
     45       1.2456      2.00000
     46       1.2657      2.00000
     47       1.5947      2.00000
     48       1.6267      2.00000
     49       1.7472      2.00000
     50       1.9012      2.00000
     51       2.0061      2.00000
     52       2.1089      2.00000
     53       2.2649      2.00000
     54       2.4772      2.00000
     55       5.3922      0.00000
     56       5.4723      0.00000
     57       6.7553      0.00000
     58       6.8820      0.00000
     59       7.3099      0.00000
     60       7.3537      0.00000
     61       8.2097      0.00000
     62       8.2645      0.00000
     63       9.1415      0.00000
     64       9.2720      0.00000
     65       9.4669      0.00000
     66       9.6225      0.00000
     67       9.9583      0.00000
     68      10.1660      0.00000
     69      10.5275      0.00000
     70      10.6890      0.00000
     71      11.1217      0.00000
     72      11.2084      0.00000
     73      11.6154      0.00000
     74      11.6888      0.00000
     75      12.1357      0.00000
     76      12.2565      0.00000
     77      12.8592      0.00000
     78      13.2254      0.00000
     79      13.4787      0.00000
     80      13.5993      0.00000
     81      14.3980      0.00000
     82      14.4245      0.00000
     83      15.0482      0.00000
     84      15.2737      0.00000
     85      15.8707      0.00000
     86      16.1344      0.00000
     87      16.3017      0.00000
     88      16.5119      0.00000
     89      16.9179      0.00000
     90      17.0235      0.00000
     91      17.1768      0.00000
     92      17.2882      0.00000
     93      17.6666      0.00000
     94      17.9809      0.00000
     95      18.0973      0.00000
     96      18.1598      0.00000
     97      18.3121      0.00000
     98      18.4627      0.00000
     99      18.7396      0.00000
    100      19.0458      0.00000
    101      19.2867      0.00000
    102      19.3163      0.00000
    103      19.6788      0.00000
    104      19.9018      0.00000
    105      20.1804      0.00000
    106      20.2359      0.00000
    107      20.6638      0.00000
    108      20.7427      0.00000
    109      21.3438      0.00000
    110      21.4208      0.00000
    111      21.7759      0.00000
    112      21.8221      0.00000
    113      22.2224      0.00000
    114      22.4740      0.00000
    115      22.6271      0.00000
    116      22.8684      0.00000
    117      22.9475      0.00000
    118      23.2408      0.00000
    119      23.4573      0.00000
    120      23.4919      0.00000
    121      23.8758      0.00000
    122      24.0325      0.00000
    123      24.1560      0.00000
    124      24.2534      0.00000
    125      24.3723      0.00000
    126      24.5457      0.00000
    127      24.8006      0.00000
    128      25.0361      0.00000
    129      25.2368      0.00000
    130      25.3633      0.00000
    131      25.8956      0.00000
    132      26.0727      0.00000
    133      26.1868      0.00000
    134      26.4985      0.00000
    135      26.7921      0.00000
    136      26.8506      0.00000
    137      27.2759      0.00000
    138      27.4423      0.00000
    139      27.6308      0.00000
    140      27.7960      0.00000
    141      28.1040      0.00000

 k-point    91 :       0.5000    0.4265    0.5000
  band No.  band energies     occupation 
      1     -25.4543      2.00000
      2     -25.4542      2.00000
      3     -25.4413      2.00000
      4     -25.4413      2.00000
      5     -25.4118      2.00000
      6     -25.4118      2.00000
      7     -25.3892      2.00000
      8     -25.3892      2.00000
      9     -25.3838      2.00000
     10     -25.3838      2.00000
     11     -12.1837      2.00000
     12     -12.1629      2.00000
     13     -11.3704      2.00000
     14     -11.3215      2.00000
     15     -10.9867      2.00000
     16     -10.9330      2.00000
     17      -5.7843      2.00000
     18      -5.7429      2.00000
     19      -2.5310      2.00000
     20      -2.4405      2.00000
     21      -1.8852      2.00000
     22      -1.8177      2.00000
     23      -1.5574      2.00000
     24      -1.4896      2.00000
     25      -1.1566      2.00000
     26      -1.0220      2.00000
     27      -0.9571      2.00000
     28      -0.9294      2.00000
     29      -0.6016      2.00000
     30      -0.5880      2.00000
     31      -0.5019      2.00000
     32      -0.4875      2.00000
     33      -0.4253      2.00000
     34      -0.3907      2.00000
     35       0.4976      2.00000
     36       0.5257      2.00000
     37       0.5748      2.00000
     38       0.5846      2.00000
     39       0.6380      2.00000
     40       0.6571      2.00000
     41       0.6800      2.00000
     42       0.6845      2.00000
     43       1.0513      2.00000
     44       1.0670      2.00000
     45       1.2454      2.00000
     46       1.2747      2.00000
     47       1.5865      2.00000
     48       1.6282      2.00000
     49       1.7383      2.00000
     50       1.9249      2.00000
     51       1.9997      2.00000
     52       2.1048      2.00000
     53       2.2683      2.00000
     54       2.5157      2.00000
     55       5.3678      0.00000
     56       5.4676      0.00000
     57       6.7250      0.00000
     58       6.8757      0.00000
     59       7.2980      0.00000
     60       7.3558      0.00000
     61       8.1935      0.00000
     62       8.2757      0.00000
     63       9.1013      0.00000
     64       9.2387      0.00000
     65       9.4727      0.00000
     66       9.6186      0.00000
     67       9.9858      0.00000
     68      10.2087      0.00000
     69      10.5235      0.00000
     70      10.7314      0.00000
     71      11.1244      0.00000
     72      11.2448      0.00000
     73      11.5987      0.00000
     74      11.6974      0.00000
     75      12.1498      0.00000
     76      12.2945      0.00000
     77      12.8188      0.00000
     78      13.2438      0.00000
     79      13.4749      0.00000
     80      13.6575      0.00000
     81      14.3982      0.00000
     82      14.4429      0.00000
     83      14.9707      0.00000
     84      15.2377      0.00000
     85      15.7849      0.00000
     86      16.0895      0.00000
     87      16.3100      0.00000
     88      16.5327      0.00000
     89      16.8557      0.00000
     90      16.9876      0.00000
     91      17.1574      0.00000
     92      17.2682      0.00000
     93      17.7034      0.00000
     94      17.9978      0.00000
     95      18.1103      0.00000
     96      18.1906      0.00000
     97      18.3231      0.00000
     98      18.5130      0.00000
     99      18.7401      0.00000
    100      19.1184      0.00000
    101      19.2949      0.00000
    102      19.3217      0.00000
    103      19.6996      0.00000
    104      19.9790      0.00000
    105      20.2015      0.00000
    106      20.2914      0.00000
    107      20.7260      0.00000
    108      20.8340      0.00000
    109      21.2686      0.00000
    110      21.3749      0.00000
    111      21.7301      0.00000
    112      21.7984      0.00000
    113      22.1798      0.00000
    114      22.5319      0.00000
    115      22.6097      0.00000
    116      22.8149      0.00000
    117      22.9719      0.00000
    118      23.2005      0.00000
    119      23.3683      0.00000
    120      23.4581      0.00000
    121      23.8470      0.00000
    122      23.9455      0.00000
    123      24.1369      0.00000
    124      24.2362      0.00000
    125      24.4561      0.00000
    126      24.5495      0.00000
    127      24.8009      0.00000
    128      25.0761      0.00000
    129      25.1866      0.00000
    130      25.3201      0.00000
    131      25.8546      0.00000
    132      26.0571      0.00000
    133      26.1513      0.00000
    134      26.5323      0.00000
    135      26.8799      0.00000
    136      26.9293      0.00000
    137      27.1988      0.00000
    138      27.4055      0.00000
    139      27.5990      0.00000
    140      27.7613      0.00000
    141      28.0957      0.00000

 k-point    92 :       0.5000    0.4118    0.5000
  band No.  band energies     occupation 
      1     -25.4541      2.00000
      2     -25.4541      2.00000
      3     -25.4412      2.00000
      4     -25.4412      2.00000
      5     -25.4117      2.00000
      6     -25.4117      2.00000
      7     -25.3891      2.00000
      8     -25.3891      2.00000
      9     -25.3837      2.00000
     10     -25.3837      2.00000
     11     -12.1868      2.00000
     12     -12.1616      2.00000
     13     -11.3714      2.00000
     14     -11.3133      2.00000
     15     -10.9934      2.00000
     16     -10.9302      2.00000
     17      -5.7892      2.00000
     18      -5.7405      2.00000
     19      -2.5364      2.00000
     20      -2.4272      2.00000
     21      -1.9104      2.00000
     22      -1.8283      2.00000
     23      -1.5581      2.00000
     24      -1.4724      2.00000
     25      -1.1693      2.00000
     26      -1.0141      2.00000
     27      -0.9525      2.00000
     28      -0.9172      2.00000
     29      -0.6043      2.00000
     30      -0.5863      2.00000
     31      -0.5014      2.00000
     32      -0.4821      2.00000
     33      -0.4304      2.00000
     34      -0.3893      2.00000
     35       0.4930      2.00000
     36       0.5284      2.00000
     37       0.5754      2.00000
     38       0.5881      2.00000
     39       0.6374      2.00000
     40       0.6571      2.00000
     41       0.6800      2.00000
     42       0.6869      2.00000
     43       1.0439      2.00000
     44       1.0624      2.00000
     45       1.2451      2.00000
     46       1.2845      2.00000
     47       1.5779      2.00000
     48       1.6296      2.00000
     49       1.7323      2.00000
     50       1.9456      2.00000
     51       1.9983      2.00000
     52       2.0949      2.00000
     53       2.2803      2.00000
     54       2.5551      2.00000
     55       5.3408      0.00000
     56       5.4601      0.00000
     57       6.6930      0.00000
     58       6.8636      0.00000
     59       7.2859      0.00000
     60       7.3596      0.00000
     61       8.1736      0.00000
     62       8.2878      0.00000
     63       9.0571      0.00000
     64       9.1995      0.00000
     65       9.4835      0.00000
     66       9.6164      0.00000
     67      10.0189      0.00000
     68      10.2474      0.00000
     69      10.5227      0.00000
     70      10.7702      0.00000
     71      11.1310      0.00000
     72      11.2881      0.00000
     73      11.5863      0.00000
     74      11.7074      0.00000
     75      12.1676      0.00000
     76      12.3321      0.00000
     77      12.7880      0.00000
     78      13.2583      0.00000
     79      13.4714      0.00000
     80      13.7203      0.00000
     81      14.3921      0.00000
     82      14.4643      0.00000
     83      14.8958      0.00000
     84      15.1908      0.00000
     85      15.6977      0.00000
     86      16.0413      0.00000
     87      16.3171      0.00000
     88      16.5315      0.00000
     89      16.8029      0.00000
     90      16.9415      0.00000
     91      17.1492      0.00000
     92      17.2502      0.00000
     93      17.7363      0.00000
     94      17.9854      0.00000
     95      18.1062      0.00000
     96      18.2421      0.00000
     97      18.3528      0.00000
     98      18.5677      0.00000
     99      18.7574      0.00000
    100      19.1797      0.00000
    101      19.3174      0.00000
    102      19.3405      0.00000
    103      19.7328      0.00000
    104      20.0557      0.00000
    105      20.2263      0.00000
    106      20.3602      0.00000
    107      20.7818      0.00000
    108      20.9222      0.00000
    109      21.2023      0.00000
    110      21.3411      0.00000
    111      21.6740      0.00000
    112      21.7803      0.00000
    113      22.1210      0.00000
    114      22.5114      0.00000
    115      22.6487      0.00000
    116      22.7662      0.00000
    117      22.9900      0.00000
    118      23.1453      0.00000
    119      23.3085      0.00000
    120      23.4223      0.00000
    121      23.8126      0.00000
    122      23.8603      0.00000
    123      24.1009      0.00000
    124      24.2179      0.00000
    125      24.4533      0.00000
    126      24.6327      0.00000
    127      24.8049      0.00000
    128      25.0305      0.00000
    129      25.1311      0.00000
    130      25.3781      0.00000
    131      25.8066      0.00000
    132      26.0345      0.00000
    133      26.1130      0.00000
    134      26.5623      0.00000
    135      26.8435      0.00000
    136      26.9674      0.00000
    137      27.2435      0.00000
    138      27.3645      0.00000
    139      27.5791      0.00000
    140      27.7754      0.00000
    141      28.0366      0.00000

 k-point    93 :       0.5000    0.3971    0.5000
  band No.  band energies     occupation 
      1     -25.4540      2.00000
      2     -25.4540      2.00000
      3     -25.4411      2.00000
      4     -25.4411      2.00000
      5     -25.4116      2.00000
      6     -25.4116      2.00000
      7     -25.3890      2.00000
      8     -25.3889      2.00000
      9     -25.3836      2.00000
     10     -25.3836      2.00000
     11     -12.1901      2.00000
     12     -12.1605      2.00000
     13     -11.3717      2.00000
     14     -11.3046      2.00000
     15     -11.0001      2.00000
     16     -10.9281      2.00000
     17      -5.7940      2.00000
     18      -5.7386      2.00000
     19      -2.5416      2.00000
     20      -2.4132      2.00000
     21      -1.9353      2.00000
     22      -1.8403      2.00000
     23      -1.5593      2.00000
     24      -1.4566      2.00000
     25      -1.1803      2.00000
     26      -1.0066      2.00000
     27      -0.9475      2.00000
     28      -0.9041      2.00000
     29      -0.6072      2.00000
     30      -0.5844      2.00000
     31      -0.5010      2.00000
     32      -0.4764      2.00000
     33      -0.4355      2.00000
     34      -0.3881      2.00000
     35       0.4880      2.00000
     36       0.5312      2.00000
     37       0.5763      2.00000
     38       0.5915      2.00000
     39       0.6374      2.00000
     40       0.6564      2.00000
     41       0.6800      2.00000
     42       0.6903      2.00000
     43       1.0361      2.00000
     44       1.0566      2.00000
     45       1.2446      2.00000
     46       1.2946      2.00000
     47       1.5694      2.00000
     48       1.6311      2.00000
     49       1.7290      2.00000
     50       1.9585      2.00000
     51       2.0045      2.00000
     52       2.0842      2.00000
     53       2.2974      2.00000
     54       2.5951      2.00000
     55       5.3114      0.00000
     56       5.4500      0.00000
     57       6.6597      0.00000
     58       6.8463      0.00000
     59       7.2742      0.00000
     60       7.3655      0.00000
     61       8.1504      0.00000
     62       8.3003      0.00000
     63       9.0095      0.00000
     64       9.1586      0.00000
     65       9.4948      0.00000
     66       9.6199      0.00000
     67      10.0511      0.00000
     68      10.2803      0.00000
     69      10.5286      0.00000
     70      10.8015      0.00000
     71      11.1396      0.00000
     72      11.3372      0.00000
     73      11.5834      0.00000
     74      11.7187      0.00000
     75      12.1861      0.00000
     76      12.3676      0.00000
     77      12.7699      0.00000
     78      13.2714      0.00000
     79      13.4687      0.00000
     80      13.7824      0.00000
     81      14.3764      0.00000
     82      14.4880      0.00000
     83      14.8303      0.00000
     84      15.1351      0.00000
     85      15.6109      0.00000
     86      15.9907      0.00000
     87      16.3227      0.00000
     88      16.5044      0.00000
     89      16.7660      0.00000
     90      16.8934      0.00000
     91      17.1428      0.00000
     92      17.2370      0.00000
     93      17.7617      0.00000
     94      17.9657      0.00000
     95      18.0957      0.00000
     96      18.2783      0.00000
     97      18.4029      0.00000
     98      18.6172      0.00000
     99      18.7976      0.00000
    100      19.2262      0.00000
    101      19.3555      0.00000
    102      19.3784      0.00000
    103      19.7786      0.00000
    104      20.1253      0.00000
    105      20.2559      0.00000
    106      20.4421      0.00000
    107      20.8073      0.00000
    108      20.9843      0.00000
    109      21.1687      0.00000
    110      21.3408      0.00000
    111      21.6061      0.00000
    112      21.7642      0.00000
    113      22.0657      0.00000
    114      22.4725      0.00000
    115      22.6035      0.00000
    116      22.7955      0.00000
    117      22.9714      0.00000
    118      23.0831      0.00000
    119      23.2906      0.00000
    120      23.3868      0.00000
    121      23.7591      0.00000
    122      23.7892      0.00000
    123      24.0669      0.00000
    124      24.2037      0.00000
    125      24.4015      0.00000
    126      24.7419      0.00000
    127      24.8020      0.00000
    128      24.9831      0.00000
    129      25.0816      0.00000
    130      25.4224      0.00000
    131      25.7781      0.00000
    132      25.9930      0.00000
    133      26.0878      0.00000
    134      26.5794      0.00000
    135      26.7273      0.00000
    136      26.9970      0.00000
    137      27.2960      0.00000
    138      27.3460      0.00000
    139      27.5818      0.00000
    140      27.8317      0.00000
    141      28.0213      0.00000

 k-point    94 :       0.5000    0.3824    0.5000
  band No.  band energies     occupation 
      1     -25.4539      2.00000
      2     -25.4539      2.00000
      3     -25.4410      2.00000
      4     -25.4410      2.00000
      5     -25.4115      2.00000
      6     -25.4114      2.00000
      7     -25.3888      2.00000
      8     -25.3888      2.00000
      9     -25.3834      2.00000
     10     -25.3834      2.00000
     11     -12.1935      2.00000
     12     -12.1595      2.00000
     13     -11.3714      2.00000
     14     -11.2958      2.00000
     15     -11.0066      2.00000
     16     -10.9266      2.00000
     17      -5.7988      2.00000
     18      -5.7372      2.00000
     19      -2.5467      2.00000
     20      -2.3988      2.00000
     21      -1.9591      2.00000
     22      -1.8535      2.00000
     23      -1.5610      2.00000
     24      -1.4427      2.00000
     25      -1.1894      2.00000
     26      -0.9992      2.00000
     27      -0.9420      2.00000
     28      -0.8904      2.00000
     29      -0.6100      2.00000
     30      -0.5824      2.00000
     31      -0.5008      2.00000
     32      -0.4707      2.00000
     33      -0.4404      2.00000
     34      -0.3874      2.00000
     35       0.4826      2.00000
     36       0.5339      2.00000
     37       0.5775      2.00000
     38       0.5948      2.00000
     39       0.6383      2.00000
     40       0.6553      2.00000
     41       0.6801      2.00000
     42       0.6946      2.00000
     43       1.0280      2.00000
     44       1.0496      2.00000
     45       1.2438      2.00000
     46       1.3046      2.00000
     47       1.5617      2.00000
     48       1.6326      2.00000
     49       1.7283      2.00000
     50       1.9612      2.00000
     51       2.0160      2.00000
     52       2.0794      2.00000
     53       2.3172      2.00000
     54       2.6350      2.00000
     55       5.2801      0.00000
     56       5.4376      0.00000
     57       6.6255      0.00000
     58       6.8246      0.00000
     59       7.2632      0.00000
     60       7.3737      0.00000
     61       8.1244      0.00000
     62       8.3125      0.00000
     63       8.9597      0.00000
     64       9.1183      0.00000
     65       9.5046      0.00000
     66       9.6309      0.00000
     67      10.0762      0.00000
     68      10.3068      0.00000
     69      10.5439      0.00000
     70      10.8245      0.00000
     71      11.1452      0.00000
     72      11.3914      0.00000
     73      11.5949      0.00000
     74      11.7322      0.00000
     75      12.2004      0.00000
     76      12.4017      0.00000
     77      12.7671      0.00000
     78      13.2851      0.00000
     79      13.4674      0.00000
     80      13.8373      0.00000
     81      14.3506      0.00000
     82      14.5133      0.00000
     83      14.7799      0.00000
     84      15.0734      0.00000
     85      15.5263      0.00000
     86      15.9385      0.00000
     87      16.3246      0.00000
     88      16.4603      0.00000
     89      16.7365      0.00000
     90      16.8524      0.00000
     91      17.1297      0.00000
     92      17.2338      0.00000
     93      17.7776      0.00000
     94      17.9449      0.00000
     95      18.0835      0.00000
     96      18.2996      0.00000
     97      18.4616      0.00000
     98      18.6591      0.00000
     99      18.8563      0.00000
    100      19.2682      0.00000
    101      19.3990      0.00000
    102      19.4388      0.00000
    103      19.8363      0.00000
    104      20.1825      0.00000
    105      20.2910      0.00000
    106      20.5318      0.00000
    107      20.7898      0.00000
    108      20.9874      0.00000
    109      21.1981      0.00000
    110      21.3832      0.00000
    111      21.5330      0.00000
    112      21.7487      0.00000
    113      22.0295      0.00000
    114      22.4258      0.00000
    115      22.5109      0.00000
    116      22.8409      0.00000
    117      22.9114      0.00000
    118      23.0230      0.00000
    119      23.2829      0.00000
    120      23.3831      0.00000
    121      23.6846      0.00000
    122      23.7365      0.00000
    123      24.0399      0.00000
    124      24.1973      0.00000
    125      24.3379      0.00000
    126      24.7797      0.00000
    127      24.8376      0.00000
    128      24.9347      0.00000
    129      25.0877      0.00000
    130      25.3737      0.00000
    131      25.8030      0.00000
    132      25.9452      0.00000
    133      26.0685      0.00000
    134      26.5354      0.00000
    135      26.6650      0.00000
    136      27.0004      0.00000
    137      27.2358      0.00000
    138      27.3818      0.00000
    139      27.6556      0.00000
    140      27.8896      0.00000
    141      28.0898      0.00000

 k-point    95 :       0.5000    0.3676    0.5000
  band No.  band energies     occupation 
      1     -25.4538      2.00000
      2     -25.4537      2.00000
      3     -25.4408      2.00000
      4     -25.4408      2.00000
      5     -25.4113      2.00000
      6     -25.4113      2.00000
      7     -25.3887      2.00000
      8     -25.3887      2.00000
      9     -25.3833      2.00000
     10     -25.3833      2.00000
     11     -12.1970      2.00000
     12     -12.1586      2.00000
     13     -11.3704      2.00000
     14     -11.2869      2.00000
     15     -11.0128      2.00000
     16     -10.9256      2.00000
     17      -5.8035      2.00000
     18      -5.7364      2.00000
     19      -2.5519      2.00000
     20      -2.3839      2.00000
     21      -1.9812      2.00000
     22      -1.8678      2.00000
     23      -1.5634      2.00000
     24      -1.4310      2.00000
     25      -1.1965      2.00000
     26      -0.9915      2.00000
     27      -0.9364      2.00000
     28      -0.8766      2.00000
     29      -0.6127      2.00000
     30      -0.5802      2.00000
     31      -0.5007      2.00000
     32      -0.4657      2.00000
     33      -0.4445      2.00000
     34      -0.3869      2.00000
     35       0.4770      2.00000
     36       0.5363      2.00000
     37       0.5793      2.00000
     38       0.5976      2.00000
     39       0.6399      2.00000
     40       0.6538      2.00000
     41       0.6803      2.00000
     42       0.6998      2.00000
     43       1.0199      2.00000
     44       1.0415      2.00000
     45       1.2424      2.00000
     46       1.3141      2.00000
     47       1.5552      2.00000
     48       1.6341      2.00000
     49       1.7302      2.00000
     50       1.9560      2.00000
     51       2.0241      2.00000
     52       2.0876      2.00000
     53       2.3380      2.00000
     54       2.6745      2.00000
     55       5.2474      0.00000
     56       5.4232      0.00000
     57       6.5907      0.00000
     58       6.7997      0.00000
     59       7.2530      0.00000
     60       7.3839      0.00000
     61       8.0965      0.00000
     62       8.3239      0.00000
     63       8.9092      0.00000
     64       9.0798      0.00000
     65       9.5130      0.00000
     66       9.6487      0.00000
     67      10.0889      0.00000
     68      10.3289      0.00000
     69      10.5675      0.00000
     70      10.8420      0.00000
     71      11.1435      0.00000
     72      11.4484      0.00000
     73      11.6222      0.00000
     74      11.7497      0.00000
     75      12.2055      0.00000
     76      12.4385      0.00000
     77      12.7797      0.00000
     78      13.3000      0.00000
     79      13.4678      0.00000
     80      13.8763      0.00000
     81      14.3215      0.00000
     82      14.5387      0.00000
     83      14.7454      0.00000
     84      15.0094      0.00000
     85      15.4463      0.00000
     86      15.8851      0.00000
     87      16.3156      0.00000
     88      16.4182      0.00000
     89      16.7003      0.00000
     90      16.8265      0.00000
     91      17.1063      0.00000
     92      17.2427      0.00000
     93      17.7830      0.00000
     94      17.9254      0.00000
     95      18.0720      0.00000
     96      18.3142      0.00000
     97      18.5161      0.00000
     98      18.7014      0.00000
     99      18.9182      0.00000
    100      19.3180      0.00000
    101      19.4474      0.00000
    102      19.5123      0.00000
    103      19.9041      0.00000
    104      20.2252      0.00000
    105      20.3278      0.00000
    106      20.6049      0.00000
    107      20.7641      0.00000
    108      20.9545      0.00000
    109      21.2442      0.00000
    110      21.4406      0.00000
    111      21.4920      0.00000
    112      21.7332      0.00000
    113      22.0203      0.00000
    114      22.3612      0.00000
    115      22.4234      0.00000
    116      22.8133      0.00000
    117      22.8667      0.00000
    118      22.9590      0.00000
    119      23.2586      0.00000
    120      23.4268      0.00000
    121      23.6156      0.00000
    122      23.6879      0.00000
    123      24.0164      0.00000
    124      24.1961      0.00000
    125      24.2792      0.00000
    126      24.7559      0.00000
    127      24.8634      0.00000
    128      24.9027      0.00000
    129      25.1500      0.00000
    130      25.2785      0.00000
    131      25.8149      0.00000
    132      25.8964      0.00000
    133      26.0719      0.00000
    134      26.4481      0.00000
    135      26.6679      0.00000
    136      26.9582      0.00000
    137      27.1788      0.00000
    138      27.4081      0.00000
    139      27.7704      0.00000
    140      27.9639      0.00000
    141      28.2051      0.00000

 k-point    96 :       0.5000    0.3529    0.5000
  band No.  band energies     occupation 
      1     -25.4536      2.00000
      2     -25.4536      2.00000
      3     -25.4407      2.00000
      4     -25.4406      2.00000
      5     -25.4112      2.00000
      6     -25.4111      2.00000
      7     -25.3885      2.00000
      8     -25.3885      2.00000
      9     -25.3831      2.00000
     10     -25.3831      2.00000
     11     -12.2006      2.00000
     12     -12.1578      2.00000
     13     -11.3689      2.00000
     14     -11.2780      2.00000
     15     -11.0187      2.00000
     16     -10.9252      2.00000
     17      -5.8081      2.00000
     18      -5.7363      2.00000
     19      -2.5575      2.00000
     20      -2.3689      2.00000
     21      -2.0007      2.00000
     22      -1.8828      2.00000
     23      -1.5666      2.00000
     24      -1.4213      2.00000
     25      -1.2016      2.00000
     26      -0.9836      2.00000
     27      -0.9306      2.00000
     28      -0.8629      2.00000
     29      -0.6153      2.00000
     30      -0.5779      2.00000
     31      -0.5011      2.00000
     32      -0.4627      2.00000
     33      -0.4465      2.00000
     34      -0.3868      2.00000
     35       0.4713      2.00000
     36       0.5383      2.00000
     37       0.5815      2.00000
     38       0.5999      2.00000
     39       0.6423      2.00000
     40       0.6522      2.00000
     41       0.6808      2.00000
     42       0.7058      2.00000
     43       1.0118      2.00000
     44       1.0327      2.00000
     45       1.2403      2.00000
     46       1.3229      2.00000
     47       1.5502      2.00000
     48       1.6355      2.00000
     49       1.7345      2.00000
     50       1.9450      2.00000
     51       2.0287      2.00000
     52       2.1076      2.00000
     53       2.3590      2.00000
     54       2.7127      2.00000
     55       5.2137      0.00000
     56       5.4074      0.00000
     57       6.5555      0.00000
     58       6.7727      0.00000
     59       7.2438      0.00000
     60       7.3958      0.00000
     61       8.0674      0.00000
     62       8.3338      0.00000
     63       8.8593      0.00000
     64       9.0437      0.00000
     65       9.5206      0.00000
     66       9.6718      0.00000
     67      10.0866      0.00000
     68      10.3491      0.00000
     69      10.5934      0.00000
     70      10.8591      0.00000
     71      11.1353      0.00000
     72      11.5019      0.00000
     73      11.6632      0.00000
     74      11.7744      0.00000
     75      12.1999      0.00000
     76      12.4821      0.00000
     77      12.8049      0.00000
     78      13.3162      0.00000
     79      13.4703      0.00000
     80      13.8890      0.00000
     81      14.3027      0.00000
     82      14.5616      0.00000
     83      14.7224      0.00000
     84      14.9486      0.00000
     85      15.3733      0.00000
     86      15.8313      0.00000
     87      16.2848      0.00000
     88      16.3966      0.00000
     89      16.6559      0.00000
     90      16.8138      0.00000
     91      17.0756      0.00000
     92      17.2602      0.00000
     93      17.7776      0.00000
     94      17.9089      0.00000
     95      18.0626      0.00000
     96      18.3259      0.00000
     97      18.5597      0.00000
     98      18.7519      0.00000
     99      18.9705      0.00000
    100      19.3786      0.00000
    101      19.4995      0.00000
    102      19.5944      0.00000
    103      19.9793      0.00000
    104      20.2523      0.00000
    105      20.3584      0.00000
    106      20.6005      0.00000
    107      20.8041      0.00000
    108      20.9252      0.00000
    109      21.2317      0.00000
    110      21.4634      0.00000
    111      21.5553      0.00000
    112      21.7176      0.00000
    113      22.0394      0.00000
    114      22.2696      0.00000
    115      22.3670      0.00000
    116      22.7265      0.00000
    117      22.8223      0.00000
    118      22.8906      0.00000
    119      23.2332      0.00000
    120      23.4677      0.00000
    121      23.5759      0.00000
    122      23.6553      0.00000
    123      23.9909      0.00000
    124      24.1943      0.00000
    125      24.2399      0.00000
    126      24.7002      0.00000
    127      24.8328      0.00000
    128      24.9019      0.00000
    129      25.1614      0.00000
    130      25.2844      0.00000
    131      25.7496      0.00000
    132      25.8439      0.00000
    133      26.1154      0.00000
    134      26.3923      0.00000
    135      26.6698      0.00000
    136      26.8778      0.00000
    137      27.1425      0.00000
    138      27.4618      0.00000
    139      27.8850      0.00000
    140      28.0614      0.00000
    141      28.3153      0.00000

 k-point    97 :       0.5000    0.3382    0.5000
  band No.  band energies     occupation 
      1     -25.4534      2.00000
      2     -25.4534      2.00000
      3     -25.4405      2.00000
      4     -25.4405      2.00000
      5     -25.4110      2.00000
      6     -25.4109      2.00000
      7     -25.3883      2.00000
      8     -25.3883      2.00000
      9     -25.3829      2.00000
     10     -25.3829      2.00000
     11     -12.2042      2.00000
     12     -12.1571      2.00000
     13     -11.3668      2.00000
     14     -11.2693      2.00000
     15     -11.0240      2.00000
     16     -10.9253      2.00000
     17      -5.8126      2.00000
     18      -5.7367      2.00000
     19      -2.5637      2.00000
     20      -2.3538      2.00000
     21      -2.0173      2.00000
     22      -1.8984      2.00000
     23      -1.5707      2.00000
     24      -1.4133      2.00000
     25      -1.2048      2.00000
     26      -0.9757      2.00000
     27      -0.9245      2.00000
     28      -0.8495      2.00000
     29      -0.6177      2.00000
     30      -0.5756      2.00000
     31      -0.5018      2.00000
     32      -0.4633      2.00000
     33      -0.4447      2.00000
     34      -0.3869      2.00000
     35       0.4654      2.00000
     36       0.5400      2.00000
     37       0.5840      2.00000
     38       0.6016      2.00000
     39       0.6451      2.00000
     40       0.6505      2.00000
     41       0.6816      2.00000
     42       0.7128      2.00000
     43       1.0039      2.00000
     44       1.0233      2.00000
     45       1.2374      2.00000
     46       1.3307      2.00000
     47       1.5467      2.00000
     48       1.6370      2.00000
     49       1.7412      2.00000
     50       1.9297      2.00000
     51       2.0345      2.00000
     52       2.1332      2.00000
     53       2.3797      2.00000
     54       2.7491      2.00000
     55       5.1796      0.00000
     56       5.3905      0.00000
     57       6.5202      0.00000
     58       6.7450      0.00000
     59       7.2356      0.00000
     60       7.4088      0.00000
     61       8.0381      0.00000
     62       8.3418      0.00000
     63       8.8112      0.00000
     64       9.0109      0.00000
     65       9.5278      0.00000
     66       9.6987      0.00000
     67      10.0710      0.00000
     68      10.3675      0.00000
     69      10.6132      0.00000
     70      10.8808      0.00000
     71      11.1259      0.00000
     72      11.5415      0.00000
     73      11.7156      0.00000
     74      11.8077      0.00000
     75      12.1883      0.00000
     76      12.5334      0.00000
     77      12.8380      0.00000
     78      13.3333      0.00000
     79      13.4752      0.00000
     80      13.8712      0.00000
     81      14.3036      0.00000
     82      14.5769      0.00000
     83      14.7060      0.00000
     84      14.8979      0.00000
     85      15.3102      0.00000
     86      15.7780      0.00000
     87      16.2395      0.00000
     88      16.3910      0.00000
     89      16.6107      0.00000
     90      16.8074      0.00000
     91      17.0414      0.00000
     92      17.2824      0.00000
     93      17.7621      0.00000
     94      17.8960      0.00000
     95      18.0570      0.00000
     96      18.3363      0.00000
     97      18.5921      0.00000
     98      18.8110      0.00000
     99      19.0092      0.00000
    100      19.4439      0.00000
    101      19.5538      0.00000
    102      19.6819      0.00000
    103      20.0585      0.00000
    104      20.2576      0.00000
    105      20.3754      0.00000
    106      20.5579      0.00000
    107      20.8555      0.00000
    108      20.9334      0.00000
    109      21.1989      0.00000
    110      21.4685      0.00000
    111      21.6397      0.00000
    112      21.7197      0.00000
    113      22.0695      0.00000
    114      22.1844      0.00000
    115      22.3325      0.00000
    116      22.6379      0.00000
    117      22.7387      0.00000
    118      22.8257      0.00000
    119      23.1936      0.00000
    120      23.4424      0.00000
    121      23.5888      0.00000
    122      23.6752      0.00000
    123      23.9646      0.00000
    124      24.1827      0.00000
    125      24.2298      0.00000
    126      24.5824      0.00000
    127      24.8469      0.00000
    128      24.8570      0.00000
    129      25.1447      0.00000
    130      25.3821      0.00000
    131      25.6426      0.00000
    132      25.7832      0.00000
    133      26.1627      0.00000
    134      26.3736      0.00000
    135      26.6505      0.00000
    136      26.7913      0.00000
    137      27.1372      0.00000
    138      27.5389      0.00000
    139      27.9854      0.00000
    140      28.1649      0.00000
    141      28.3568      0.00000

 k-point    98 :       0.5000    0.3235    0.5000
  band No.  band energies     occupation 
      1     -25.4532      2.00000
      2     -25.4532      2.00000
      3     -25.4403      2.00000
      4     -25.4403      2.00000
      5     -25.4108      2.00000
      6     -25.4107      2.00000
      7     -25.3882      2.00000
      8     -25.3881      2.00000
      9     -25.3828      2.00000
     10     -25.3827      2.00000
     11     -12.2078      2.00000
     12     -12.1564      2.00000
     13     -11.3642      2.00000
     14     -11.2610      2.00000
     15     -11.0288      2.00000
     16     -10.9258      2.00000
     17      -5.8169      2.00000
     18      -5.7378      2.00000
     19      -2.5708      2.00000
     20      -2.3389      2.00000
     21      -2.0305      2.00000
     22      -1.9143      2.00000
     23      -1.5756      2.00000
     24      -1.4067      2.00000
     25      -1.2064      2.00000
     26      -0.9682      2.00000
     27      -0.9178      2.00000
     28      -0.8365      2.00000
     29      -0.6201      2.00000
     30      -0.5733      2.00000
     31      -0.5032      2.00000
     32      -0.4661      2.00000
     33      -0.4406      2.00000
     34      -0.3873      2.00000
     35       0.4596      2.00000
     36       0.5414      2.00000
     37       0.5868      2.00000
     38       0.6028      2.00000
     39       0.6472      2.00000
     40       0.6496      2.00000
     41       0.6829      2.00000
     42       0.7205      2.00000
     43       0.9962      2.00000
     44       1.0140      2.00000
     45       1.2335      2.00000
     46       1.3374      2.00000
     47       1.5449      2.00000
     48       1.6384      2.00000
     49       1.7499      2.00000
     50       1.9126      2.00000
     51       2.0426      2.00000
     52       2.1611      2.00000
     53       2.3996      2.00000
     54       2.7830      2.00000
     55       5.1456      0.00000
     56       5.3729      0.00000
     57       6.4850      0.00000
     58       6.7174      0.00000
     59       7.2282      0.00000
     60       7.4223      0.00000
     61       8.0096      0.00000
     62       8.3477      0.00000
     63       8.7658      0.00000
     64       8.9819      0.00000
     65       9.5344      0.00000
     66       9.7283      0.00000
     67      10.0456      0.00000
     68      10.3823      0.00000
     69      10.6215      0.00000
     70      10.9071      0.00000
     71      11.1237      0.00000
     72      11.5609      0.00000
     73      11.7743      0.00000
     74      11.8469      0.00000
     75      12.1810      0.00000
     76      12.5907      0.00000
     77      12.8753      0.00000
     78      13.3506      0.00000
     79      13.4819      0.00000
     80      13.8319      0.00000
     81      14.3194      0.00000
     82      14.5771      0.00000
     83      14.6944      0.00000
     84      14.8657      0.00000
     85      15.2595      0.00000
     86      15.7262      0.00000
     87      16.1931      0.00000
     88      16.3869      0.00000
     89      16.5724      0.00000
     90      16.8025      0.00000
     91      17.0067      0.00000
     92      17.3065      0.00000
     93      17.7389      0.00000
     94      17.8865      0.00000
     95      18.0555      0.00000
     96      18.3464      0.00000
     97      18.6168      0.00000
     98      18.8741      0.00000
     99      19.0368      0.00000
    100      19.5036      0.00000
    101      19.6068      0.00000
    102      19.7686      0.00000
    103      20.1328      0.00000
    104      20.2394      0.00000
    105      20.3746      0.00000
    106      20.5332      0.00000
    107      20.8580      0.00000
    108      20.9771      0.00000
    109      21.2186      0.00000
    110      21.4440      0.00000
    111      21.6392      0.00000
    112      21.8041      0.00000
    113      22.0457      0.00000
    114      22.1628      0.00000
    115      22.3168      0.00000
    116      22.5515      0.00000
    117      22.6462      0.00000
    118      22.7731      0.00000
    119      23.1348      0.00000
    120      23.3762      0.00000
    121      23.6104      0.00000
    122      23.7482      0.00000
    123      23.9469      0.00000
    124      24.1568      0.00000
    125      24.2440      0.00000
    126      24.4324      0.00000
    127      24.7804      0.00000
    128      24.9041      0.00000
    129      25.1540      0.00000
    130      25.4568      0.00000
    131      25.5347      0.00000
    132      25.7416      0.00000
    133      26.1825      0.00000
    134      26.3767      0.00000
    135      26.5998      0.00000
    136      26.7350      0.00000
    137      27.1646      0.00000
    138      27.6245      0.00000
    139      28.0526      0.00000
    140      28.2518      0.00000
    141      28.3313      0.00000

 k-point    99 :       0.5000    0.3088    0.5000
  band No.  band energies     occupation 
      1     -25.4530      2.00000
      2     -25.4530      2.00000
      3     -25.4401      2.00000
      4     -25.4401      2.00000
      5     -25.4106      2.00000
      6     -25.4106      2.00000
      7     -25.3880      2.00000
      8     -25.3879      2.00000
      9     -25.3826      2.00000
     10     -25.3825      2.00000
     11     -12.2114      2.00000
     12     -12.1559      2.00000
     13     -11.3611      2.00000
     14     -11.2532      2.00000
     15     -11.0329      2.00000
     16     -10.9267      2.00000
     17      -5.8212      2.00000
     18      -5.7396      2.00000
     19      -2.5788      2.00000
     20      -2.3243      2.00000
     21      -2.0399      2.00000
     22      -1.9303      2.00000
     23      -1.5812      2.00000
     24      -1.4007      2.00000
     25      -1.2067      2.00000
     26      -0.9617      2.00000
     27      -0.9104      2.00000
     28      -0.8240      2.00000
     29      -0.6222      2.00000
     30      -0.5710      2.00000
     31      -0.5052      2.00000
     32      -0.4693      2.00000
     33      -0.4359      2.00000
     34      -0.3878      2.00000
     35       0.4538      2.00000
     36       0.5426      2.00000
     37       0.5897      2.00000
     38       0.6035      2.00000
     39       0.6462      2.00000
     40       0.6516      2.00000
     41       0.6847      2.00000
     42       0.7289      2.00000
     43       0.9885      2.00000
     44       1.0054      2.00000
     45       1.2286      2.00000
     46       1.3429      2.00000
     47       1.5443      2.00000
     48       1.6395      2.00000
     49       1.7600      2.00000
     50       1.8957      2.00000
     51       2.0529      2.00000
     52       2.1897      2.00000
     53       2.4186      2.00000
     54       2.8137      2.00000
     55       5.1123      0.00000
     56       5.3551      0.00000
     57       6.4502      0.00000
     58       6.6912      0.00000
     59       7.2217      0.00000
     60       7.4356      0.00000
     61       7.9828      0.00000
     62       8.3510      0.00000
     63       8.7241      0.00000
     64       8.9576      0.00000
     65       9.5398      0.00000
     66       9.7596      0.00000
     67      10.0139      0.00000
     68      10.3911      0.00000
     69      10.6186      0.00000
     70      10.9297      0.00000
     71      11.1375      0.00000
     72      11.5628      0.00000
     73      11.8218      0.00000
     74      11.8909      0.00000
     75      12.1907      0.00000
     76      12.6506      0.00000
     77      12.9137      0.00000
     78      13.3681      0.00000
     79      13.4892      0.00000
     80      13.7866      0.00000
     81      14.3356      0.00000
     82      14.5634      0.00000
     83      14.6851      0.00000
     84      14.8566      0.00000
     85      15.2233      0.00000
     86      15.6776      0.00000
     87      16.1515      0.00000
     88      16.3749      0.00000
     89      16.5481      0.00000
     90      16.7965      0.00000
     91      16.9746      0.00000
     92      17.3308      0.00000
     93      17.7117      0.00000
     94      17.8794      0.00000
     95      18.0581      0.00000
     96      18.3570      0.00000
     97      18.6371      0.00000
     98      18.9353      0.00000
     99      19.0572      0.00000
    100      19.5510      0.00000
    101      19.6482      0.00000
    102      19.8447      0.00000
    103      20.1565      0.00000
    104      20.2414      0.00000
    105      20.3711      0.00000
    106      20.5321      0.00000
    107      20.8469      0.00000
    108      21.0208      0.00000
    109      21.2892      0.00000
    110      21.4020      0.00000
    111      21.6107      0.00000
    112      21.8657      0.00000
    113      22.0105      0.00000
    114      22.1715      0.00000
    115      22.3054      0.00000
    116      22.4625      0.00000
    117      22.5776      0.00000
    118      22.7574      0.00000
    119      23.0683      0.00000
    120      23.2998      0.00000
    121      23.6245      0.00000
    122      23.8247      0.00000
    123      23.9472      0.00000
    124      24.1161      0.00000
    125      24.2505      0.00000
    126      24.3114      0.00000
    127      24.7097      0.00000
    128      24.9722      0.00000
    129      25.1616      0.00000
    130      25.3886      0.00000
    131      25.5265      0.00000
    132      25.7603      0.00000
    133      26.1667      0.00000
    134      26.3733      0.00000
    135      26.5450      0.00000
    136      26.7201      0.00000
    137      27.2138      0.00000
    138      27.7024      0.00000
    139      28.0467      0.00000
    140      28.3051      0.00000
    141      28.3446      0.00000

 k-point   100 :       0.5000    0.2941    0.5000
  band No.  band energies     occupation 
      1     -25.4528      2.00000
      2     -25.4528      2.00000
      3     -25.4399      2.00000
      4     -25.4399      2.00000
      5     -25.4104      2.00000
      6     -25.4103      2.00000
      7     -25.3878      2.00000
      8     -25.3877      2.00000
      9     -25.3824      2.00000
     10     -25.3823      2.00000
     11     -12.2149      2.00000
     12     -12.1555      2.00000
     13     -11.3576      2.00000
     14     -11.2462      2.00000
     15     -11.0363      2.00000
     16     -10.9278      2.00000
     17      -5.8253      2.00000
     18      -5.7420      2.00000
     19      -2.5881      2.00000
     20      -2.3100      2.00000
     21      -2.0455      2.00000
     22      -1.9461      2.00000
     23      -1.5874      2.00000
     24      -1.3950      2.00000
     25      -1.2060      2.00000
     26      -0.9568      2.00000
     27      -0.9019      2.00000
     28      -0.8121      2.00000
     29      -0.6243      2.00000
     30      -0.5689      2.00000
     31      -0.5079      2.00000
     32      -0.4721      2.00000
     33      -0.4315      2.00000
     34      -0.3883      2.00000
     35       0.4481      2.00000
     36       0.5435      2.00000
     37       0.5926      2.00000
     38       0.6038      2.00000
     39       0.6443      2.00000
     40       0.6539      2.00000
     41       0.6870      2.00000
     42       0.7376      2.00000
     43       0.9807      2.00000
     44       0.9982      2.00000
     45       1.2229      2.00000
     46       1.3473      2.00000
     47       1.5447      2.00000
     48       1.6404      2.00000
     49       1.7704      2.00000
     50       1.8811      2.00000
     51       2.0647      2.00000
     52       2.2185      2.00000
     53       2.4365      2.00000
     54       2.8405      2.00000
     55       5.0801      0.00000
     56       5.3375      0.00000
     57       6.4159      0.00000
     58       6.6669      0.00000
     59       7.2157      0.00000
     60       7.4481      0.00000
     61       7.9584      0.00000
     62       8.3516      0.00000
     63       8.6868      0.00000
     64       8.9384      0.00000
     65       9.5432      0.00000
     66       9.7918      0.00000
     67       9.9786      0.00000
     68      10.3922      0.00000
     69      10.6091      0.00000
     70      10.9409      0.00000
     71      11.1701      0.00000
     72      11.5536      0.00000
     73      11.8356      0.00000
     74      11.9458      0.00000
     75      12.2256      0.00000
     76      12.7094      0.00000
     77      12.9523      0.00000
     78      13.3861      0.00000
     79      13.4954      0.00000
     80      13.7482      0.00000
     81      14.3371      0.00000
     82      14.5524      0.00000
     83      14.6723      0.00000
     84      14.8682      0.00000
     85      15.2017      0.00000
     86      15.6340      0.00000
     87      16.1167      0.00000
     88      16.3511      0.00000
     89      16.5416      0.00000
     90      16.7866      0.00000
     91      16.9483      0.00000
     92      17.3538      0.00000
     93      17.6837      0.00000
     94      17.8743      0.00000
     95      18.0640      0.00000
     96      18.3683      0.00000
     97      18.6548      0.00000
     98      18.9880      0.00000
     99      19.0750      0.00000
    100      19.5848      0.00000
    101      19.6606      0.00000
    102      19.8971      0.00000
    103      20.1334      0.00000
    104      20.2459      0.00000
    105      20.4182      0.00000
    106      20.5369      0.00000
    107      20.8422      0.00000
    108      21.0750      0.00000
    109      21.3056      0.00000
    110      21.4221      0.00000
    111      21.5834      0.00000
    112      21.8323      0.00000
    113      22.0223      0.00000
    114      22.1640      0.00000
    115      22.2676      0.00000
    116      22.4114      0.00000
    117      22.5314      0.00000
    118      22.7943      0.00000
    119      23.0102      0.00000
    120      23.2284      0.00000
    121      23.6222      0.00000
    122      23.8277      0.00000
    123      23.9706      0.00000
    124      24.0836      0.00000
    125      24.1808      0.00000
    126      24.3332      0.00000
    127      24.6454      0.00000
    128      25.0380      0.00000
    129      25.1510      0.00000
    130      25.2990      0.00000
    131      25.5284      0.00000
    132      25.8340      0.00000
    133      26.1252      0.00000
    134      26.3316      0.00000
    135      26.5364      0.00000
    136      26.7311      0.00000
    137      27.2705      0.00000
    138      27.7507      0.00000
    139      27.9790      0.00000
    140      28.3441      0.00000
    141      28.3720      0.00000

 k-point   101 :       0.5000    0.2794    0.5000
  band No.  band energies     occupation 
      1     -25.4526      2.00000
      2     -25.4526      2.00000
      3     -25.4397      2.00000
      4     -25.4397      2.00000
      5     -25.4102      2.00000
      6     -25.4101      2.00000
      7     -25.3876      2.00000
      8     -25.3875      2.00000
      9     -25.3822      2.00000
     10     -25.3821      2.00000
     11     -12.2183      2.00000
     12     -12.1551      2.00000
     13     -11.3537      2.00000
     14     -11.2399      2.00000
     15     -11.0391      2.00000
     16     -10.9290      2.00000
     17      -5.8292      2.00000
     18      -5.7450      2.00000
     19      -2.5985      2.00000
     20      -2.2963      2.00000
     21      -2.0473      2.00000
     22      -1.9615      2.00000
     23      -1.5940      2.00000
     24      -1.3891      2.00000
     25      -1.2046      2.00000
     26      -0.9539      2.00000
     27      -0.8923      2.00000
     28      -0.8009      2.00000
     29      -0.6263      2.00000
     30      -0.5670      2.00000
     31      -0.5110      2.00000
     32      -0.4744      2.00000
     33      -0.4276      2.00000
     34      -0.3888      2.00000
     35       0.4426      2.00000
     36       0.5444      2.00000
     37       0.5953      2.00000
     38       0.6039      2.00000
     39       0.6423      2.00000
     40       0.6556      2.00000
     41       0.6898      2.00000
     42       0.7461      2.00000
     43       0.9731      2.00000
     44       0.9931      2.00000
     45       1.2166      2.00000
     46       1.3507      2.00000
     47       1.5453      2.00000
     48       1.6407      2.00000
     49       1.7793      2.00000
     50       1.8715      2.00000
     51       2.0776      2.00000
     52       2.2470      2.00000
     53       2.4532      2.00000
     54       2.8630      2.00000
     55       5.0494      0.00000
     56       5.3205      0.00000
     57       6.3825      0.00000
     58       6.6454      0.00000
     59       7.2102      0.00000
     60       7.4594      0.00000
     61       7.9369      0.00000
     62       8.3495      0.00000
     63       8.6546      0.00000
     64       8.9248      0.00000
     65       9.5437      0.00000
     66       9.8239      0.00000
     67       9.9418      0.00000
     68      10.3851      0.00000
     69      10.5976      0.00000
     70      10.9414      0.00000
     71      11.2106      0.00000
     72      11.5421      0.00000
     73      11.8204      0.00000
     74      12.0033      0.00000
     75      12.2817      0.00000
     76      12.7623      0.00000
     77      12.9913      0.00000
     78      13.4054      0.00000
     79      13.5003      0.00000
     80      13.7238      0.00000
     81      14.3180      0.00000
     82      14.5569      0.00000
     83      14.6562      0.00000
     84      14.8926      0.00000
     85      15.1933      0.00000
     86      15.5972      0.00000
     87      16.0893      0.00000
     88      16.3189      0.00000
     89      16.5498      0.00000
     90      16.7710      0.00000
     91      16.9307      0.00000
     92      17.3742      0.00000
     93      17.6581      0.00000
     94      17.8713      0.00000
     95      18.0724      0.00000
     96      18.3805      0.00000
     97      18.6703      0.00000
     98      19.0238      0.00000
     99      19.0953      0.00000
    100      19.6012      0.00000
    101      19.6356      0.00000
    102      19.9188      0.00000
    103      20.1168      0.00000
    104      20.2362      0.00000
    105      20.4774      0.00000
    106      20.5675      0.00000
    107      20.8408      0.00000
    108      21.1335      0.00000
    109      21.2771      0.00000
    110      21.4781      0.00000
    111      21.5758      0.00000
    112      21.7735      0.00000
    113      22.0051      0.00000
    114      22.1304      0.00000
    115      22.1827      0.00000
    116      22.4592      0.00000
    117      22.4994      0.00000
    118      22.8422      0.00000
    119      22.9770      0.00000
    120      23.1860      0.00000
    121      23.5932      0.00000
    122      23.7314      0.00000
    123      23.9603      0.00000
    124      24.1130      0.00000
    125      24.1810      0.00000
    126      24.3799      0.00000
    127      24.5975      0.00000
    128      25.0488      0.00000
    129      25.1253      0.00000
    130      25.2752      0.00000
    131      25.5406      0.00000
    132      25.9069      0.00000
    133      26.0838      0.00000
    134      26.2740      0.00000
    135      26.5613      0.00000
    136      26.7572      0.00000
    137      27.3229      0.00000
    138      27.7476      0.00000
    139      27.8979      0.00000
    140      28.3527      0.00000
    141      28.4231      0.00000

 k-point   102 :       0.5000    0.2647    0.5000
  band No.  band energies     occupation 
      1     -25.4524      2.00000
      2     -25.4524      2.00000
      3     -25.4395      2.00000
      4     -25.4395      2.00000
      5     -25.4100      2.00000
      6     -25.4099      2.00000
      7     -25.3873      2.00000
      8     -25.3873      2.00000
      9     -25.3819      2.00000
     10     -25.3819      2.00000
     11     -12.2215      2.00000
     12     -12.1549      2.00000
     13     -11.3495      2.00000
     14     -11.2346      2.00000
     15     -11.0413      2.00000
     16     -10.9302      2.00000
     17      -5.8330      2.00000
     18      -5.7485      2.00000
     19      -2.6100      2.00000
     20      -2.2831      2.00000
     21      -2.0461      2.00000
     22      -1.9757      2.00000
     23      -1.6008      2.00000
     24      -1.3827      2.00000
     25      -1.2027      2.00000
     26      -0.9530      2.00000
     27      -0.8819      2.00000
     28      -0.7906      2.00000
     29      -0.6282      2.00000
     30      -0.5654      2.00000
     31      -0.5144      2.00000
     32      -0.4762      2.00000
     33      -0.4246      2.00000
     34      -0.3889      2.00000
     35       0.4374      2.00000
     36       0.5453      2.00000
     37       0.5977      2.00000
     38       0.6038      2.00000
     39       0.6401      2.00000
     40       0.6569      2.00000
     41       0.6929      2.00000
     42       0.7537      2.00000
     43       0.9659      2.00000
     44       0.9905      2.00000
     45       1.2098      2.00000
     46       1.3532      2.00000
     47       1.5456      2.00000
     48       1.6401      2.00000
     49       1.7845      2.00000
     50       1.8695      2.00000
     51       2.0914      2.00000
     52       2.2749      2.00000
     53       2.4687      2.00000
     54       2.8807      2.00000
     55       5.0206      0.00000
     56       5.3044      0.00000
     57       6.3500      0.00000
     58       6.6272      0.00000
     59       7.2051      0.00000
     60       7.4689      0.00000
     61       7.9187      0.00000
     62       8.3446      0.00000
     63       8.6280      0.00000
     64       8.9171      0.00000
     65       9.5403      0.00000
     66       9.8544      0.00000
     67       9.9056      0.00000
     68      10.3714      0.00000
     69      10.5867      0.00000
     70      10.9356      0.00000
     71      11.2395      0.00000
     72      11.5414      0.00000
     73      11.7884      0.00000
     74      12.0543      0.00000
     75      12.3485      0.00000
     76      12.8055      0.00000
     77      13.0322      0.00000
     78      13.4265      0.00000
     79      13.5077      0.00000
     80      13.7141      0.00000
     81      14.2868      0.00000
     82      14.5713      0.00000
     83      14.6435      0.00000
     84      14.9221      0.00000
     85      15.1954      0.00000
     86      15.5692      0.00000
     87      16.0695      0.00000
     88      16.2835      0.00000
     89      16.5674      0.00000
     90      16.7500      0.00000
     91      16.9223      0.00000
     92      17.3907      0.00000
     93      17.6378      0.00000
     94      17.8702      0.00000
     95      18.0825      0.00000
     96      18.3934      0.00000
     97      18.6829      0.00000
     98      19.0391      0.00000
     99      19.1172      0.00000
    100      19.5605      0.00000
    101      19.6201      0.00000
    102      19.9198      0.00000
    103      20.0885      0.00000
    104      20.2512      0.00000
    105      20.4877      0.00000
    106      20.6419      0.00000
    107      20.8341      0.00000
    108      21.1887      0.00000
    109      21.2855      0.00000
    110      21.4727      0.00000
    111      21.5972      0.00000
    112      21.7295      0.00000
    113      21.9480      0.00000
    114      22.0757      0.00000
    115      22.1254      0.00000
    116      22.4531      0.00000
    117      22.5646      0.00000
    118      22.8622      0.00000
    119      22.9566      0.00000
    120      23.2033      0.00000
    121      23.5127      0.00000
    122      23.6486      0.00000
    123      23.9141      0.00000
    124      24.1242      0.00000
    125      24.2707      0.00000
    126      24.4206      0.00000
    127      24.5850      0.00000
    128      24.9856      0.00000
    129      25.0936      0.00000
    130      25.3330      0.00000
    131      25.5721      0.00000
    132      25.9106      0.00000
    133      26.0974      0.00000
    134      26.2365      0.00000
    135      26.5914      0.00000
    136      26.7924      0.00000
    137      27.3608      0.00000
    138      27.6953      0.00000
    139      27.8238      0.00000
    140      28.3421      0.00000
    141      28.4903      0.00000

 k-point   103 :       0.5000    0.2500    0.5000
  band No.  band energies     occupation 
      1     -25.4522      2.00000
      2     -25.4522      2.00000
      3     -25.4393      2.00000
      4     -25.4393      2.00000
      5     -25.4098      2.00000
      6     -25.4097      2.00000
      7     -25.3871      2.00000
      8     -25.3871      2.00000
      9     -25.3817      2.00000
     10     -25.3817      2.00000
     11     -12.2247      2.00000
     12     -12.1548      2.00000
     13     -11.3450      2.00000
     14     -11.2301      2.00000
     15     -11.0431      2.00000
     16     -10.9312      2.00000
     17      -5.8365      2.00000
     18      -5.7526      2.00000
     19      -2.6226      2.00000
     20      -2.2703      2.00000
     21      -2.0431      2.00000
     22      -1.9879      2.00000
     23      -1.6074      2.00000
     24      -1.3755      2.00000
     25      -1.2005      2.00000
     26      -0.9540      2.00000
     27      -0.8712      2.00000
     28      -0.7811      2.00000
     29      -0.6301      2.00000
     30      -0.5641      2.00000
     31      -0.5177      2.00000
     32      -0.4777      2.00000
     33      -0.4226      2.00000
     34      -0.3886      2.00000
     35       0.4326      2.00000
     36       0.5460      2.00000
     37       0.5994      2.00000
     38       0.6037      2.00000
     39       0.6378      2.00000
     40       0.6577      2.00000
     41       0.6961      2.00000
     42       0.7597      2.00000
     43       0.9596      2.00000
     44       0.9909      2.00000
     45       1.2028      2.00000
     46       1.3549      2.00000
     47       1.5449      2.00000
     48       1.6383      2.00000
     49       1.7856      2.00000
     50       1.8764      2.00000
     51       2.1056      2.00000
     52       2.3018      2.00000
     53       2.4829      2.00000
     54       2.8935      2.00000
     55       4.9937      0.00000
     56       5.2895      0.00000
     57       6.3188      0.00000
     58       6.6127      0.00000
     59       7.2004      0.00000
     60       7.4765      0.00000
     61       7.9038      0.00000
     62       8.3369      0.00000
     63       8.6077      0.00000
     64       8.9156      0.00000
     65       9.5319      0.00000
     66       9.8643      0.00000
     67       9.8892      0.00000
     68      10.3538      0.00000
     69      10.5769      0.00000
     70      10.9261      0.00000
     71      11.2397      0.00000
     72      11.5644      0.00000
     73      11.7470      0.00000
     74      12.0943      0.00000
     75      12.4176      0.00000
     76      12.8368      0.00000
     77      13.0755      0.00000
     78      13.4491      0.00000
     79      13.5237      0.00000
     80      13.7164      0.00000
     81      14.2551      0.00000
     82      14.5799      0.00000
     83      14.6464      0.00000
     84      14.9515      0.00000
     85      15.2056      0.00000
     86      15.5517      0.00000
     87      16.0571      0.00000
     88      16.2488      0.00000
     89      16.5893      0.00000
     90      16.7279      0.00000
     91      16.9210      0.00000
     92      17.4024      0.00000
     93      17.6258      0.00000
     94      17.8706      0.00000
     95      18.0939      0.00000
     96      18.4067      0.00000
     97      18.6901      0.00000
     98      19.0396      0.00000
     99      19.1308      0.00000
    100      19.4835      0.00000
    101      19.6117      0.00000
    102      19.9112      0.00000
    103      20.0471      0.00000
    104      20.2744      0.00000
    105      20.4915      0.00000
    106      20.6571      0.00000
    107      20.8752      0.00000
    108      21.2440      0.00000
    109      21.3099      0.00000
    110      21.4441      0.00000
    111      21.5905      0.00000
    112      21.7163      0.00000
    113      21.8655      0.00000
    114      22.0110      0.00000
    115      22.1381      0.00000
    116      22.4215      0.00000
    117      22.6436      0.00000
    118      22.8558      0.00000
    119      22.9591      0.00000
    120      23.2061      0.00000
    121      23.4634      0.00000
    122      23.6036      0.00000
    123      23.8502      0.00000
    124      24.1335      0.00000
    125      24.3601      0.00000
    126      24.4632      0.00000
    127      24.6122      0.00000
    128      24.9089      0.00000
    129      25.0681      0.00000
    130      25.4096      0.00000
    131      25.6179      0.00000
    132      25.8643      0.00000
    133      26.1292      0.00000
    134      26.2560      0.00000
    135      26.6120      0.00000
    136      26.8337      0.00000
    137      27.3759      0.00000
    138      27.6182      0.00000
    139      27.7679      0.00000
    140      28.3267      0.00000
    141      28.5294      0.00000

 k-point   104 :       0.5000    0.2353    0.5000
  band No.  band energies     occupation 
      1     -25.4520      2.00000
      2     -25.4520      2.00000
      3     -25.4391      2.00000
      4     -25.4390      2.00000
      5     -25.4096      2.00000
      6     -25.4095      2.00000
      7     -25.3869      2.00000
      8     -25.3869      2.00000
      9     -25.3815      2.00000
     10     -25.3815      2.00000
     11     -12.2276      2.00000
     12     -12.1548      2.00000
     13     -11.3401      2.00000
     14     -11.2266      2.00000
     15     -11.0447      2.00000
     16     -10.9317      2.00000
     17      -5.8399      2.00000
     18      -5.7572      2.00000
     19      -2.6360      2.00000
     20      -2.2579      2.00000
     21      -2.0414      2.00000
     22      -1.9953      2.00000
     23      -1.6136      2.00000
     24      -1.3673      2.00000
     25      -1.1981      2.00000
     26      -0.9566      2.00000
     27      -0.8606      2.00000
     28      -0.7724      2.00000
     29      -0.6319      2.00000
     30      -0.5631      2.00000
     31      -0.5208      2.00000
     32      -0.4789      2.00000
     33      -0.4217      2.00000
     34      -0.3878      2.00000
     35       0.4282      2.00000
     36       0.5467      2.00000
     37       0.6001      2.00000
     38       0.6043      2.00000
     39       0.6355      2.00000
     40       0.6582      2.00000
     41       0.6992      2.00000
     42       0.7633      2.00000
     43       0.9541      2.00000
     44       0.9946      2.00000
     45       1.1960      2.00000
     46       1.3559      2.00000
     47       1.5427      2.00000
     48       1.6352      2.00000
     49       1.7849      2.00000
     50       1.8899      2.00000
     51       2.1201      2.00000
     52       2.3273      2.00000
     53       2.4960      2.00000
     54       2.9011      2.00000
     55       4.9688      0.00000
     56       5.2762      0.00000
     57       6.2890      0.00000
     58       6.6022      0.00000
     59       7.1961      0.00000
     60       7.4821      0.00000
     61       7.8920      0.00000
     62       8.3266      0.00000
     63       8.5938      0.00000
     64       8.9201      0.00000
     65       9.5175      0.00000
     66       9.8326      0.00000
     67       9.9142      0.00000
     68      10.3359      0.00000
     69      10.5674      0.00000
     70      10.9132      0.00000
     71      11.2113      0.00000
     72      11.6028      0.00000
     73      11.7060      0.00000
     74      12.1202      0.00000
     75      12.4842      0.00000
     76      12.8577      0.00000
     77      13.1196      0.00000
     78      13.4728      0.00000
     79      13.5517      0.00000
     80      13.7285      0.00000
     81      14.2299      0.00000
     82      14.5772      0.00000
     83      14.6693      0.00000
     84      14.9779      0.00000
     85      15.2218      0.00000
     86      15.5454      0.00000
     87      16.0515      0.00000
     88      16.2169      0.00000
     89      16.6072      0.00000
     90      16.7138      0.00000
     91      16.9245      0.00000
     92      17.4094      0.00000
     93      17.6235      0.00000
     94      17.8721      0.00000
     95      18.1062      0.00000
     96      18.4192      0.00000
     97      18.6871      0.00000
     98      19.0303      0.00000
     99      19.1307      0.00000
    100      19.4058      0.00000
    101      19.5914      0.00000
    102      19.8943      0.00000
    103      20.0046      0.00000
    104      20.2821      0.00000
    105      20.4815      0.00000
    106      20.6337      0.00000
    107      20.9579      0.00000
    108      21.2655      0.00000
    109      21.3355      0.00000
    110      21.4168      0.00000
    111      21.5738      0.00000
    112      21.7161      0.00000
    113      21.7778      0.00000
    114      21.9797      0.00000
    115      22.1792      0.00000
    116      22.3907      0.00000
    117      22.6955      0.00000
    118      22.8244      0.00000
    119      23.0052      0.00000
    120      23.1271      0.00000
    121      23.5268      0.00000
    122      23.5670      0.00000
    123      23.7863      0.00000
    124      24.1419      0.00000
    125      24.4118      0.00000
    126      24.5376      0.00000
    127      24.6388      0.00000
    128      24.8652      0.00000
    129      25.0644      0.00000
    130      25.4612      0.00000
    131      25.6706      0.00000
    132      25.8415      0.00000
    133      26.1324      0.00000
    134      26.3319      0.00000
    135      26.6130      0.00000
    136      26.8800      0.00000
    137      27.3660      0.00000
    138      27.5365      0.00000
    139      27.7411      0.00000
    140      28.3078      0.00000
    141      28.5253      0.00000

 k-point   105 :       0.5000    0.2206    0.5000
  band No.  band energies     occupation 
      1     -25.4518      2.00000
      2     -25.4518      2.00000
      3     -25.4389      2.00000
      4     -25.4388      2.00000
      5     -25.4094      2.00000
      6     -25.4093      2.00000
      7     -25.3867      2.00000
      8     -25.3866      2.00000
      9     -25.3813      2.00000
     10     -25.3812      2.00000
     11     -12.2303      2.00000
     12     -12.1550      2.00000
     13     -11.3351      2.00000
     14     -11.2239      2.00000
     15     -11.0463      2.00000
     16     -10.9317      2.00000
     17      -5.8430      2.00000
     18      -5.7623      2.00000
     19      -2.6499      2.00000
     20      -2.2459      2.00000
     21      -2.0447      2.00000
     22      -1.9946      2.00000
     23      -1.6190      2.00000
     24      -1.3581      2.00000
     25      -1.1956      2.00000
     26      -0.9608      2.00000
     27      -0.8506      2.00000
     28      -0.7647      2.00000
     29      -0.6337      2.00000
     30      -0.5625      2.00000
     31      -0.5236      2.00000
     32      -0.4800      2.00000
     33      -0.4218      2.00000
     34      -0.3865      2.00000
     35       0.4242      2.00000
     36       0.5472      2.00000
     37       0.5996      2.00000
     38       0.6054      2.00000
     39       0.6332      2.00000
     40       0.6584      2.00000
     41       0.7022      2.00000
     42       0.7643      2.00000
     43       0.9495      2.00000
     44       1.0021      2.00000
     45       1.1897      2.00000
     46       1.3563      2.00000
     47       1.5383      2.00000
     48       1.6312      2.00000
     49       1.7849      2.00000
     50       1.9076      2.00000
     51       2.1346      2.00000
     52       2.3510      2.00000
     53       2.5080      2.00000
     54       2.9039      2.00000
     55       4.9457      0.00000
     56       5.2645      0.00000
     57       6.2607      0.00000
     58       6.5961      0.00000
     59       7.1924      0.00000
     60       7.4858      0.00000
     61       7.8830      0.00000
     62       8.3142      0.00000
     63       8.5865      0.00000
     64       8.9307      0.00000
     65       9.4968      0.00000
     66       9.8011      0.00000
     67       9.9388      0.00000
     68      10.3201      0.00000
     69      10.5572      0.00000
     70      10.8953      0.00000
     71      11.1675      0.00000
     72      11.5991      0.00000
     73      11.7131      0.00000
     74      12.1299      0.00000
     75      12.5466      0.00000
     76      12.8711      0.00000
     77      13.1606      0.00000
     78      13.4971      0.00000
     79      13.5912      0.00000
     80      13.7509      0.00000
     81      14.2146      0.00000
     82      14.5726      0.00000
     83      14.7024      0.00000
     84      14.9997      0.00000
     85      15.2429      0.00000
     86      15.5506      0.00000
     87      16.0516      0.00000
     88      16.1899      0.00000
     89      16.6069      0.00000
     90      16.7219      0.00000
     91      16.9315      0.00000
     92      17.4133      0.00000
     93      17.6308      0.00000
     94      17.8743      0.00000
     95      18.1189      0.00000
     96      18.4293      0.00000
     97      18.6673      0.00000
     98      19.0166      0.00000
     99      19.1177      0.00000
    100      19.3383      0.00000
    101      19.5592      0.00000
    102      19.8583      0.00000
    103      19.9729      0.00000
    104      20.2658      0.00000
    105      20.4356      0.00000
    106      20.6507      0.00000
    107      21.0163      0.00000
    108      21.2243      0.00000
    109      21.3659      0.00000
    110      21.3995      0.00000
    111      21.5753      0.00000
    112      21.6574      0.00000
    113      21.7697      0.00000
    114      21.9808      0.00000
    115      22.2239      0.00000
    116      22.3591      0.00000
    117      22.7135      0.00000
    118      22.8094      0.00000
    119      23.0043      0.00000
    120      23.1170      0.00000
    121      23.5163      0.00000
    122      23.5992      0.00000
    123      23.7677      0.00000
    124      24.1517      0.00000
    125      24.4533      0.00000
    126      24.5458      0.00000
    127      24.6893      0.00000
    128      24.8957      0.00000
    129      25.0896      0.00000
    130      25.4600      0.00000
    131      25.7285      0.00000
    132      25.8759      0.00000
    133      26.1369      0.00000
    134      26.4188      0.00000
    135      26.5914      0.00000
    136      26.9296      0.00000
    137      27.3314      0.00000
    138      27.4773      0.00000
    139      27.7371      0.00000
    140      28.2828      0.00000
    141      28.4606      0.00000

 k-point   106 :       0.5000    0.2059    0.5000
  band No.  band energies     occupation 
      1     -25.4516      2.00000
      2     -25.4516      2.00000
      3     -25.4387      2.00000
      4     -25.4386      2.00000
      5     -25.4091      2.00000
      6     -25.4091      2.00000
      7     -25.3865      2.00000
      8     -25.3864      2.00000
      9     -25.3811      2.00000
     10     -25.3810      2.00000
     11     -12.2328      2.00000
     12     -12.1552      2.00000
     13     -11.3298      2.00000
     14     -11.2220      2.00000
     15     -11.0482      2.00000
     16     -10.9309      2.00000
     17      -5.8460      2.00000
     18      -5.7677      2.00000
     19      -2.6641      2.00000
     20      -2.2343      2.00000
     21      -2.0530      2.00000
     22      -1.9864      2.00000
     23      -1.6233      2.00000
     24      -1.3481      2.00000
     25      -1.1931      2.00000
     26      -0.9662      2.00000
     27      -0.8416      2.00000
     28      -0.7577      2.00000
     29      -0.6355      2.00000
     30      -0.5621      2.00000
     31      -0.5258      2.00000
     32      -0.4810      2.00000
     33      -0.4227      2.00000
     34      -0.3849      2.00000
     35       0.4209      2.00000
     36       0.5474      2.00000
     37       0.5985      2.00000
     38       0.6064      2.00000
     39       0.6311      2.00000
     40       0.6584      2.00000
     41       0.7050      2.00000
     42       0.7627      2.00000
     43       0.9454      2.00000
     44       1.0130      2.00000
     45       1.1842      2.00000
     46       1.3562      2.00000
     47       1.5313      2.00000
     48       1.6270      2.00000
     49       1.7869      2.00000
     50       1.9275      2.00000
     51       2.1489      2.00000
     52       2.3721      2.00000
     53       2.5193      2.00000
     54       2.9022      2.00000
     55       4.9241      0.00000
     56       5.2547      0.00000
     57       6.2340      0.00000
     58       6.5944      0.00000
     59       7.1895      0.00000
     60       7.4877      0.00000
     61       7.8763      0.00000
     62       8.2999      0.00000
     63       8.5853      0.00000
     64       8.9470      0.00000
     65       9.4696      0.00000
     66       9.7725      0.00000
     67       9.9615      0.00000
     68      10.3076      0.00000
     69      10.5451      0.00000
     70      10.8699      0.00000
     71      11.1207      0.00000
     72      11.5415      0.00000
     73      11.7719      0.00000
     74      12.1230      0.00000
     75      12.6049      0.00000
     76      12.8798      0.00000
     77      13.1942      0.00000
     78      13.5219      0.00000
     79      13.6403      0.00000
     80      13.7841      0.00000
     81      14.2111      0.00000
     82      14.5707      0.00000
     83      14.7408      0.00000
     84      15.0168      0.00000
     85      15.2682      0.00000
     86      15.5664      0.00000
     87      16.0550      0.00000
     88      16.1704      0.00000
     89      16.5887      0.00000
     90      16.7504      0.00000
     91      16.9427      0.00000
     92      17.4170      0.00000
     93      17.6455      0.00000
     94      17.8768      0.00000
     95      18.1318      0.00000
     96      18.4328      0.00000
     97      18.6276      0.00000
     98      19.0056      0.00000
     99      19.0936      0.00000
    100      19.2863      0.00000
    101      19.5166      0.00000
    102      19.7953      0.00000
    103      19.9533      0.00000
    104      20.2219      0.00000
    105      20.3906      0.00000
    106      20.6890      0.00000
    107      21.0091      0.00000
    108      21.1883      0.00000
    109      21.3265      0.00000
    110      21.4185      0.00000
    111      21.5721      0.00000
    112      21.6049      0.00000
    113      21.8126      0.00000
    114      22.0057      0.00000
    115      22.2632      0.00000
    116      22.3151      0.00000
    117      22.7044      0.00000
    118      22.8202      0.00000
    119      23.0128      0.00000
    120      23.1489      0.00000
    121      23.4718      0.00000
    122      23.5911      0.00000
    123      23.8407      0.00000
    124      24.1632      0.00000
    125      24.4404      0.00000
    126      24.5375      0.00000
    127      24.7844      0.00000
    128      24.9703      0.00000
    129      25.1453      0.00000
    130      25.4247      0.00000
    131      25.7960      0.00000
    132      25.9391      0.00000
    133      26.1577      0.00000
    134      26.4844      0.00000
    135      26.5706      0.00000
    136      26.9786      0.00000
    137      27.2749      0.00000
    138      27.4628      0.00000
    139      27.7413      0.00000
    140      28.2430      0.00000
    141      28.3750      0.00000

 k-point   107 :       0.5000    0.1912    0.5000
  band No.  band energies     occupation 
      1     -25.4514      2.00000
      2     -25.4514      2.00000
      3     -25.4385      2.00000
      4     -25.4384      2.00000
      5     -25.4089      2.00000
      6     -25.4089      2.00000
      7     -25.3863      2.00000
      8     -25.3862      2.00000
      9     -25.3809      2.00000
     10     -25.3808      2.00000
     11     -12.2351      2.00000
     12     -12.1556      2.00000
     13     -11.3244      2.00000
     14     -11.2206      2.00000
     15     -11.0507      2.00000
     16     -10.9293      2.00000
     17      -5.8486      2.00000
     18      -5.7734      2.00000
     19      -2.6783      2.00000
     20      -2.2232      2.00000
     21      -2.0634      2.00000
     22      -1.9739      2.00000
     23      -1.6262      2.00000
     24      -1.3373      2.00000
     25      -1.1906      2.00000
     26      -0.9726      2.00000
     27      -0.8341      2.00000
     28      -0.7513      2.00000
     29      -0.6373      2.00000
     30      -0.5620      2.00000
     31      -0.5276      2.00000
     32      -0.4820      2.00000
     33      -0.4242      2.00000
     34      -0.3830      2.00000
     35       0.4181      2.00000
     36       0.5472      2.00000
     37       0.5972      2.00000
     38       0.6070      2.00000
     39       0.6294      2.00000
     40       0.6583      2.00000
     41       0.7074      2.00000
     42       0.7592      2.00000
     43       0.9416      2.00000
     44       1.0268      2.00000
     45       1.1800      2.00000
     46       1.3554      2.00000
     47       1.5218      2.00000
     48       1.6236      2.00000
     49       1.7910      2.00000
     50       1.9486      2.00000
     51       2.1628      2.00000
     52       2.3901      2.00000
     53       2.5302      2.00000
     54       2.8966      2.00000
     55       4.9038      0.00000
     56       5.2468      0.00000
     57       6.2090      0.00000
     58       6.5973      0.00000
     59       7.1877      0.00000
     60       7.4881      0.00000
     61       7.8716      0.00000
     62       8.2843      0.00000
     63       8.5899      0.00000
     64       8.9684      0.00000
     65       9.4368      0.00000
     66       9.7474      0.00000
     67       9.9823      0.00000
     68      10.2982      0.00000
     69      10.5303      0.00000
     70      10.8339      0.00000
     71      11.0796      0.00000
     72      11.4697      0.00000
     73      11.8389      0.00000
     74      12.1009      0.00000
     75      12.6600      0.00000
     76      12.8858      0.00000
     77      13.2159      0.00000
     78      13.5487      0.00000
     79      13.6975      0.00000
     80      13.8245      0.00000
     81      14.2209      0.00000
     82      14.5723      0.00000
     83      14.7833      0.00000
     84      15.0297      0.00000
     85      15.2976      0.00000
     86      15.5915      0.00000
     87      16.0574      0.00000
     88      16.1626      0.00000
     89      16.5638      0.00000
     90      16.7846      0.00000
     91      16.9611      0.00000
     92      17.4235      0.00000
     93      17.6646      0.00000
     94      17.8793      0.00000
     95      18.1436      0.00000
     96      18.4212      0.00000
     97      18.5780      0.00000
     98      18.9945      0.00000
     99      19.0652      0.00000
    100      19.2527      0.00000
    101      19.4649      0.00000
    102      19.7137      0.00000
    103      19.9293      0.00000
    104      20.1584      0.00000
    105      20.3669      0.00000
    106      20.7206      0.00000
    107      20.9423      0.00000
    108      21.1719      0.00000
    109      21.2840      0.00000
    110      21.3938      0.00000
    111      21.5243      0.00000
    112      21.6306      0.00000
    113      21.8744      0.00000
    114      22.0335      0.00000
    115      22.2227      0.00000
    116      22.3436      0.00000
    117      22.6958      0.00000
    118      22.8635      0.00000
    119      23.0630      0.00000
    120      23.1563      0.00000
    121      23.4263      0.00000
    122      23.5838      0.00000
    123      23.9338      0.00000
    124      24.1652      0.00000
    125      24.3648      0.00000
    126      24.6122      0.00000
    127      24.8674      0.00000
    128      25.0584      0.00000
    129      25.2265      0.00000
    130      25.3994      0.00000
    131      25.8649      0.00000
    132      25.9832      0.00000
    133      26.2126      0.00000
    134      26.4674      0.00000
    135      26.6234      0.00000
    136      27.0172      0.00000
    137      27.2250      0.00000
    138      27.4811      0.00000
    139      27.7434      0.00000
    140      28.1647      0.00000
    141      28.2995      0.00000

 k-point   108 :       0.5000    0.1765    0.5000
  band No.  band energies     occupation 
      1     -25.4512      2.00000
      2     -25.4512      2.00000
      3     -25.4383      2.00000
      4     -25.4382      2.00000
      5     -25.4088      2.00000
      6     -25.4087      2.00000
      7     -25.3861      2.00000
      8     -25.3860      2.00000
      9     -25.3807      2.00000
     10     -25.3806      2.00000
     11     -12.2372      2.00000
     12     -12.1560      2.00000
     13     -11.3189      2.00000
     14     -11.2198      2.00000
     15     -11.0537      2.00000
     16     -10.9269      2.00000
     17      -5.8510      2.00000
     18      -5.7794      2.00000
     19      -2.6923      2.00000
     20      -2.2127      2.00000
     21      -2.0743      2.00000
     22      -1.9594      2.00000
     23      -1.6274      2.00000
     24      -1.3263      2.00000
     25      -1.1881      2.00000
     26      -0.9799      2.00000
     27      -0.8283      2.00000
     28      -0.7454      2.00000
     29      -0.6393      2.00000
     30      -0.5620      2.00000
     31      -0.5290      2.00000
     32      -0.4829      2.00000
     33      -0.4259      2.00000
     34      -0.3811      2.00000
     35       0.4160      2.00000
     36       0.5465      2.00000
     37       0.5956      2.00000
     38       0.6070      2.00000
     39       0.6283      2.00000
     40       0.6580      2.00000
     41       0.7095      2.00000
     42       0.7543      2.00000
     43       0.9379      2.00000
     44       1.0425      2.00000
     45       1.1775      2.00000
     46       1.3540      2.00000
     47       1.5100      2.00000
     48       1.6215      2.00000
     49       1.7967      2.00000
     50       1.9702      2.00000
     51       2.1762      2.00000
     52       2.4039      2.00000
     53       2.5413      2.00000
     54       2.8879      2.00000
     55       4.8844      0.00000
     56       5.2408      0.00000
     57       6.1857      0.00000
     58       6.6045      0.00000
     59       7.1872      0.00000
     60       7.4872      0.00000
     61       7.8687      0.00000
     62       8.2679      0.00000
     63       8.5993      0.00000
     64       8.9941      0.00000
     65       9.3996      0.00000
     66       9.7263      0.00000
     67      10.0020      0.00000
     68      10.2905      0.00000
     69      10.5118      0.00000
     70      10.7877      0.00000
     71      11.0481      0.00000
     72      11.3920      0.00000
     73      11.9042      0.00000
     74      12.0668      0.00000
     75      12.7123      0.00000
     76      12.8907      0.00000
     77      13.2239      0.00000
     78      13.5797      0.00000
     79      13.7606      0.00000
     80      13.8651      0.00000
     81      14.2462      0.00000
     82      14.5773      0.00000
     83      14.8294      0.00000
     84      15.0391      0.00000
     85      15.3309      0.00000
     86      15.6242      0.00000
     87      16.0548      0.00000
     88      16.1694      0.00000
     89      16.5382      0.00000
     90      16.8140      0.00000
     91      16.9909      0.00000
     92      17.4346      0.00000
     93      17.6851      0.00000
     94      17.8816      0.00000
     95      18.1519      0.00000
     96      18.3836      0.00000
     97      18.5388      0.00000
     98      18.9619      0.00000
     99      19.0544      0.00000
    100      19.2344      0.00000
    101      19.4048      0.00000
    102      19.6250      0.00000
    103      19.8882      0.00000
    104      20.0904      0.00000
    105      20.3578      0.00000
    106      20.7195      0.00000
    107      20.8687      0.00000
    108      21.1498      0.00000
    109      21.2412      0.00000
    110      21.3573      0.00000
    111      21.4908      0.00000
    112      21.6395      0.00000
    113      21.9437      0.00000
    114      22.0439      0.00000
    115      22.1570      0.00000
    116      22.4344      0.00000
    117      22.7037      0.00000
    118      22.9287      0.00000
    119      23.0768      0.00000
    120      23.1872      0.00000
    121      23.3933      0.00000
    122      23.6041      0.00000
    123      23.9865      0.00000
    124      24.1508      0.00000
    125      24.3378      0.00000
    126      24.7018      0.00000
    127      24.9160      0.00000
    128      25.1537      0.00000
    129      25.3205      0.00000
    130      25.4242      0.00000
    131      25.8951      0.00000
    132      26.0214      0.00000
    133      26.3025      0.00000
    134      26.4312      0.00000
    135      26.7021      0.00000
    136      27.0309      0.00000
    137      27.2120      0.00000
    138      27.5139      0.00000
    139      27.7375      0.00000
    140      28.0472      0.00000
    141      28.2170      0.00000

 k-point   109 :       0.5000    0.1618    0.5000
  band No.  band energies     occupation 
      1     -25.4510      2.00000
      2     -25.4510      2.00000
      3     -25.4381      2.00000
      4     -25.4380      2.00000
      5     -25.4086      2.00000
      6     -25.4085      2.00000
      7     -25.3859      2.00000
      8     -25.3858      2.00000
      9     -25.3805      2.00000
     10     -25.3804      2.00000
     11     -12.2390      2.00000
     12     -12.1565      2.00000
     13     -11.3133      2.00000
     14     -11.2192      2.00000
     15     -11.0575      2.00000
     16     -10.9238      2.00000
     17      -5.8530      2.00000
     18      -5.7855      2.00000
     19      -2.7059      2.00000
     20      -2.2030      2.00000
     21      -2.0848      2.00000
     22      -1.9440      2.00000
     23      -1.6265      2.00000
     24      -1.3156      2.00000
     25      -1.1854      2.00000
     26      -0.9876      2.00000
     27      -0.8246      2.00000
     28      -0.7397      2.00000
     29      -0.6416      2.00000
     30      -0.5621      2.00000
     31      -0.5300      2.00000
     32      -0.4837      2.00000
     33      -0.4277      2.00000
     34      -0.3792      2.00000
     35       0.4146      2.00000
     36       0.5449      2.00000
     37       0.5938      2.00000
     38       0.6064      2.00000
     39       0.6279      2.00000
     40       0.6575      2.00000
     41       0.7113      2.00000
     42       0.7487      2.00000
     43       0.9341      2.00000
     44       1.0589      2.00000
     45       1.1773      2.00000
     46       1.3519      2.00000
     47       1.4967      2.00000
     48       1.6210      2.00000
     49       1.8037      2.00000
     50       1.9918      2.00000
     51       2.1887      2.00000
     52       2.4128      2.00000
     53       2.5532      2.00000
     54       2.8772      2.00000
     55       4.8656      0.00000
     56       5.2367      0.00000
     57       6.1641      0.00000
     58       6.6159      0.00000
     59       7.1881      0.00000
     60       7.4849      0.00000
     61       7.8675      0.00000
     62       8.2509      0.00000
     63       8.6126      0.00000
     64       9.0230      0.00000
     65       9.3601      0.00000
     66       9.7100      0.00000
     67      10.0210      0.00000
     68      10.2824      0.00000
     69      10.4888      0.00000
     70      10.7357      0.00000
     71      11.0246      0.00000
     72      11.3113      0.00000
     73      11.9623      0.00000
     74      12.0271      0.00000
     75      12.7603      0.00000
     76      12.8971      0.00000
     77      13.2203      0.00000
     78      13.6148      0.00000
     79      13.8254      0.00000
     80      13.8997      0.00000
     81      14.2879      0.00000
     82      14.5858      0.00000
     83      14.8788      0.00000
     84      15.0461      0.00000
     85      15.3679      0.00000
     86      15.6629      0.00000
     87      16.0482      0.00000
     88      16.1876      0.00000
     89      16.5159      0.00000
     90      16.8348      0.00000
     91      17.0327      0.00000
     92      17.4512      0.00000
     93      17.7037      0.00000
     94      17.8836      0.00000
     95      18.1495      0.00000
     96      18.3315      0.00000
     97      18.5130      0.00000
     98      18.9113      0.00000
     99      19.0575      0.00000
    100      19.2252      0.00000
    101      19.3383      0.00000
    102      19.5397      0.00000
    103      19.8302      0.00000
    104      20.0236      0.00000
    105      20.3526      0.00000
    106      20.6568      0.00000
    107      20.8285      0.00000
    108      21.1186      0.00000
    109      21.1948      0.00000
    110      21.3335      0.00000
    111      21.4629      0.00000
    112      21.6299      0.00000
    113      21.9424      0.00000
    114      22.0633      0.00000
    115      22.1643      0.00000
    116      22.5354      0.00000
    117      22.7325      0.00000
    118      22.9783      0.00000
    119      23.0490      0.00000
    120      23.2603      0.00000
    121      23.3904      0.00000
    122      23.6511      0.00000
    123      23.9314      0.00000
    124      24.1847      0.00000
    125      24.3661      0.00000
    126      24.7762      0.00000
    127      24.9393      0.00000
    128      25.2534      0.00000
    129      25.4160      0.00000
    130      25.5126      0.00000
    131      25.8578      0.00000
    132      26.1010      0.00000
    133      26.3712      0.00000
    134      26.4408      0.00000
    135      26.7805      0.00000
    136      27.0268      0.00000
    137      27.2349      0.00000
    138      27.5426      0.00000
    139      27.7205      0.00000
    140      27.9221      0.00000
    141      28.0949      0.00000

 k-point   110 :       0.5000    0.1471    0.5000
  band No.  band energies     occupation 
      1     -25.4509      2.00000
      2     -25.4508      2.00000
      3     -25.4379      2.00000
      4     -25.4379      2.00000
      5     -25.4084      2.00000
      6     -25.4083      2.00000
      7     -25.3857      2.00000
      8     -25.3857      2.00000
      9     -25.3803      2.00000
     10     -25.3803      2.00000
     11     -12.2406      2.00000
     12     -12.1571      2.00000
     13     -11.3077      2.00000
     14     -11.2189      2.00000
     15     -11.0619      2.00000
     16     -10.9202      2.00000
     17      -5.8547      2.00000
     18      -5.7917      2.00000
     19      -2.7188      2.00000
     20      -2.1941      2.00000
     21      -2.0947      2.00000
     22      -1.9286      2.00000
     23      -1.6232      2.00000
     24      -1.3062      2.00000
     25      -1.1819      2.00000
     26      -0.9956      2.00000
     27      -0.8231      2.00000
     28      -0.7342      2.00000
     29      -0.6443      2.00000
     30      -0.5621      2.00000
     31      -0.5305      2.00000
     32      -0.4846      2.00000
     33      -0.4296      2.00000
     34      -0.3775      2.00000
     35       0.4139      2.00000
     36       0.5424      2.00000
     37       0.5919      2.00000
     38       0.6052      2.00000
     39       0.6282      2.00000
     40       0.6570      2.00000
     41       0.7126      2.00000
     42       0.7432      2.00000
     43       0.9301      2.00000
     44       1.0748      2.00000
     45       1.1798      2.00000
     46       1.3490      2.00000
     47       1.4828      2.00000
     48       1.6220      2.00000
     49       1.8114      2.00000
     50       2.0130      2.00000
     51       2.2003      2.00000
     52       2.4161      2.00000
     53       2.5659      2.00000
     54       2.8654      2.00000
     55       4.8474      0.00000
     56       5.2342      0.00000
     57       6.1441      0.00000
     58       6.6311      0.00000
     59       7.1904      0.00000
     60       7.4816      0.00000
     61       7.8682      0.00000
     62       8.2337      0.00000
     63       8.6288      0.00000
     64       9.0530      0.00000
     65       9.3210      0.00000
     66       9.6991      0.00000
     67      10.0396      0.00000
     68      10.2711      0.00000
     69      10.4607      0.00000
     70      10.6851      0.00000
     71      11.0051      0.00000
     72      11.2297      0.00000
     73      11.9674      0.00000
     74      12.0302      0.00000
     75      12.7986      0.00000
     76      12.9109      0.00000
     77      13.2095      0.00000
     78      13.6523      0.00000
     79      13.8810      0.00000
     80      13.9316      0.00000
     81      14.3441      0.00000
     82      14.5994      0.00000
     83      14.9305      0.00000
     84      15.0516      0.00000
     85      15.4079      0.00000
     86      15.7057      0.00000
     87      16.0414      0.00000
     88      16.2095      0.00000
     89      16.5011      0.00000
     90      16.8496      0.00000
     91      17.0816      0.00000
     92      17.4732      0.00000
     93      17.7172      0.00000
     94      17.8836      0.00000
     95      18.1258      0.00000
     96      18.2963      0.00000
     97      18.4874      0.00000
     98      18.8604      0.00000
     99      19.0484      0.00000
    100      19.2182      0.00000
    101      19.2763      0.00000
    102      19.4667      0.00000
    103      19.7635      0.00000
    104      19.9587      0.00000
    105      20.3391      0.00000
    106      20.5582      0.00000
    107      20.7970      0.00000
    108      21.0832      0.00000
    109      21.1569      0.00000
    110      21.3035      0.00000
    111      21.4437      0.00000
    112      21.6196      0.00000
    113      21.8968      0.00000
    114      22.0714      0.00000
    115      22.2492      0.00000
    116      22.6007      0.00000
    117      22.8008      0.00000
    118      22.9436      0.00000
    119      23.0819      0.00000
    120      23.3216      0.00000
    121      23.4401      0.00000
    122      23.7249      0.00000
    123      23.8209      0.00000
    124      24.2451      0.00000
    125      24.4226      0.00000
    126      24.7913      0.00000
    127      24.9930      0.00000
    128      25.3384      0.00000
    129      25.5136      0.00000
    130      25.6363      0.00000
    131      25.8180      0.00000
    132      26.1967      0.00000
    133      26.3589      0.00000
    134      26.5387      0.00000
    135      26.8568      0.00000
    136      27.0301      0.00000
    137      27.2638      0.00000
    138      27.5354      0.00000
    139      27.6950      0.00000
    140      27.8105      0.00000
    141      27.9269      0.00000

 k-point   111 :       0.5000    0.1324    0.5000
  band No.  band energies     occupation 
      1     -25.4507      2.00000
      2     -25.4507      2.00000
      3     -25.4378      2.00000
      4     -25.4377      2.00000
      5     -25.4082      2.00000
      6     -25.4081      2.00000
      7     -25.3856      2.00000
      8     -25.3855      2.00000
      9     -25.3802      2.00000
     10     -25.3801      2.00000
     11     -12.2420      2.00000
     12     -12.1578      2.00000
     13     -11.3022      2.00000
     14     -11.2187      2.00000
     15     -11.0668      2.00000
     16     -10.9161      2.00000
     17      -5.8561      2.00000
     18      -5.7978      2.00000
     19      -2.7309      2.00000
     20      -2.1863      2.00000
     21      -2.1037      2.00000
     22      -1.9137      2.00000
     23      -1.6171      2.00000
     24      -1.2996      2.00000
     25      -1.1770      2.00000
     26      -1.0033      2.00000
     27      -0.8236      2.00000
     28      -0.7287      2.00000
     29      -0.6474      2.00000
     30      -0.5622      2.00000
     31      -0.5305      2.00000
     32      -0.4853      2.00000
     33      -0.4313      2.00000
     34      -0.3759      2.00000
     35       0.4140      2.00000
     36       0.5388      2.00000
     37       0.5900      2.00000
     38       0.6039      2.00000
     39       0.6290      2.00000
     40       0.6563      2.00000
     41       0.7134      2.00000
     42       0.7382      2.00000
     43       0.9258      2.00000
     44       1.0891      2.00000
     45       1.1854      2.00000
     46       1.3452      2.00000
     47       1.4691      2.00000
     48       1.6245      2.00000
     49       1.8196      2.00000
     50       2.0334      2.00000
     51       2.2107      2.00000
     52       2.4141      2.00000
     53       2.5793      2.00000
     54       2.8535      2.00000
     55       4.8296      0.00000
     56       5.2332      0.00000
     57       6.1259      0.00000
     58       6.6494      0.00000
     59       7.1940      0.00000
     60       7.4773      0.00000
     61       7.8709      0.00000
     62       8.2164      0.00000
     63       8.6467      0.00000
     64       9.0806      0.00000
     65       9.2863      0.00000
     66       9.6941      0.00000
     67      10.0576      0.00000
     68      10.2535      0.00000
     69      10.4286      0.00000
     70      10.6419      0.00000
     71      10.9851      0.00000
     72      11.1493      0.00000
     73      11.9233      0.00000
     74      12.0753      0.00000
     75      12.8202      0.00000
     76      12.9390      0.00000
     77      13.1960      0.00000
     78      13.6894      0.00000
     79      13.9069      0.00000
     80      13.9776      0.00000
     81      14.4086      0.00000
     82      14.6209      0.00000
     83      14.9824      0.00000
     84      15.0572      0.00000
     85      15.4502      0.00000
     86      15.7510      0.00000
     87      16.0371      0.00000
     88      16.2265      0.00000
     89      16.4996      0.00000
     90      16.8631      0.00000
     91      17.1298      0.00000
     92      17.4999      0.00000
     93      17.7236      0.00000
     94      17.8770      0.00000
     95      18.0880      0.00000
     96      18.2871      0.00000
     97      18.4560      0.00000
     98      18.8157      0.00000
     99      19.0029      0.00000
    100      19.2004      0.00000
    101      19.2451      0.00000
    102      19.4123      0.00000
    103      19.6970      0.00000
    104      19.8984      0.00000
    105      20.3043      0.00000
    106      20.4567      0.00000
    107      20.7478      0.00000
    108      21.0400      0.00000
    109      21.1301      0.00000
    110      21.2659      0.00000
    111      21.4366      0.00000
    112      21.6241      0.00000
    113      21.8635      0.00000
    114      22.0726      0.00000
    115      22.3470      0.00000
    116      22.6108      0.00000
    117      22.8797      0.00000
    118      22.9208      0.00000
    119      23.1198      0.00000
    120      23.3659      0.00000
    121      23.5401      0.00000
    122      23.7029      0.00000
    123      23.8240      0.00000
    124      24.3015      0.00000
    125      24.4928      0.00000
    126      24.7689      0.00000
    127      25.0719      0.00000
    128      25.3648      0.00000
    129      25.6036      0.00000
    130      25.7745      0.00000
    131      25.8489      0.00000
    132      26.2784      0.00000
    133      26.3564      0.00000
    134      26.6366      0.00000
    135      26.9320      0.00000
    136      27.0486      0.00000
    137      27.2659      0.00000
    138      27.4744      0.00000
    139      27.6432      0.00000
    140      27.7031      0.00000
    141      27.8369      0.00000

 k-point   112 :       0.5000    0.1176    0.5000
  band No.  band energies     occupation 
      1     -25.4506      2.00000
      2     -25.4505      2.00000
      3     -25.4376      2.00000
      4     -25.4376      2.00000
      5     -25.4081      2.00000
      6     -25.4080      2.00000
      7     -25.3854      2.00000
      8     -25.3853      2.00000
      9     -25.3800      2.00000
     10     -25.3799      2.00000
     11     -12.2432      2.00000
     12     -12.1584      2.00000
     13     -11.2969      2.00000
     14     -11.2185      2.00000
     15     -11.0720      2.00000
     16     -10.9119      2.00000
     17      -5.8571      2.00000
     18      -5.8039      2.00000
     19      -2.7421      2.00000
     20      -2.1795      2.00000
     21      -2.1116      2.00000
     22      -1.8999      2.00000
     23      -1.6080      2.00000
     24      -1.2970      2.00000
     25      -1.1698      2.00000
     26      -1.0105      2.00000
     27      -0.8259      2.00000
     28      -0.7234      2.00000
     29      -0.6509      2.00000
     30      -0.5624      2.00000
     31      -0.5301      2.00000
     32      -0.4861      2.00000
     33      -0.4329      2.00000
     34      -0.3745      2.00000
     35       0.4149      2.00000
     36       0.5341      2.00000
     37       0.5880      2.00000
     38       0.6025      2.00000
     39       0.6302      2.00000
     40       0.6555      2.00000
     41       0.7134      2.00000
     42       0.7344      2.00000
     43       0.9214      2.00000
     44       1.1011      2.00000
     45       1.1940      2.00000
     46       1.3405      2.00000
     47       1.4562      2.00000
     48       1.6284      2.00000
     49       1.8280      2.00000
     50       2.0526      2.00000
     51       2.2197      2.00000
     52       2.4071      2.00000
     53       2.5930      2.00000
     54       2.8423      2.00000
     55       4.8124      0.00000
     56       5.2334      0.00000
     57       6.1094      0.00000
     58       6.6703      0.00000
     59       7.1985      0.00000
     60       7.4722      0.00000
     61       7.8757      0.00000
     62       8.1993      0.00000
     63       8.6651      0.00000
     64       9.0989      0.00000
     65       9.2638      0.00000
     66       9.6953      0.00000
     67      10.0740      0.00000
     68      10.2268      0.00000
     69      10.3964      0.00000
     70      10.6089      0.00000
     71      10.9601      0.00000
     72      11.0729      0.00000
     73      11.8796      0.00000
     74      12.1155      0.00000
     75      12.8272      0.00000
     76      12.9782      0.00000
     77      13.1848      0.00000
     78      13.7233      0.00000
     79      13.9118      0.00000
     80      14.0281      0.00000
     81      14.4738      0.00000
     82      14.6542      0.00000
     83      15.0264      0.00000
     84      15.0699      0.00000
     85      15.4938      0.00000
     86      15.7964      0.00000
     87      16.0366      0.00000
     88      16.2325      0.00000
     89      16.5154      0.00000
     90      16.8793      0.00000
     91      17.1696      0.00000
     92      17.5296      0.00000
     93      17.7240      0.00000
     94      17.8573      0.00000
     95      18.0612      0.00000
     96      18.2873      0.00000
     97      18.4242      0.00000
     98      18.7755      0.00000
     99      18.9209      0.00000
    100      19.1717      0.00000
    101      19.2385      0.00000
    102      19.3826      0.00000
    103      19.6375      0.00000
    104      19.8473      0.00000
    105      20.2354      0.00000
    106      20.3703      0.00000
    107      20.6805      0.00000
    108      20.9783      0.00000
    109      21.0917      0.00000
    110      21.2623      0.00000
    111      21.4399      0.00000
    112      21.6437      0.00000
    113      21.8443      0.00000
    114      22.0783      0.00000
    115      22.4222      0.00000
    116      22.6015      0.00000
    117      22.8429      0.00000
    118      23.0239      0.00000
    119      23.1482      0.00000
    120      23.4076      0.00000
    121      23.5906      0.00000
    122      23.6717      0.00000
    123      23.9426      0.00000
    124      24.3471      0.00000
    125      24.5660      0.00000
    126      24.7587      0.00000
    127      25.1264      0.00000
    128      25.3366      0.00000
    129      25.6882      0.00000
    130      25.9157      0.00000
    131      25.9598      0.00000
    132      26.2929      0.00000
    133      26.4260      0.00000
    134      26.7114      0.00000
    135      27.0011      0.00000
    136      27.0752      0.00000
    137      27.2078      0.00000
    138      27.3907      0.00000
    139      27.5460      0.00000
    140      27.6207      0.00000
    141      27.8063      0.00000

 k-point   113 :       0.5000    0.1029    0.5000
  band No.  band energies     occupation 
      1     -25.4504      2.00000
      2     -25.4504      2.00000
      3     -25.4375      2.00000
      4     -25.4374      2.00000
      5     -25.4079      2.00000
      6     -25.4078      2.00000
      7     -25.3853      2.00000
      8     -25.3852      2.00000
      9     -25.3799      2.00000
     10     -25.3798      2.00000
     11     -12.2442      2.00000
     12     -12.1591      2.00000
     13     -11.2918      2.00000
     14     -11.2183      2.00000
     15     -11.0774      2.00000
     16     -10.9078      2.00000
     17      -5.8577      2.00000
     18      -5.8099      2.00000
     19      -2.7522      2.00000
     20      -2.1741      2.00000
     21      -2.1184      2.00000
     22      -1.8877      2.00000
     23      -1.5957      2.00000
     24      -1.2994      2.00000
     25      -1.1601      2.00000
     26      -1.0169      2.00000
     27      -0.8299      2.00000
     28      -0.7184      2.00000
     29      -0.6548      2.00000
     30      -0.5627      2.00000
     31      -0.5291      2.00000
     32      -0.4869      2.00000
     33      -0.4342      2.00000
     34      -0.3732      2.00000
     35       0.4166      2.00000
     36       0.5283      2.00000
     37       0.5861      2.00000
     38       0.6012      2.00000
     39       0.6316      2.00000
     40       0.6548      2.00000
     41       0.7127      2.00000
     42       0.7320      2.00000
     43       0.9168      2.00000
     44       1.1109      2.00000
     45       1.2048      2.00000
     46       1.3351      2.00000
     47       1.4447      2.00000
     48       1.6334      2.00000
     49       1.8366      2.00000
     50       2.0703      2.00000
     51       2.2272      2.00000
     52       2.3964      2.00000
     53       2.6064      2.00000
     54       2.8324      2.00000
     55       4.7960      0.00000
     56       5.2344      0.00000
     57       6.0945      0.00000
     58       6.6928      0.00000
     59       7.2034      0.00000
     60       7.4668      0.00000
     61       7.8827      0.00000
     62       8.1824      0.00000
     63       8.6828      0.00000
     64       9.0989      0.00000
     65       9.2628      0.00000
     66       9.7025      0.00000
     67      10.0848      0.00000
     68      10.1936      0.00000
     69      10.3689      0.00000
     70      10.5860      0.00000
     71      10.9235      0.00000
     72      11.0061      0.00000
     73      11.8413      0.00000
     74      12.1480      0.00000
     75      12.8275      0.00000
     76      13.0172      0.00000
     77      13.1819      0.00000
     78      13.7494      0.00000
     79      13.9110      0.00000
     80      14.0699      0.00000
     81      14.5337      0.00000
     82      14.7015      0.00000
     83      15.0446      0.00000
     84      15.1066      0.00000
     85      15.5380      0.00000
     86      15.8388      0.00000
     87      16.0408      0.00000
     88      16.2283      0.00000
     89      16.5460      0.00000
     90      16.9009      0.00000
     91      17.1940      0.00000
     92      17.5598      0.00000
     93      17.7228      0.00000
     94      17.8269      0.00000
     95      18.0524      0.00000
     96      18.2808      0.00000
     97      18.4053      0.00000
     98      18.7343      0.00000
     99      18.8221      0.00000
    100      19.1401      0.00000
    101      19.2299      0.00000
    102      19.3785      0.00000
    103      19.5904      0.00000
    104      19.8093      0.00000
    105      20.1373      0.00000
    106      20.2996      0.00000
    107      20.6023      0.00000
    108      20.8944      0.00000
    109      21.0429      0.00000
    110      21.3030      0.00000
    111      21.4523      0.00000
    112      21.6701      0.00000
    113      21.8330      0.00000
    114      22.0916      0.00000
    115      22.4413      0.00000
    116      22.6076      0.00000
    117      22.8281      0.00000
    118      23.0792      0.00000
    119      23.1807      0.00000
    120      23.4469      0.00000
    121      23.5253      0.00000
    122      23.8067      0.00000
    123      24.0739      0.00000
    124      24.3771      0.00000
    125      24.6329      0.00000
    126      24.7916      0.00000
    127      25.0927      0.00000
    128      25.3527      0.00000
    129      25.7588      0.00000
    130      26.0419      0.00000
    131      26.1048      0.00000
    132      26.3058      0.00000
    133      26.5076      0.00000
    134      26.7470      0.00000
    135      27.0271      0.00000
    136      27.0935      0.00000
    137      27.1201      0.00000
    138      27.3142      0.00000
    139      27.4578      0.00000
    140      27.5884      0.00000
    141      27.7779      0.00000

 k-point   114 :       0.5000    0.0882    0.5000
  band No.  band energies     occupation 
      1     -25.4503      2.00000
      2     -25.4503      2.00000
      3     -25.4374      2.00000
      4     -25.4373      2.00000
      5     -25.4078      2.00000
      6     -25.4077      2.00000
      7     -25.3852      2.00000
      8     -25.3851      2.00000
      9     -25.3798      2.00000
     10     -25.3797      2.00000
     11     -12.2451      2.00000
     12     -12.1597      2.00000
     13     -11.2871      2.00000
     14     -11.2180      2.00000
     15     -11.0828      2.00000
     16     -10.9038      2.00000
     17      -5.8579      2.00000
     18      -5.8155      2.00000
     19      -2.7611      2.00000
     20      -2.1699      2.00000
     21      -2.1239      2.00000
     22      -1.8772      2.00000
     23      -1.5803      2.00000
     24      -1.3071      2.00000
     25      -1.1480      2.00000
     26      -1.0222      2.00000
     27      -0.8351      2.00000
     28      -0.7138      2.00000
     29      -0.6588      2.00000
     30      -0.5632      2.00000
     31      -0.5276      2.00000
     32      -0.4877      2.00000
     33      -0.4354      2.00000
     34      -0.3722      2.00000
     35       0.4190      2.00000
     36       0.5217      2.00000
     37       0.5844      2.00000
     38       0.6001      2.00000
     39       0.6331      2.00000
     40       0.6541      2.00000
     41       0.7112      2.00000
     42       0.7308      2.00000
     43       0.9123      2.00000
     44       1.1190      2.00000
     45       1.2164      2.00000
     46       1.3291      2.00000
     47       1.4348      2.00000
     48       1.6393      2.00000
     49       1.8452      2.00000
     50       2.0861      2.00000
     51       2.2330      2.00000
     52       2.3831      2.00000
     53       2.6188      2.00000
     54       2.8242      2.00000
     55       4.7808      0.00000
     56       5.2360      0.00000
     57       6.0815      0.00000
     58       6.7160      0.00000
     59       7.2081      0.00000
     60       7.4614      0.00000
     61       7.8917      0.00000
     62       8.1657      0.00000
     63       8.6987      0.00000
     64       9.0818      0.00000
     65       9.2831      0.00000
     66       9.7143      0.00000
     67      10.0764      0.00000
     68      10.1710      0.00000
     69      10.3478      0.00000
     70      10.5711      0.00000
     71      10.8680      0.00000
     72      10.9565      0.00000
     73      11.8104      0.00000
     74      12.1727      0.00000
     75      12.8260      0.00000
     76      13.0444      0.00000
     77      13.1956      0.00000
     78      13.7615      0.00000
     79      13.9143      0.00000
     80      14.0990      0.00000
     81      14.5872      0.00000
     82      14.7587      0.00000
     83      15.0497      0.00000
     84      15.1536      0.00000
     85      15.5819      0.00000
     86      15.8737      0.00000
     87      16.0496      0.00000
     88      16.2208      0.00000
     89      16.5843      0.00000
     90      16.9282      0.00000
     91      17.2002      0.00000
     92      17.5877      0.00000
     93      17.7239      0.00000
     94      17.7973      0.00000
     95      18.0498      0.00000
     96      18.2661      0.00000
     97      18.4056      0.00000
     98      18.6874      0.00000
     99      18.7202      0.00000
    100      19.1093      0.00000
    101      19.2151      0.00000
    102      19.3903      0.00000
    103      19.5601      0.00000
    104      19.7836      0.00000
    105      20.0301      0.00000
    106      20.2324      0.00000
    107      20.5185      0.00000
    108      20.8013      0.00000
    109      20.9971      0.00000
    110      21.3645      0.00000
    111      21.4743      0.00000
    112      21.6965      0.00000
    113      21.8254      0.00000
    114      22.1124      0.00000
    115      22.4134      0.00000
    116      22.6120      0.00000
    117      22.8533      0.00000
    118      23.0761      0.00000
    119      23.1839      0.00000
    120      23.5027      0.00000
    121      23.5163      0.00000
    122      23.9419      0.00000
    123      24.2084      0.00000
    124      24.3989      0.00000
    125      24.6990      0.00000
    126      24.8669      0.00000
    127      24.9997      0.00000
    128      25.4158      0.00000
    129      25.8011      0.00000
    130      26.1321      0.00000
    131      26.2458      0.00000
    132      26.3579      0.00000
    133      26.5459      0.00000
    134      26.7582      0.00000
    135      26.9267      0.00000
    136      27.0378      0.00000
    137      27.1315      0.00000
    138      27.3144      0.00000
    139      27.4042      0.00000
    140      27.5925      0.00000
    141      27.7541      0.00000

 k-point   115 :       0.5000    0.0735    0.5000
  band No.  band energies     occupation 
      1     -25.4502      2.00000
      2     -25.4502      2.00000
      3     -25.4373      2.00000
      4     -25.4372      2.00000
      5     -25.4077      2.00000
      6     -25.4076      2.00000
      7     -25.3851      2.00000
      8     -25.3850      2.00000
      9     -25.3797      2.00000
     10     -25.3796      2.00000
     11     -12.2457      2.00000
     12     -12.1603      2.00000
     13     -11.2829      2.00000
     14     -11.2176      2.00000
     15     -11.0879      2.00000
     16     -10.9002      2.00000
     17      -5.8577      2.00000
     18      -5.8208      2.00000
     19      -2.7688      2.00000
     20      -2.1670      2.00000
     21      -2.1281      2.00000
     22      -1.8686      2.00000
     23      -1.5620      2.00000
     24      -1.3195      2.00000
     25      -1.1345      2.00000
     26      -1.0265      2.00000
     27      -0.8413      2.00000
     28      -0.7098      2.00000
     29      -0.6627      2.00000
     30      -0.5637      2.00000
     31      -0.5258      2.00000
     32      -0.4885      2.00000
     33      -0.4363      2.00000
     34      -0.3713      2.00000
     35       0.4221      2.00000
     36       0.5145      2.00000
     37       0.5827      2.00000
     38       0.5992      2.00000
     39       0.6345      2.00000
     40       0.6534      2.00000
     41       0.7096      2.00000
     42       0.7306      2.00000
     43       0.9079      2.00000
     44       1.1258      2.00000
     45       1.2274      2.00000
     46       1.3232      2.00000
     47       1.4266      2.00000
     48       1.6457      2.00000
     49       1.8536      2.00000
     50       2.0996      2.00000
     51       2.2370      2.00000
     52       2.3688      2.00000
     53       2.6299      2.00000
     54       2.8178      2.00000
     55       4.7670      0.00000
     56       5.2378      0.00000
     57       6.0703      0.00000
     58       6.7388      0.00000
     59       7.2120      0.00000
     60       7.4566      0.00000
     61       7.9024      0.00000
     62       8.1497      0.00000
     63       8.7120      0.00000
     64       9.0578      0.00000
     65       9.3151      0.00000
     66       9.7286      0.00000
     67      10.0386      0.00000
     68      10.1750      0.00000
     69      10.3331      0.00000
     70      10.5625      0.00000
     71      10.7990      0.00000
     72      10.9197      0.00000
     73      11.7872      0.00000
     74      12.1901      0.00000
     75      12.8248      0.00000
     76      13.0550      0.00000
     77      13.2291      0.00000
     78      13.7547      0.00000
     79      13.9278      0.00000
     80      14.1152      0.00000
     81      14.6366      0.00000
     82      14.8164      0.00000
     83      15.0539      0.00000
     84      15.1988      0.00000
     85      15.6246      0.00000
     86      15.8963      0.00000
     87      16.0621      0.00000
     88      16.2173      0.00000
     89      16.6240      0.00000
     90      16.9561      0.00000
     91      17.1948      0.00000
     92      17.6107      0.00000
     93      17.7185      0.00000
     94      17.7855      0.00000
     95      18.0420      0.00000
     96      18.2554      0.00000
     97      18.4154      0.00000
     98      18.6147      0.00000
     99      18.6449      0.00000
    100      19.0799      0.00000
    101      19.2014      0.00000
    102      19.4086      0.00000
    103      19.5475      0.00000
    104      19.7611      0.00000
    105      19.9333      0.00000
    106      20.1645      0.00000
    107      20.4314      0.00000
    108      20.7145      0.00000
    109      20.9552      0.00000
    110      21.4256      0.00000
    111      21.5113      0.00000
    112      21.7189      0.00000
    113      21.8213      0.00000
    114      22.1381      0.00000
    115      22.3715      0.00000
    116      22.5964      0.00000
    117      22.8934      0.00000
    118      23.0381      0.00000
    119      23.1735      0.00000
    120      23.5230      0.00000
    121      23.5922      0.00000
    122      24.0533      0.00000
    123      24.3296      0.00000
    124      24.4457      0.00000
    125      24.7573      0.00000
    126      24.9104      0.00000
    127      24.9781      0.00000
    128      25.4826      0.00000
    129      25.8152      0.00000
    130      26.1664      0.00000
    131      26.3370      0.00000
    132      26.4319      0.00000
    133      26.5272      0.00000
    134      26.7927      0.00000
    135      26.8167      0.00000
    136      26.9314      0.00000
    137      27.1747      0.00000
    138      27.3552      0.00000
    139      27.4126      0.00000
    140      27.5982      0.00000
    141      27.7493      0.00000

 k-point   116 :       0.5000    0.0588    0.5000
  band No.  band energies     occupation 
      1     -25.4501      2.00000
      2     -25.4501      2.00000
      3     -25.4372      2.00000
      4     -25.4371      2.00000
      5     -25.4076      2.00000
      6     -25.4075      2.00000
      7     -25.3850      2.00000
      8     -25.3849      2.00000
      9     -25.3796      2.00000
     10     -25.3795      2.00000
     11     -12.2463      2.00000
     12     -12.1608      2.00000
     13     -11.2793      2.00000
     14     -11.2171      2.00000
     15     -11.0925      2.00000
     16     -10.8971      2.00000
     17      -5.8572      2.00000
     18      -5.8257      2.00000
     19      -2.7751      2.00000
     20      -2.1653      2.00000
     21      -2.1310      2.00000
     22      -1.8619      2.00000
     23      -1.5415      2.00000
     24      -1.3357      2.00000
     25      -1.1208      2.00000
     26      -1.0299      2.00000
     27      -0.8478      2.00000
     28      -0.7065      2.00000
     29      -0.6663      2.00000
     30      -0.5642      2.00000
     31      -0.5239      2.00000
     32      -0.4893      2.00000
     33      -0.4371      2.00000
     34      -0.3706      2.00000
     35       0.4257      2.00000
     36       0.5072      2.00000
     37       0.5813      2.00000
     38       0.5985      2.00000
     39       0.6357      2.00000
     40       0.6530      2.00000
     41       0.7080      2.00000
     42       0.7308      2.00000
     43       0.9040      2.00000
     44       1.1316      2.00000
     45       1.2366      2.00000
     46       1.3180      2.00000
     47       1.4200      2.00000
     48       1.6521      2.00000
     49       1.8617      2.00000
     50       2.1104      2.00000
     51       2.2392      2.00000
     52       2.3552      2.00000
     53       2.6393      2.00000
     54       2.8131      2.00000
     55       4.7551      0.00000
     56       5.2396      0.00000
     57       6.0610      0.00000
     58       6.7600      0.00000
     59       7.2147      0.00000
     60       7.4527      0.00000
     61       7.9141      0.00000
     62       8.1344      0.00000
     63       8.7223      0.00000
     64       9.0341      0.00000
     65       9.3520      0.00000
     66       9.7418      0.00000
     67       9.9898      0.00000
     68      10.1928      0.00000
     69      10.3255      0.00000
     70      10.5581      0.00000
     71      10.7258      0.00000
     72      10.8889      0.00000
     73      11.7711      0.00000
     74      12.2012      0.00000
     75      12.8246      0.00000
     76      13.0550      0.00000
     77      13.2750      0.00000
     78      13.7321      0.00000
     79      13.9499      0.00000
     80      14.1204      0.00000
     81      14.6832      0.00000
     82      14.8637      0.00000
     83      15.0621      0.00000
     84      15.2394      0.00000
     85      15.6654      0.00000
     86      15.9032      0.00000
     87      16.0763      0.00000
     88      16.2226      0.00000
     89      16.6626      0.00000
     90      16.9708      0.00000
     91      17.1960      0.00000
     92      17.6223      0.00000
     93      17.7044      0.00000
     94      17.7977      0.00000
     95      18.0270      0.00000
     96      18.2524      0.00000
     97      18.4227      0.00000
     98      18.5203      0.00000
     99      18.6084      0.00000
    100      19.0478      0.00000
    101      19.1995      0.00000
    102      19.4283      0.00000
    103      19.5479      0.00000
    104      19.7161      0.00000
    105      19.8765      0.00000
    106      20.0974      0.00000
    107      20.3428      0.00000
    108      20.6436      0.00000
    109      20.9172      0.00000
    110      21.4680      0.00000
    111      21.5683      0.00000
    112      21.7344      0.00000
    113      21.8260      0.00000
    114      22.1648      0.00000
    115      22.3277      0.00000
    116      22.5730      0.00000
    117      22.8755      0.00000
    118      23.0256      0.00000
    119      23.1897      0.00000
    120      23.5285      0.00000
    121      23.6820      0.00000
    122      24.1169      0.00000
    123      24.4242      0.00000
    124      24.5331      0.00000
    125      24.7534      0.00000
    126      24.9477      0.00000
    127      25.0855      0.00000
    128      25.5374      0.00000
    129      25.8157      0.00000
    130      26.1086      0.00000
    131      26.3374      0.00000
    132      26.4454      0.00000
    133      26.5425      0.00000
    134      26.7657      0.00000
    135      26.8152      0.00000
    136      26.8814      0.00000
    137      27.2426      0.00000
    138      27.3730      0.00000
    139      27.4470      0.00000
    140      27.6059      0.00000
    141      27.7744      0.00000

 k-point   117 :       0.5000    0.0441    0.5000
  band No.  band energies     occupation 
      1     -25.4500      2.00000
      2     -25.4500      2.00000
      3     -25.4371      2.00000
      4     -25.4370      2.00000
      5     -25.4076      2.00000
      6     -25.4075      2.00000
      7     -25.3849      2.00000
      8     -25.3848      2.00000
      9     -25.3795      2.00000
     10     -25.3794      2.00000
     11     -12.2466      2.00000
     12     -12.1613      2.00000
     13     -11.2764      2.00000
     14     -11.2167      2.00000
     15     -11.0965      2.00000
     16     -10.8945      2.00000
     17      -5.8563      2.00000
     18      -5.8299      2.00000
     19      -2.7801      2.00000
     20      -2.1646      2.00000
     21      -2.1327      2.00000
     22      -1.8569      2.00000
     23      -1.5193      2.00000
     24      -1.3547      2.00000
     25      -1.1082      2.00000
     26      -1.0323      2.00000
     27      -0.8541      2.00000
     28      -0.7040      2.00000
     29      -0.6693      2.00000
     30      -0.5647      2.00000
     31      -0.5221      2.00000
     32      -0.4901      2.00000
     33      -0.4377      2.00000
     34      -0.3700      2.00000
     35       0.4296      2.00000
     36       0.5001      2.00000
     37       0.5801      2.00000
     38       0.5979      2.00000
     39       0.6368      2.00000
     40       0.6526      2.00000
     41       0.7067      2.00000
     42       0.7311      2.00000
     43       0.9007      2.00000
     44       1.1365      2.00000
     45       1.2434      2.00000
     46       1.3142      2.00000
     47       1.4150      2.00000
     48       1.6580      2.00000
     49       1.8690      2.00000
     50       2.1183      2.00000
     51       2.2400      2.00000
     52       2.3436      2.00000
     53       2.6467      2.00000
     54       2.8098      2.00000
     55       4.7454      0.00000
     56       5.2412      0.00000
     57       6.0536      0.00000
     58       6.7783      0.00000
     59       7.2161      0.00000
     60       7.4500      0.00000
     61       7.9257      0.00000
     62       8.1205      0.00000
     63       8.7296      0.00000
     64       9.0141      0.00000
     65       9.3898      0.00000
     66       9.7494      0.00000
     67       9.9447      0.00000
     68      10.2130      0.00000
     69      10.3286      0.00000
     70      10.5560      0.00000
     71      10.6527      0.00000
     72      10.8629      0.00000
     73      11.7607      0.00000
     74      12.2075      0.00000
     75      12.8252      0.00000
     76      13.0514      0.00000
     77      13.3250      0.00000
     78      13.7000      0.00000
     79      13.9755      0.00000
     80      14.1170      0.00000
     81      14.7263      0.00000
     82      14.8925      0.00000
     83      15.0769      0.00000
     84      15.2740      0.00000
     85      15.7039      0.00000
     86      15.8954      0.00000
     87      16.0895      0.00000
     88      16.2358      0.00000
     89      16.7002      0.00000
     90      16.9589      0.00000
     91      17.2192      0.00000
     92      17.6127      0.00000
     93      17.7031      0.00000
     94      17.8178      0.00000
     95      18.0090      0.00000
     96      18.2514      0.00000
     97      18.4096      0.00000
     98      18.4456      0.00000
     99      18.5944      0.00000
    100      19.0165      0.00000
    101      19.2109      0.00000
    102      19.4463      0.00000
    103      19.5535      0.00000
    104      19.6436      0.00000
    105      19.8697      0.00000
    106      20.0355      0.00000
    107      20.2554      0.00000
    108      20.5919      0.00000
    109      20.8840      0.00000
    110      21.4951      0.00000
    111      21.6262      0.00000
    112      21.7429      0.00000
    113      21.8493      0.00000
    114      22.1880      0.00000
    115      22.2842      0.00000
    116      22.5505      0.00000
    117      22.8037      0.00000
    118      23.0435      0.00000
    119      23.2338      0.00000
    120      23.5269      0.00000
    121      23.7582      0.00000
    122      24.1433      0.00000
    123      24.4469      0.00000
    124      24.6303      0.00000
    125      24.7937      0.00000
    126      25.0466      0.00000
    127      25.2042      0.00000
    128      25.5719      0.00000
    129      25.8170      0.00000
    130      25.9743      0.00000
    131      26.2381      0.00000
    132      26.4096      0.00000
    133      26.5734      0.00000
    134      26.7206      0.00000
    135      26.8426      0.00000
    136      26.9584      0.00000
    137      27.3116      0.00000
    138      27.3725      0.00000
    139      27.4610      0.00000
    140      27.6335      0.00000
    141      27.8239      0.00000

 k-point   118 :       0.5000    0.0294    0.5000
  band No.  band energies     occupation 
      1     -25.4500      2.00000
      2     -25.4500      2.00000
      3     -25.4371      2.00000
      4     -25.4370      2.00000
      5     -25.4075      2.00000
      6     -25.4074      2.00000
      7     -25.3849      2.00000
      8     -25.3848      2.00000
      9     -25.3795      2.00000
     10     -25.3794      2.00000
     11     -12.2469      2.00000
     12     -12.1616      2.00000
     13     -11.2742      2.00000
     14     -11.2162      2.00000
     15     -11.0995      2.00000
     16     -10.8927      2.00000
     17      -5.8553      2.00000
     18      -5.8334      2.00000
     19      -2.7837      2.00000
     20      -2.1644      2.00000
     21      -2.1337      2.00000
     22      -1.8535      2.00000
     23      -1.4970      2.00000
     24      -1.3749      2.00000
     25      -1.0979      2.00000
     26      -1.0340      2.00000
     27      -0.8595      2.00000
     28      -0.7023      2.00000
     29      -0.6715      2.00000
     30      -0.5651      2.00000
     31      -0.5205      2.00000
     32      -0.4908      2.00000
     33      -0.4380      2.00000
     34      -0.3696      2.00000
     35       0.4333      2.00000
     36       0.4940      2.00000
     37       0.5792      2.00000
     38       0.5976      2.00000
     39       0.6375      2.00000
     40       0.6524      2.00000
     41       0.7057      2.00000
     42       0.7315      2.00000
     43       0.8982      2.00000
     44       1.1404      2.00000
     45       1.2474      2.00000
     46       1.3120      2.00000
     47       1.4114      2.00000
     48       1.6627      2.00000
     49       1.8750      2.00000
     50       2.1234      2.00000
     51       2.2399      2.00000
     52       2.3351      2.00000
     53       2.6520      2.00000
     54       2.8077      2.00000
     55       4.7382      0.00000
     56       5.2425      0.00000
     57       6.0483      0.00000
     58       6.7926      0.00000
     59       7.2165      0.00000
     60       7.4483      0.00000
     61       7.9361      0.00000
     62       8.1090      0.00000
     63       8.7341      0.00000
     64       8.9993      0.00000
     65       9.4247      0.00000
     66       9.7477      0.00000
     67       9.9118      0.00000
     68      10.2284      0.00000
     69      10.3480      0.00000
     70      10.5501      0.00000
     71      10.5869      0.00000
     72      10.8429      0.00000
     73      11.7547      0.00000
     74      12.2106      0.00000
     75      12.8263      0.00000
     76      13.0475      0.00000
     77      13.3729      0.00000
     78      13.6647      0.00000
     79      14.0007      0.00000
     80      14.1078      0.00000
     81      14.7637      0.00000
     82      14.9020      0.00000
     83      15.0956      0.00000
     84      15.3012      0.00000
     85      15.7394      0.00000
     86      15.8772      0.00000
     87      16.0994      0.00000
     88      16.2518      0.00000
     89      16.7380      0.00000
     90      16.9263      0.00000
     91      17.2563      0.00000
     92      17.5924      0.00000
     93      17.7115      0.00000
     94      17.8363      0.00000
     95      17.9915      0.00000
     96      18.2501      0.00000
     97      18.3493      0.00000
     98      18.4271      0.00000
     99      18.5969      0.00000
    100      18.9948      0.00000
    101      19.2279      0.00000
    102      19.4554      0.00000
    103      19.5552      0.00000
    104      19.5821      0.00000
    105      19.8857      0.00000
    106      19.9871      0.00000
    107      20.1738      0.00000
    108      20.5586      0.00000
    109      20.8576      0.00000
    110      21.5140      0.00000
    111      21.6613      0.00000
    112      21.7496      0.00000
    113      21.8977      0.00000
    114      22.1952      0.00000
    115      22.2481      0.00000
    116      22.5324      0.00000
    117      22.7339      0.00000
    118      23.0550      0.00000
    119      23.2898      0.00000
    120      23.5195      0.00000
    121      23.8143      0.00000
    122      24.1608      0.00000
    123      24.3854      0.00000
    124      24.7411      0.00000
    125      24.8960      0.00000
    126      25.1563      0.00000
    127      25.3256      0.00000
    128      25.5849      0.00000
    129      25.7877      0.00000
    130      25.8507      0.00000
    131      26.1095      0.00000
    132      26.3129      0.00000
    133      26.6046      0.00000
    134      26.7250      0.00000
    135      26.8768      0.00000
    136      27.0455      0.00000
    137      27.3286      0.00000
    138      27.3743      0.00000
    139      27.4905      0.00000
    140      27.6645      0.00000
    141      27.8945      0.00000

 k-point   119 :       0.5000    0.0147    0.5000
  band No.  band energies     occupation 
      1     -25.4500      2.00000
      2     -25.4500      2.00000
      3     -25.4370      2.00000
      4     -25.4370      2.00000
      5     -25.4075      2.00000
      6     -25.4074      2.00000
      7     -25.3848      2.00000
      8     -25.3847      2.00000
      9     -25.3794      2.00000
     10     -25.3793      2.00000
     11     -12.2471      2.00000
     12     -12.1618      2.00000
     13     -11.2729      2.00000
     14     -11.2159      2.00000
     15     -11.1013      2.00000
     16     -10.8915      2.00000
     17      -5.8545      2.00000
     18      -5.8358      2.00000
     19      -2.7859      2.00000
     20      -2.1645      2.00000
     21      -2.1341      2.00000
     22      -1.8515      2.00000
     23      -1.4773      2.00000
     24      -1.3933      2.00000
     25      -1.0911      2.00000
     26      -1.0350      2.00000
     27      -0.8632      2.00000
     28      -0.7013      2.00000
     29      -0.6729      2.00000
     30      -0.5654      2.00000
     31      -0.5195      2.00000
     32      -0.4913      2.00000
     33      -0.4383      2.00000
     34      -0.3694      2.00000
     35       0.4361      2.00000
     36       0.4897      2.00000
     37       0.5787      2.00000
     38       0.5974      2.00000
     39       0.6380      2.00000
     40       0.6523      2.00000
     41       0.7052      2.00000
     42       0.7318      2.00000
     43       0.8966      2.00000
     44       1.1429      2.00000
     45       1.2493      2.00000
     46       1.3110      2.00000
     47       1.4092      2.00000
     48       1.6657      2.00000
     49       1.8789      2.00000
     50       2.1261      2.00000
     51       2.2394      2.00000
     52       2.3299      2.00000
     53       2.6552      2.00000
     54       2.8066      2.00000
     55       4.7338      0.00000
     56       5.2433      0.00000
     57       6.0451      0.00000
     58       6.8016      0.00000
     59       7.2164      0.00000
     60       7.4474      0.00000
     61       7.9434      0.00000
     62       8.1011      0.00000
     63       8.7364      0.00000
     64       8.9902      0.00000
     65       9.4510      0.00000
     66       9.7392      0.00000
     67       9.8943      0.00000
     68      10.2359      0.00000
     69      10.3849      0.00000
     70      10.5054      0.00000
     71      10.5653      0.00000
     72      10.8301      0.00000
     73      11.7517      0.00000
     74      12.2118      0.00000
     75      12.8273      0.00000
     76      13.0447      0.00000
     77      13.4113      0.00000
     78      13.6337      0.00000
     79      14.0217      0.00000
     80      14.0963      0.00000
     81      14.7915      0.00000
     82      14.8999      0.00000
     83      15.1106      0.00000
     84      15.3189      0.00000
     85      15.7702      0.00000
     86      15.8548      0.00000
     87      16.1051      0.00000
     88      16.2646      0.00000
     89      16.7752      0.00000
     90      16.8874      0.00000
     91      17.2880      0.00000
     92      17.5768      0.00000
     93      17.7184      0.00000
     94      17.8493      0.00000
     95      17.9777      0.00000
     96      18.2521      0.00000
     97      18.2972      0.00000
     98      18.4218      0.00000
     99      18.6025      0.00000
    100      18.9862      0.00000
    101      19.2414      0.00000
    102      19.4465      0.00000
    103      19.5410      0.00000
    104      19.5687      0.00000
    105      19.8990      0.00000
    106      19.9695      0.00000
    107      20.1050      0.00000
    108      20.5405      0.00000
    109      20.8404      0.00000
    110      21.5259      0.00000
    111      21.6729      0.00000
    112      21.7559      0.00000
    113      21.9602      0.00000
    114      22.1614      0.00000
    115      22.2429      0.00000
    116      22.5200      0.00000
    117      22.6866      0.00000
    118      23.0601      0.00000
    119      23.3367      0.00000
    120      23.5093      0.00000
    121      23.8487      0.00000
    122      24.1838      0.00000
    123      24.3136      0.00000
    124      24.8289      0.00000
    125      24.9839      0.00000
    126      25.2774      0.00000
    127      25.4263      0.00000
    128      25.5753      0.00000
    129      25.6454      0.00000
    130      25.8566      0.00000
    131      26.0029      0.00000
    132      26.2066      0.00000
    133      26.6466      0.00000
    134      26.7258      0.00000
    135      26.8944      0.00000
    136      27.1219      0.00000
    137      27.2974      0.00000
    138      27.3753      0.00000
    139      27.5473      0.00000
    140      27.6738      0.00000
    141      27.9605      0.00000

 k-point   120 :       0.5000    0.0000    0.5000
  band No.  band energies     occupation 
      1     -25.4500      2.00000
      2     -25.4499      2.00000
      3     -25.4370      2.00000
      4     -25.4369      2.00000
      5     -25.4075      2.00000
      6     -25.4074      2.00000
      7     -25.3848      2.00000
      8     -25.3847      2.00000
      9     -25.3794      2.00000
     10     -25.3793      2.00000
     11     -12.2471      2.00000
     12     -12.1619      2.00000
     13     -11.2724      2.00000
     14     -11.2158      2.00000
     15     -11.1020      2.00000
     16     -10.8911      2.00000
     17      -5.8541      2.00000
     18      -5.8366      2.00000
     19      -2.7866      2.00000
     20      -2.1645      2.00000
     21      -2.1342      2.00000
     22      -1.8508      2.00000
     23      -1.4680      2.00000
     24      -1.4021      2.00000
     25      -1.0887      2.00000
     26      -1.0354      2.00000
     27      -0.8645      2.00000
     28      -0.7010      2.00000
     29      -0.6733      2.00000
     30      -0.5655      2.00000
     31      -0.5192      2.00000
     32      -0.4915      2.00000
     33      -0.4383      2.00000
     34      -0.3693      2.00000
     35       0.4371      2.00000
     36       0.4881      2.00000
     37       0.5785      2.00000
     38       0.5973      2.00000
     39       0.6381      2.00000
     40       0.6523      2.00000
     41       0.7050      2.00000
     42       0.7319      2.00000
     43       0.8960      2.00000
     44       1.1437      2.00000
     45       1.2498      2.00000
     46       1.3108      2.00000
     47       1.4084      2.00000
     48       1.6668      2.00000
     49       1.8803      2.00000
     50       2.1269      2.00000
     51       2.2392      2.00000
     52       2.3282      2.00000
     53       2.6563      2.00000
     54       2.8063      2.00000
     55       4.7323      0.00000
     56       5.2436      0.00000
     57       6.0440      0.00000
     58       6.8048      0.00000
     59       7.2163      0.00000
     60       7.4472      0.00000
     61       7.9460      0.00000
     62       8.0983      0.00000
     63       8.7371      0.00000
     64       8.9872      0.00000
     65       9.4611      0.00000
     66       9.7342      0.00000
     67       9.8893      0.00000
     68      10.2379      0.00000
     69      10.4207      0.00000
     70      10.4616      0.00000
     71      10.5640      0.00000
     72      10.8257      0.00000
     73      11.7508      0.00000
     74      12.2121      0.00000
     75      12.8277      0.00000
     76      13.0437      0.00000
     77      13.4272      0.00000
     78      13.6202      0.00000
     79      14.0310      0.00000
     80      14.0901      0.00000
     81      14.8025      0.00000
     82      14.8970      0.00000
     83      15.1163      0.00000
     84      15.3251      0.00000
     85      15.7863      0.00000
     86      15.8412      0.00000
     87      16.1069      0.00000
     88      16.2694      0.00000
     89      16.7975      0.00000
     90      16.8639      0.00000
     91      17.3002      0.00000
     92      17.5714      0.00000
     93      17.7207      0.00000
     94      17.8540      0.00000
     95      17.9722      0.00000
     96      18.2605      0.00000
     97      18.2708      0.00000
     98      18.4203      0.00000
     99      18.6046      0.00000
    100      18.9851      0.00000
    101      19.2461      0.00000
    102      19.4373      0.00000
    103      19.5375      0.00000
    104      19.5682      0.00000
    105      19.8985      0.00000
    106      19.9784      0.00000
    107      20.0711      0.00000
    108      20.5349      0.00000
    109      20.8343      0.00000
    110      21.5300      0.00000
    111      21.6748      0.00000
    112      21.7585      0.00000
    113      21.9973      0.00000
    114      22.1320      0.00000
    115      22.2455      0.00000
    116      22.5154      0.00000
    117      22.6702      0.00000
    118      23.0615      0.00000
    119      23.3558      0.00000
    120      23.5038      0.00000
    121      23.8604      0.00000
    122      24.2033      0.00000
    123      24.2750      0.00000
    124      24.8625      0.00000
    125      25.0166      0.00000
    126      25.3970      0.00000
    127      25.4238      0.00000
    128      25.5235      0.00000
    129      25.6074      0.00000
    130      25.8726      0.00000
    131      25.9506      0.00000
    132      26.1614      0.00000
    133      26.6692      0.00000
    134      26.7192      0.00000
    135      26.8996      0.00000
    136      27.1588      0.00000
    137      27.2746      0.00000
    138      27.3741      0.00000
    139      27.5787      0.00000
    140      27.6689      0.00000
    141      28.0490      0.00000

 k-point   121 :       0.5000    0.0000    0.4833
  band No.  band energies     occupation 
      1     -25.4501      2.00000
      2     -25.4498      2.00000
      3     -25.4370      2.00000
      4     -25.4369      2.00000
      5     -25.4075      2.00000
      6     -25.4074      2.00000
      7     -25.3848      2.00000
      8     -25.3847      2.00000
      9     -25.3794      2.00000
     10     -25.3793      2.00000
     11     -12.2531      2.00000
     12     -12.1554      2.00000
     13     -11.2742      2.00000
     14     -11.2148      2.00000
     15     -11.1014      2.00000
     16     -10.8912      2.00000
     17      -5.8744      2.00000
     18      -5.8161      2.00000
     19      -2.7860      2.00000
     20      -2.1649      2.00000
     21      -2.1346      2.00000
     22      -1.8505      2.00000
     23      -1.4785      2.00000
     24      -1.3907      2.00000
     25      -1.0902      2.00000
     26      -1.0350      2.00000
     27      -0.8644      2.00000
     28      -0.7011      2.00000
     29      -0.6736      2.00000
     30      -0.5652      2.00000
     31      -0.5193      2.00000
     32      -0.4917      2.00000
     33      -0.4385      2.00000
     34      -0.3695      2.00000
     35       0.4368      2.00000
     36       0.4887      2.00000
     37       0.5786      2.00000
     38       0.5975      2.00000
     39       0.6373      2.00000
     40       0.6525      2.00000
     41       0.7044      2.00000
     42       0.7324      2.00000
     43       0.8971      2.00000
     44       1.1434      2.00000
     45       1.2496      2.00000
     46       1.3113      2.00000
     47       1.4082      2.00000
     48       1.6663      2.00000
     49       1.8794      2.00000
     50       2.1182      2.00000
     51       2.2291      2.00000
     52       2.3453      2.00000
     53       2.6556      2.00000
     54       2.8057      2.00000
     55       4.7358      0.00000
     56       5.2445      0.00000
     57       6.0454      0.00000
     58       6.8053      0.00000
     59       7.2169      0.00000
     60       7.4486      0.00000
     61       7.9451      0.00000
     62       8.0989      0.00000
     63       8.7371      0.00000
     64       8.9886      0.00000
     65       9.4605      0.00000
     66       9.7362      0.00000
     67       9.8891      0.00000
     68      10.2364      0.00000
     69      10.4134      0.00000
     70      10.4683      0.00000
     71      10.5630      0.00000
     72      10.8324      0.00000
     73      11.7496      0.00000
     74      12.2132      0.00000
     75      12.8265      0.00000
     76      13.0434      0.00000
     77      13.4082      0.00000
     78      13.6336      0.00000
     79      14.0279      0.00000
     80      14.0914      0.00000
     81      14.7915      0.00000
     82      14.9030      0.00000
     83      15.1133      0.00000
     84      15.3240      0.00000
     85      15.7538      0.00000
     86      15.8661      0.00000
     87      16.1017      0.00000
     88      16.2809      0.00000
     89      16.7961      0.00000
     90      16.8624      0.00000
     91      17.2902      0.00000
     92      17.5688      0.00000
     93      17.7245      0.00000
     94      17.8238      0.00000
     95      17.9988      0.00000
     96      18.2525      0.00000
     97      18.2913      0.00000
     98      18.4342      0.00000
     99      18.6028      0.00000
    100      18.9789      0.00000
    101      19.2295      0.00000
    102      19.4318      0.00000
    103      19.5198      0.00000
    104      19.5970      0.00000
    105      19.9123      0.00000
    106      19.9839      0.00000
    107      20.0754      0.00000
    108      20.5212      0.00000
    109      20.8614      0.00000
    110      21.4970      0.00000
    111      21.6881      0.00000
    112      21.7423      0.00000
    113      21.9832      0.00000
    114      22.1451      0.00000
    115      22.2427      0.00000
    116      22.5505      0.00000
    117      22.6795      0.00000
    118      23.0668      0.00000
    119      23.3322      0.00000
    120      23.5161      0.00000
    121      23.8499      0.00000
    122      24.1672      0.00000
    123      24.3359      0.00000
    124      24.8617      0.00000
    125      24.9878      0.00000
    126      25.2991      0.00000
    127      25.4575      0.00000
    128      25.5339      0.00000
    129      25.6443      0.00000
    130      25.8229      0.00000
    131      26.0219      0.00000
    132      26.1882      0.00000
    133      26.6545      0.00000
    134      26.7113      0.00000
    135      26.8967      0.00000
    136      27.1521      0.00000
    137      27.2752      0.00000
    138      27.3581      0.00000
    139      27.5712      0.00000
    140      27.6972      0.00000
    141      27.9976      0.00000

 k-point   122 :       0.5000    0.0000    0.4667
  band No.  band energies     occupation 
      1     -25.4502      2.00000
      2     -25.4497      2.00000
      3     -25.4370      2.00000
      4     -25.4369      2.00000
      5     -25.4075      2.00000
      6     -25.4073      2.00000
      7     -25.3848      2.00000
      8     -25.3847      2.00000
      9     -25.3794      2.00000
     10     -25.3793      2.00000
     11     -12.2675      2.00000
     12     -12.1397      2.00000
     13     -11.2789      2.00000
     14     -11.2121      2.00000
     15     -11.0999      2.00000
     16     -10.8915      2.00000
     17      -5.9012      2.00000
     18      -5.7885      2.00000
     19      -2.7843      2.00000
     20      -2.1660      2.00000
     21      -2.1357      2.00000
     22      -1.8494      2.00000
     23      -1.4993      2.00000
     24      -1.3672      2.00000
     25      -1.0945      2.00000
     26      -1.0338      2.00000
     27      -0.8642      2.00000
     28      -0.7014      2.00000
     29      -0.6743      2.00000
     30      -0.5645      2.00000
     31      -0.5195      2.00000
     32      -0.4921      2.00000
     33      -0.4391      2.00000
     34      -0.3702      2.00000
     35       0.4357      2.00000
     36       0.4902      2.00000
     37       0.5789      2.00000
     38       0.5980      2.00000
     39       0.6352      2.00000
     40       0.6530      2.00000
     41       0.7028      2.00000
     42       0.7338      2.00000
     43       0.9001      2.00000
     44       1.1423      2.00000
     45       1.2491      2.00000
     46       1.3129      2.00000
     47       1.4073      2.00000
     48       1.6651      2.00000
     49       1.8765      2.00000
     50       2.0931      2.00000
     51       2.2146      2.00000
     52       2.3794      2.00000
     53       2.6542      2.00000
     54       2.8039      2.00000
     55       4.7462      0.00000
     56       5.2472      0.00000
     57       6.0496      0.00000
     58       6.8071      0.00000
     59       7.2185      0.00000
     60       7.4529      0.00000
     61       7.9424      0.00000
     62       8.1008      0.00000
     63       8.7372      0.00000
     64       8.9928      0.00000
     65       9.4588      0.00000
     66       9.7418      0.00000
     67       9.8888      0.00000
     68      10.2314      0.00000
     69      10.3985      0.00000
     70      10.4822      0.00000
     71      10.5610      0.00000
     72      10.8508      0.00000
     73      11.7466      0.00000
     74      12.2160      0.00000
     75      12.8233      0.00000
     76      13.0417      0.00000
     77      13.3636      0.00000
     78      13.6619      0.00000
     79      14.0191      0.00000
     80      14.0946      0.00000
     81      14.7636      0.00000
     82      14.9157      0.00000
     83      15.1045      0.00000
     84      15.3204      0.00000
     85      15.6999      0.00000
     86      15.8974      0.00000
     87      16.0908      0.00000
     88      16.3112      0.00000
     89      16.7902      0.00000
     90      16.8593      0.00000
     91      17.2638      0.00000
     92      17.5574      0.00000
     93      17.7264      0.00000
     94      17.7862      0.00000
     95      18.0420      0.00000
     96      18.2574      0.00000
     97      18.3045      0.00000
     98      18.4809      0.00000
     99      18.6030      0.00000
    100      18.9683      0.00000
    101      19.1722      0.00000
    102      19.4423      0.00000
    103      19.5065      0.00000
    104      19.6195      0.00000
    105      19.9413      0.00000
    106      20.0072      0.00000
    107      20.0901      0.00000
    108      20.4967      0.00000
    109      20.9265      0.00000
    110      21.4179      0.00000
    111      21.6973      0.00000
    112      21.7156      0.00000
    113      21.9579      0.00000
    114      22.1677      0.00000
    115      22.2502      0.00000
    116      22.6179      0.00000
    117      22.7140      0.00000
    118      23.0853      0.00000
    119      23.2797      0.00000
    120      23.5407      0.00000
    121      23.8192      0.00000
    122      24.1322      0.00000
    123      24.4385      0.00000
    124      24.8550      0.00000
    125      24.9099      0.00000
    126      25.2155      0.00000
    127      25.4072      0.00000
    128      25.5007      0.00000
    129      25.7263      0.00000
    130      25.8252      0.00000
    131      26.1273      0.00000
    132      26.2568      0.00000
    133      26.6104      0.00000
    134      26.6888      0.00000
    135      26.8900      0.00000
    136      27.1396      0.00000
    137      27.2428      0.00000
    138      27.3535      0.00000
    139      27.5619      0.00000
    140      27.7354      0.00000
    141      27.9467      0.00000

 k-point   123 :       0.5000    0.0000    0.4500
  band No.  band energies     occupation 
      1     -25.4503      2.00000
      2     -25.4495      2.00000
      3     -25.4370      2.00000
      4     -25.4369      2.00000
      5     -25.4074      2.00000
      6     -25.4073      2.00000
      7     -25.3848      2.00000
      8     -25.3847      2.00000
      9     -25.3794      2.00000
     10     -25.3793      2.00000
     11     -12.2855      2.00000
     12     -12.1194      2.00000
     13     -11.2860      2.00000
     14     -11.2084      2.00000
     15     -11.0973      2.00000
     16     -10.8919      2.00000
     17      -5.9280      2.00000
     18      -5.7604      2.00000
     19      -2.7815      2.00000
     20      -2.1678      2.00000
     21      -2.1376      2.00000
     22      -1.8476      2.00000
     23      -1.5214      2.00000
     24      -1.3406      2.00000
     25      -1.1011      2.00000
     26      -1.0323      2.00000
     27      -0.8638      2.00000
     28      -0.7018      2.00000
     29      -0.6755      2.00000
     30      -0.5633      2.00000
     31      -0.5200      2.00000
     32      -0.4929      2.00000
     33      -0.4400      2.00000
     34      -0.3712      2.00000
     35       0.4343      2.00000
     36       0.4926      2.00000
     37       0.5795      2.00000
     38       0.5989      2.00000
     39       0.6320      2.00000
     40       0.6536      2.00000
     41       0.7005      2.00000
     42       0.7358      2.00000
     43       0.9049      2.00000
     44       1.1401      2.00000
     45       1.2487      2.00000
     46       1.3153      2.00000
     47       1.4061      2.00000
     48       1.6627      2.00000
     49       1.8715      2.00000
     50       2.0563      2.00000
     51       2.2054      2.00000
     52       2.4139      2.00000
     53       2.6543      2.00000
     54       2.8013      2.00000
     55       4.7630      0.00000
     56       5.2517      0.00000
     57       6.0566      0.00000
     58       6.8099      0.00000
     59       7.2213      0.00000
     60       7.4599      0.00000
     61       7.9381      0.00000
     62       8.1044      0.00000
     63       8.7373      0.00000
     64       8.9993      0.00000
     65       9.4560      0.00000
     66       9.7505      0.00000
     67       9.8890      0.00000
     68      10.2216      0.00000
     69      10.3830      0.00000
     70      10.4985      0.00000
     71      10.5608      0.00000
     72      10.8765      0.00000
     73      11.7430      0.00000
     74      12.2200      0.00000
     75      12.8180      0.00000
     76      13.0369      0.00000
     77      13.3101      0.00000
     78      13.6899      0.00000
     79      14.0058      0.00000
     80      14.0980      0.00000
     81      14.7251      0.00000
     82      14.9288      0.00000
     83      15.0899      0.00000
     84      15.3145      0.00000
     85      15.6424      0.00000
     86      15.9186      0.00000
     87      16.0812      0.00000
     88      16.3536      0.00000
     89      16.7765      0.00000
     90      16.8557      0.00000
     91      17.2312      0.00000
     92      17.5357      0.00000
     93      17.6846      0.00000
     94      17.8124      0.00000
     95      18.0749      0.00000
     96      18.2558      0.00000
     97      18.3180      0.00000
     98      18.5245      0.00000
     99      18.6352      0.00000
    100      18.9594      0.00000
    101      19.1032      0.00000
    102      19.4473      0.00000
    103      19.5121      0.00000
    104      19.6230      0.00000
    105      19.9680      0.00000
    106      20.0433      0.00000
    107      20.1188      0.00000
    108      20.4891      0.00000
    109      21.0022      0.00000
    110      21.3187      0.00000
    111      21.6623      0.00000
    112      21.7196      0.00000
    113      21.9402      0.00000
    114      22.1857      0.00000
    115      22.2816      0.00000
    116      22.6520      0.00000
    117      22.7842      0.00000
    118      23.1203      0.00000
    119      23.2322      0.00000
    120      23.5656      0.00000
    121      23.7684      0.00000
    122      24.1174      0.00000
    123      24.5387      0.00000
    124      24.7901      0.00000
    125      24.8708      0.00000
    126      25.1548      0.00000
    127      25.3358      0.00000
    128      25.4369      0.00000
    129      25.7159      0.00000
    130      25.9643      0.00000
    131      26.2299      0.00000
    132      26.3452      0.00000
    133      26.5425      0.00000
    134      26.6542      0.00000
    135      26.8846      0.00000
    136      27.1277      0.00000
    137      27.1752      0.00000
    138      27.3705      0.00000
    139      27.5505      0.00000
    140      27.7358      0.00000
    141      27.8794      0.00000

 k-point   124 :       0.5000    0.0000    0.4333
  band No.  band energies     occupation 
      1     -25.4504      2.00000
      2     -25.4494      2.00000
      3     -25.4370      2.00000
      4     -25.4368      2.00000
      5     -25.4074      2.00000
      6     -25.4073      2.00000
      7     -25.3848      2.00000
      8     -25.3846      2.00000
      9     -25.3794      2.00000
     10     -25.3792      2.00000
     11     -12.3049      2.00000
     12     -12.0970      2.00000
     13     -11.2946      2.00000
     14     -11.2045      2.00000
     15     -11.0939      2.00000
     16     -10.8925      2.00000
     17      -5.9546      2.00000
     18      -5.7320      2.00000
     19      -2.7777      2.00000
     20      -2.1705      2.00000
     21      -2.1402      2.00000
     22      -1.8452      2.00000
     23      -1.5420      2.00000
     24      -1.3140      2.00000
     25      -1.1097      2.00000
     26      -1.0305      2.00000
     27      -0.8633      2.00000
     28      -0.7023      2.00000
     29      -0.6772      2.00000
     30      -0.5618      2.00000
     31      -0.5207      2.00000
     32      -0.4939      2.00000
     33      -0.4412      2.00000
     34      -0.3726      2.00000
     35       0.4328      2.00000
     36       0.4954      2.00000
     37       0.5803      2.00000
     38       0.6001      2.00000
     39       0.6281      2.00000
     40       0.6541      2.00000
     41       0.6977      2.00000
     42       0.7383      2.00000
     43       0.9114      2.00000
     44       1.1366      2.00000
     45       1.2488      2.00000
     46       1.3183      2.00000
     47       1.4047      2.00000
     48       1.6591      2.00000
     49       1.8642      2.00000
     50       2.0146      2.00000
     51       2.2001      2.00000
     52       2.4403      2.00000
     53       2.6599      2.00000
     54       2.7984      2.00000
     55       4.7854      0.00000
     56       5.2580      0.00000
     57       6.0662      0.00000
     58       6.8136      0.00000
     59       7.2252      0.00000
     60       7.4697      0.00000
     61       7.9323      0.00000
     62       8.1103      0.00000
     63       8.7373      0.00000
     64       9.0075      0.00000
     65       9.4524      0.00000
     66       9.7610      0.00000
     67       9.8911      0.00000
     68      10.2058      0.00000
     69      10.3700      0.00000
     70      10.5160      0.00000
     71      10.5648      0.00000
     72      10.9047      0.00000
     73      11.7408      0.00000
     74      12.2243      0.00000
     75      12.8103      0.00000
     76      13.0266      0.00000
     77      13.2580      0.00000
     78      13.7104      0.00000
     79      13.9883      0.00000
     80      14.1007      0.00000
     81      14.6782      0.00000
     82      14.9396      0.00000
     83      15.0699      0.00000
     84      15.3056      0.00000
     85      15.5858      0.00000
     86      15.9299      0.00000
     87      16.0758      0.00000
     88      16.4030      0.00000
     89      16.7554      0.00000
     90      16.8480      0.00000
     91      17.2051      0.00000
     92      17.5066      0.00000
     93      17.6384      0.00000
     94      17.8614      0.00000
     95      18.0928      0.00000
     96      18.2286      0.00000
     97      18.3566      0.00000
     98      18.5300      0.00000
     99      18.7032      0.00000
    100      18.9464      0.00000
    101      19.0737      0.00000
    102      19.4238      0.00000
    103      19.5243      0.00000
    104      19.6282      0.00000
    105      19.9965      0.00000
    106      20.0729      0.00000
    107      20.1502      0.00000
    108      20.5183      0.00000
    109      21.0469      0.00000
    110      21.2439      0.00000
    111      21.6257      0.00000
    112      21.7246      0.00000
    113      21.9328      0.00000
    114      22.2028      0.00000
    115      22.3312      0.00000
    116      22.6434      0.00000
    117      22.8564      0.00000
    118      23.1230      0.00000
    119      23.2680      0.00000
    120      23.5811      0.00000
    121      23.7055      0.00000
    122      24.1175      0.00000
    123      24.5540      0.00000
    124      24.7557      0.00000
    125      24.8811      0.00000
    126      25.0984      0.00000
    127      25.2615      0.00000
    128      25.3751      0.00000
    129      25.7026      0.00000
    130      26.1092      0.00000
    131      26.3047      0.00000
    132      26.4287      0.00000
    133      26.4823      0.00000
    134      26.6136      0.00000
    135      26.8899      0.00000
    136      27.0894      0.00000
    137      27.1272      0.00000
    138      27.3717      0.00000
    139      27.5304      0.00000
    140      27.7112      0.00000
    141      27.8712      0.00000

 k-point   125 :       0.5000    0.0000    0.4167
  band No.  band energies     occupation 
      1     -25.4505      2.00000
      2     -25.4492      2.00000
      3     -25.4370      2.00000
      4     -25.4368      2.00000
      5     -25.4074      2.00000
      6     -25.4072      2.00000
      7     -25.3848      2.00000
      8     -25.3846      2.00000
      9     -25.3794      2.00000
     10     -25.3792      2.00000
     11     -12.3246      2.00000
     12     -12.0733      2.00000
     13     -11.3041      2.00000
     14     -11.2006      2.00000
     15     -11.0899      2.00000
     16     -10.8932      2.00000
     17      -5.9807      2.00000
     18      -5.7036      2.00000
     19      -2.7727      2.00000
     20      -2.1741      2.00000
     21      -2.1434      2.00000
     22      -1.8422      2.00000
     23      -1.5599      2.00000
     24      -1.2891      2.00000
     25      -1.1196      2.00000
     26      -1.0286      2.00000
     27      -0.8625      2.00000
     28      -0.7029      2.00000
     29      -0.6794      2.00000
     30      -0.5601      2.00000
     31      -0.5216      2.00000
     32      -0.4950      2.00000
     33      -0.4427      2.00000
     34      -0.3744      2.00000
     35       0.4315      2.00000
     36       0.4984      2.00000
     37       0.5814      2.00000
     38       0.6015      2.00000
     39       0.6237      2.00000
     40       0.6545      2.00000
     41       0.6948      2.00000
     42       0.7410      2.00000
     43       0.9191      2.00000
     44       1.1314      2.00000
     45       1.2498      2.00000
     46       1.3216      2.00000
     47       1.4034      2.00000
     48       1.6538      2.00000
     49       1.8538      2.00000
     50       1.9733      2.00000
     51       2.1966      2.00000
     52       2.4528      2.00000
     53       2.6739      2.00000
     54       2.7967      2.00000
     55       4.8127      0.00000
     56       5.2662      0.00000
     57       6.0785      0.00000
     58       6.8181      0.00000
     59       7.2301      0.00000
     60       7.4821      0.00000
     61       7.9258      0.00000
     62       8.1188      0.00000
     63       8.7374      0.00000
     64       9.0167      0.00000
     65       9.4483      0.00000
     66       9.7710      0.00000
     67       9.8967      0.00000
     68      10.1842      0.00000
     69      10.3605      0.00000
     70      10.5336      0.00000
     71      10.5756      0.00000
     72      10.9311      0.00000
     73      11.7424      0.00000
     74      12.2278      0.00000
     75      12.7986      0.00000
     76      13.0092      0.00000
     77      13.2137      0.00000
     78      13.7200      0.00000
     79      13.9665      0.00000
     80      14.1024      0.00000
     81      14.6236      0.00000
     82      14.9458      0.00000
     83      15.0460      0.00000
     84      15.2927      0.00000
     85      15.5336      0.00000
     86      15.9359      0.00000
     87      16.0731      0.00000
     88      16.4547      0.00000
     89      16.7301      0.00000
     90      16.8330      0.00000
     91      17.1949      0.00000
     92      17.4713      0.00000
     93      17.6071      0.00000
     94      17.8949      0.00000
     95      18.0996      0.00000
     96      18.2074      0.00000
     97      18.3934      0.00000
     98      18.5305      0.00000
     99      18.7292      0.00000
    100      18.9690      0.00000
    101      19.0905      0.00000
    102      19.3905      0.00000
    103      19.5214      0.00000
    104      19.6429      0.00000
    105      20.0231      0.00000
    106      20.0972      0.00000
    107      20.1775      0.00000
    108      20.5798      0.00000
    109      20.9989      0.00000
    110      21.2631      0.00000
    111      21.5953      0.00000
    112      21.7426      0.00000
    113      21.9290      0.00000
    114      22.2201      0.00000
    115      22.3892      0.00000
    116      22.6029      0.00000
    117      22.9173      0.00000
    118      23.0927      0.00000
    119      23.3804      0.00000
    120      23.5418      0.00000
    121      23.6869      0.00000
    122      24.1131      0.00000
    123      24.4780      0.00000
    124      24.7638      0.00000
    125      24.9430      0.00000
    126      25.0444      0.00000
    127      25.1923      0.00000
    128      25.3323      0.00000
    129      25.6971      0.00000
    130      26.1892      0.00000
    131      26.3126      0.00000
    132      26.4725      0.00000
    133      26.5026      0.00000
    134      26.5995      0.00000
    135      26.9169      0.00000
    136      27.0165      0.00000
    137      27.1134      0.00000
    138      27.3355      0.00000
    139      27.5060      0.00000
    140      27.6735      0.00000
    141      27.7992      0.00000

 k-point   126 :       0.5000    0.0000    0.4000
  band No.  band energies     occupation 
      1     -25.4505      2.00000
      2     -25.4490      2.00000
      3     -25.4370      2.00000
      4     -25.4367      2.00000
      5     -25.4073      2.00000
      6     -25.4072      2.00000
      7     -25.3847      2.00000
      8     -25.3845      2.00000
      9     -25.3793      2.00000
     10     -25.3791      2.00000
     11     -12.3442      2.00000
     12     -12.0490      2.00000
     13     -11.3143      2.00000
     14     -11.1970      2.00000
     15     -11.0854      2.00000
     16     -10.8941      2.00000
     17      -6.0065      2.00000
     18      -5.6751      2.00000
     19      -2.7669      2.00000
     20      -2.1790      2.00000
     21      -2.1469      2.00000
     22      -1.8386      2.00000
     23      -1.5746      2.00000
     24      -1.2672      2.00000
     25      -1.1303      2.00000
     26      -1.0267      2.00000
     27      -0.8616      2.00000
     28      -0.7034      2.00000
     29      -0.6821      2.00000
     30      -0.5583      2.00000
     31      -0.5228      2.00000
     32      -0.4962      2.00000
     33      -0.4445      2.00000
     34      -0.3764      2.00000
     35       0.4307      2.00000
     36       0.5013      2.00000
     37       0.5827      2.00000
     38       0.6027      2.00000
     39       0.6194      2.00000
     40       0.6547      2.00000
     41       0.6918      2.00000
     42       0.7438      2.00000
     43       0.9277      2.00000
     44       1.1246      2.00000
     45       1.2521      2.00000
     46       1.3246      2.00000
     47       1.4027      2.00000
     48       1.6466      2.00000
     49       1.8389      2.00000
     50       1.9362      2.00000
     51       2.1939      2.00000
     52       2.4504      2.00000
     53       2.6941      2.00000
     54       2.7992      2.00000
     55       4.8437      0.00000
     56       5.2762      0.00000
     57       6.0933      0.00000
     58       6.8233      0.00000
     59       7.2360      0.00000
     60       7.4968      0.00000
     61       7.9192      0.00000
     62       8.1301      0.00000
     63       8.7378      0.00000
     64       9.0260      0.00000
     65       9.4443      0.00000
     66       9.7782      0.00000
     67       9.9078      0.00000
     68      10.1589      0.00000
     69      10.3533      0.00000
     70      10.5506      0.00000
     71      10.5944      0.00000
     72      10.9524      0.00000
     73      11.7498      0.00000
     74      12.2296      0.00000
     75      12.7806      0.00000
     76      12.9860      0.00000
     77      13.1800      0.00000
     78      13.7173      0.00000
     79      13.9405      0.00000
     80      14.1029      0.00000
     81      14.5617      0.00000
     82      14.9420      0.00000
     83      15.0232      0.00000
     84      15.2740      0.00000
     85      15.4896      0.00000
     86      15.9419      0.00000
     87      16.0708      0.00000
     88      16.4996      0.00000
     89      16.7065      0.00000
     90      16.8161      0.00000
     91      17.1984      0.00000
     92      17.4332      0.00000
     93      17.5934      0.00000
     94      17.8860      0.00000
     95      18.0924      0.00000
     96      18.2238      0.00000
     97      18.4033      0.00000
     98      18.5402      0.00000
     99      18.7225      0.00000
    100      19.0209      0.00000
    101      19.1295      0.00000
    102      19.3655      0.00000
    103      19.5173      0.00000
    104      19.6580      0.00000
    105      20.0349      0.00000
    106      20.1145      0.00000
    107      20.2231      0.00000
    108      20.6377      0.00000
    109      20.9289      0.00000
    110      21.3248      0.00000
    111      21.5832      0.00000
    112      21.7806      0.00000
    113      21.9241      0.00000
    114      22.2342      0.00000
    115      22.4262      0.00000
    116      22.5711      0.00000
    117      22.9686      0.00000
    118      23.0715      0.00000
    119      23.4153      0.00000
    120      23.5134      0.00000
    121      23.7481      0.00000
    122      24.0727      0.00000
    123      24.4247      0.00000
    124      24.7378      0.00000
    125      24.9597      0.00000
    126      25.0396      0.00000
    127      25.1660      0.00000
    128      25.3120      0.00000
    129      25.7009      0.00000
    130      26.1290      0.00000
    131      26.3099      0.00000
    132      26.4820      0.00000
    133      26.5659      0.00000
    134      26.6399      0.00000
    135      26.9229      0.00000
    136      26.9991      0.00000
    137      27.0987      0.00000
    138      27.2756      0.00000
    139      27.4788      0.00000
    140      27.6631      0.00000
    141      27.7886      0.00000

 k-point   127 :       0.5000    0.0000    0.3833
  band No.  band energies     occupation 
      1     -25.4506      2.00000
      2     -25.4488      2.00000
      3     -25.4369      2.00000
      4     -25.4367      2.00000
      5     -25.4073      2.00000
      6     -25.4071      2.00000
      7     -25.3847      2.00000
      8     -25.3844      2.00000
      9     -25.3793      2.00000
     10     -25.3790      2.00000
     11     -12.3635      2.00000
     12     -12.0241      2.00000
     13     -11.3248      2.00000
     14     -11.1937      2.00000
     15     -11.0805      2.00000
     16     -10.8949      2.00000
     17      -6.0317      2.00000
     18      -5.6466      2.00000
     19      -2.7601      2.00000
     20      -2.1857      2.00000
     21      -2.1501      2.00000
     22      -1.8344      2.00000
     23      -1.5859      2.00000
     24      -1.2496      2.00000
     25      -1.1407      2.00000
     26      -1.0248      2.00000
     27      -0.8604      2.00000
     28      -0.7038      2.00000
     29      -0.6853      2.00000
     30      -0.5567      2.00000
     31      -0.5241      2.00000
     32      -0.4974      2.00000
     33      -0.4463      2.00000
     34      -0.3786      2.00000
     35       0.4305      2.00000
     36       0.5041      2.00000
     37       0.5841      2.00000
     38       0.6032      2.00000
     39       0.6159      2.00000
     40       0.6548      2.00000
     41       0.6889      2.00000
     42       0.7466      2.00000
     43       0.9366      2.00000
     44       1.1161      2.00000
     45       1.2555      2.00000
     46       1.3268      2.00000
     47       1.4030      2.00000
     48       1.6369      2.00000
     49       1.8183      2.00000
     50       1.9065      2.00000
     51       2.1913      2.00000
     52       2.4367      2.00000
     53       2.7115      2.00000
     54       2.8116      2.00000
     55       4.8770      0.00000
     56       5.2883      0.00000
     57       6.1106      0.00000
     58       6.8289      0.00000
     59       7.2431      0.00000
     60       7.5136      0.00000
     61       7.9135      0.00000
     62       8.1441      0.00000
     63       8.7388      0.00000
     64       9.0347      0.00000
     65       9.4409      0.00000
     66       9.7809      0.00000
     67       9.9244      0.00000
     68      10.1328      0.00000
     69      10.3467      0.00000
     70      10.5678      0.00000
     71      10.6208      0.00000
     72      10.9666      0.00000
     73      11.7642      0.00000
     74      12.2290      0.00000
     75      12.7545      0.00000
     76      12.9614      0.00000
     77      13.1554      0.00000
     78      13.7022      0.00000
     79      13.9108      0.00000
     80      14.1019      0.00000
     81      14.4927      0.00000
     82      14.9185      0.00000
     83      15.0105      0.00000
     84      15.2482      0.00000
     85      15.4569      0.00000
     86      15.9518      0.00000
     87      16.0680      0.00000
     88      16.5202      0.00000
     89      16.6969      0.00000
     90      16.8099      0.00000
     91      17.2041      0.00000
     92      17.3960      0.00000
     93      17.5987      0.00000
     94      17.8407      0.00000
     95      18.0679      0.00000
     96      18.2598      0.00000
     97      18.3978      0.00000
     98      18.5514      0.00000
     99      18.7425      0.00000
    100      19.0349      0.00000
    101      19.1730      0.00000
    102      19.3668      0.00000
    103      19.5190      0.00000
    104      19.6811      0.00000
    105      20.0285      0.00000
    106      20.1341      0.00000
    107      20.2867      0.00000
    108      20.6435      0.00000
    109      20.9170      0.00000
    110      21.3867      0.00000
    111      21.5998      0.00000
    112      21.8337      0.00000
    113      21.9201      0.00000
    114      22.2361      0.00000
    115      22.3954      0.00000
    116      22.6159      0.00000
    117      22.9881      0.00000
    118      23.0766      0.00000
    119      23.2976      0.00000
    120      23.5814      0.00000
    121      23.8689      0.00000
    122      23.9898      0.00000
    123      24.4159      0.00000
    124      24.6951      0.00000
    125      24.9054      0.00000
    126      25.0089      0.00000
    127      25.2409      0.00000
    128      25.3182      0.00000
    129      25.7169      0.00000
    130      26.0284      0.00000
    131      26.2526      0.00000
    132      26.4647      0.00000
    133      26.6312      0.00000
    134      26.6981      0.00000
    135      26.8700      0.00000
    136      27.0411      0.00000
    137      27.1077      0.00000
    138      27.2384      0.00000
    139      27.4489      0.00000
    140      27.6663      0.00000
    141      27.8021      0.00000

 k-point   128 :       0.5000    0.0000    0.3667
  band No.  band energies     occupation 
      1     -25.4506      2.00000
      2     -25.4486      2.00000
      3     -25.4369      2.00000
      4     -25.4366      2.00000
      5     -25.4072      2.00000
      6     -25.4070      2.00000
      7     -25.3847      2.00000
      8     -25.3844      2.00000
      9     -25.3793      2.00000
     10     -25.3789      2.00000
     11     -12.3823      2.00000
     12     -11.9990      2.00000
     13     -11.3355      2.00000
     14     -11.1909      2.00000
     15     -11.0756      2.00000
     16     -10.8958      2.00000
     17      -6.0563      2.00000
     18      -5.6183      2.00000
     19      -2.7524      2.00000
     20      -2.1945      2.00000
     21      -2.1526      2.00000
     22      -1.8297      2.00000
     23      -1.5936      2.00000
     24      -1.2385      2.00000
     25      -1.1490      2.00000
     26      -1.0229      2.00000
     27      -0.8591      2.00000
     28      -0.7041      2.00000
     29      -0.6889      2.00000
     30      -0.5553      2.00000
     31      -0.5256      2.00000
     32      -0.4986      2.00000
     33      -0.4483      2.00000
     34      -0.3808      2.00000
     35       0.4312      2.00000
     36       0.5066      2.00000
     37       0.5856      2.00000
     38       0.6018      2.00000
     39       0.6148      2.00000
     40       0.6548      2.00000
     41       0.6862      2.00000
     42       0.7495      2.00000
     43       0.9454      2.00000
     44       1.1067      2.00000
     45       1.2597      2.00000
     46       1.3278      2.00000
     47       1.4045      2.00000
     48       1.6248      2.00000
     49       1.7929      2.00000
     50       1.8849      2.00000
     51       2.1887      2.00000
     52       2.4157      2.00000
     53       2.7182      2.00000
     54       2.8381      2.00000
     55       4.9115      0.00000
     56       5.3027      0.00000
     57       6.1301      0.00000
     58       6.8349      0.00000
     59       7.2513      0.00000
     60       7.5321      0.00000
     61       7.9095      0.00000
     62       8.1608      0.00000
     63       8.7407      0.00000
     64       9.0419      0.00000
     65       9.4388      0.00000
     66       9.7792      0.00000
     67       9.9438      0.00000
     68      10.1101      0.00000
     69      10.3394      0.00000
     70      10.5859      0.00000
     71      10.6529      0.00000
     72      10.9736      0.00000
     73      11.7853      0.00000
     74      12.2258      0.00000
     75      12.7214      0.00000
     76      12.9380      0.00000
     77      13.1368      0.00000
     78      13.6750      0.00000
     79      13.8784      0.00000
     80      14.0991      0.00000
     81      14.4172      0.00000
     82      14.8749      0.00000
     83      15.0084      0.00000
     84      15.2161      0.00000
     85      15.4363      0.00000
     86      15.9668      0.00000
     87      16.0655      0.00000
     88      16.5059      0.00000
     89      16.7034      0.00000
     90      16.8281      0.00000
     91      17.2019      0.00000
     92      17.3591      0.00000
     93      17.6255      0.00000
     94      17.7808      0.00000
     95      18.0298      0.00000
     96      18.2595      0.00000
     97      18.4185      0.00000
     98      18.5666      0.00000
     99      18.7900      0.00000
    100      19.0144      0.00000
    101      19.1905      0.00000
    102      19.3784      0.00000
    103      19.5329      0.00000
    104      19.7267      0.00000
    105      20.0150      0.00000
    106      20.1623      0.00000
    107      20.3504      0.00000
    108      20.6088      0.00000
    109      20.9630      0.00000
    110      21.4485      0.00000
    111      21.6433      0.00000
    112      21.8683      0.00000
    113      21.9433      0.00000
    114      22.2110      0.00000
    115      22.3626      0.00000
    116      22.6988      0.00000
    117      22.9640      0.00000
    118      23.0681      0.00000
    119      23.2181      0.00000
    120      23.6273      0.00000
    121      23.8708      0.00000
    122      24.0371      0.00000
    123      24.4244      0.00000
    124      24.6464      0.00000
    125      24.8472      0.00000
    126      24.9602      0.00000
    127      25.2909      0.00000
    128      25.3834      0.00000
    129      25.7432      0.00000
    130      25.9391      0.00000
    131      26.1608      0.00000
    132      26.4357      0.00000
    133      26.6077      0.00000
    134      26.7628      0.00000
    135      26.8469      0.00000
    136      27.0284      0.00000
    137      27.1292      0.00000
    138      27.2930      0.00000
    139      27.4311      0.00000
    140      27.6645      0.00000
    141      27.8522      0.00000

 k-point   129 :       0.5000    0.0000    0.3500
  band No.  band energies     occupation 
      1     -25.4507      2.00000
      2     -25.4484      2.00000
      3     -25.4369      2.00000
      4     -25.4365      2.00000
      5     -25.4072      2.00000
      6     -25.4070      2.00000
      7     -25.3846      2.00000
      8     -25.3843      2.00000
      9     -25.3792      2.00000
     10     -25.3788      2.00000
     11     -12.4005      2.00000
     12     -11.9738      2.00000
     13     -11.3462      2.00000
     14     -11.1884      2.00000
     15     -11.0706      2.00000
     16     -10.8968      2.00000
     17      -6.0804      2.00000
     18      -5.5902      2.00000
     19      -2.7441      2.00000
     20      -2.2052      2.00000
     21      -2.1542      2.00000
     22      -1.8243      2.00000
     23      -1.5980      2.00000
     24      -1.2357      2.00000
     25      -1.1534      2.00000
     26      -1.0210      2.00000
     27      -0.8578      2.00000
     28      -0.7045      2.00000
     29      -0.6928      2.00000
     30      -0.5545      2.00000
     31      -0.5270      2.00000
     32      -0.4997      2.00000
     33      -0.4501      2.00000
     34      -0.3830      2.00000
     35       0.4328      2.00000
     36       0.5086      2.00000
     37       0.5864      2.00000
     38       0.5990      2.00000
     39       0.6160      2.00000
     40       0.6548      2.00000
     41       0.6838      2.00000
     42       0.7523      2.00000
     43       0.9531      2.00000
     44       1.0970      2.00000
     45       1.2638      2.00000
     46       1.3274      2.00000
     47       1.4070      2.00000
     48       1.6104      2.00000
     49       1.7664      2.00000
     50       1.8686      2.00000
     51       2.1858      2.00000
     52       2.3907      2.00000
     53       2.7159      2.00000
     54       2.8744      2.00000
     55       4.9456      0.00000
     56       5.3197      0.00000
     57       6.1518      0.00000
     58       6.8411      0.00000
     59       7.2608      0.00000
     60       7.5514      0.00000
     61       7.9083      0.00000
     62       8.1799      0.00000
     63       8.7441      0.00000
     64       9.0471      0.00000
     65       9.4389      0.00000
     66       9.7740      0.00000
     67       9.9590      0.00000
     68      10.0974      0.00000
     69      10.3306      0.00000
     70      10.6045      0.00000
     71      10.6892      0.00000
     72      10.9751      0.00000
     73      11.8102      0.00000
     74      12.2207      0.00000
     75      12.6854      0.00000
     76      12.9148      0.00000
     77      13.1219      0.00000
     78      13.6367      0.00000
     79      13.8446      0.00000
     80      14.0939      0.00000
     81      14.3365      0.00000
     82      14.8182      0.00000
     83      15.0104      0.00000
     84      15.1805      0.00000
     85      15.4253      0.00000
     86      15.9845      0.00000
     87      16.0671      0.00000
     88      16.4721      0.00000
     89      16.7097      0.00000
     90      16.8718      0.00000
     91      17.1903      0.00000
     92      17.3208      0.00000
     93      17.6730      0.00000
     94      17.7175      0.00000
     95      17.9844      0.00000
     96      18.2286      0.00000
     97      18.4472      0.00000
     98      18.5966      0.00000
     99      18.8436      0.00000
    100      18.9872      0.00000
    101      19.1871      0.00000
    102      19.3538      0.00000
    103      19.5753      0.00000
    104      19.7821      0.00000
    105      20.0051      0.00000
    106      20.2062      0.00000
    107      20.3995      0.00000
    108      20.5885      0.00000
    109      21.0316      0.00000
    110      21.5110      0.00000
    111      21.6945      0.00000
    112      21.8674      0.00000
    113      22.0052      0.00000
    114      22.1764      0.00000
    115      22.3601      0.00000
    116      22.7791      0.00000
    117      22.8894      0.00000
    118      23.0084      0.00000
    119      23.2378      0.00000
    120      23.6554      0.00000
    121      23.7766      0.00000
    122      24.1868      0.00000
    123      24.4322      0.00000
    124      24.5982      0.00000
    125      24.7904      0.00000
    126      24.9224      0.00000
    127      25.3114      0.00000
    128      25.4675      0.00000
    129      25.7486      0.00000
    130      25.9049      0.00000
    131      26.0583      0.00000
    132      26.3912      0.00000
    133      26.5429      0.00000
    134      26.7646      0.00000
    135      26.8483      0.00000
    136      27.0108      0.00000
    137      27.1696      0.00000
    138      27.3529      0.00000
    139      27.4661      0.00000
    140      27.6411      0.00000
    141      27.8196      0.00000

 k-point   130 :       0.5000    0.0000    0.3333
  band No.  band energies     occupation 
      1     -25.4507      2.00000
      2     -25.4482      2.00000
      3     -25.4368      2.00000
      4     -25.4365      2.00000
      5     -25.4071      2.00000
      6     -25.4069      2.00000
      7     -25.3846      2.00000
      8     -25.3842      2.00000
      9     -25.3792      2.00000
     10     -25.3788      2.00000
     11     -12.4181      2.00000
     12     -11.9485      2.00000
     13     -11.3568      2.00000
     14     -11.1865      2.00000
     15     -11.0657      2.00000
     16     -10.8977      2.00000
     17      -6.1038      2.00000
     18      -5.5623      2.00000
     19      -2.7352      2.00000
     20      -2.2176      2.00000
     21      -2.1548      2.00000
     22      -1.8183      2.00000
     23      -1.5993      2.00000
     24      -1.2412      2.00000
     25      -1.1536      2.00000
     26      -1.0193      2.00000
     27      -0.8567      2.00000
     28      -0.7057      2.00000
     29      -0.6963      2.00000
     30      -0.5545      2.00000
     31      -0.5281      2.00000
     32      -0.5009      2.00000
     33      -0.4516      2.00000
     34      -0.3851      2.00000
     35       0.4353      2.00000
     36       0.5102      2.00000
     37       0.5853      2.00000
     38       0.5975      2.00000
     39       0.6182      2.00000
     40       0.6547      2.00000
     41       0.6818      2.00000
     42       0.7549      2.00000
     43       0.9589      2.00000
     44       1.0882      2.00000
     45       1.2671      2.00000
     46       1.3260      2.00000
     47       1.4099      2.00000
     48       1.5948      2.00000
     49       1.7424      2.00000
     50       1.8549      2.00000
     51       2.1826      2.00000
     52       2.3637      2.00000
     53       2.7087      2.00000
     54       2.9146      2.00000
     55       4.9781      0.00000
     56       5.3396      0.00000
     57       6.1755      0.00000
     58       6.8476      0.00000
     59       7.2717      0.00000
     60       7.5708      0.00000
     61       7.9105      0.00000
     62       8.2012      0.00000
     63       8.7493      0.00000
     64       9.0498      0.00000
     65       9.4419      0.00000
     66       9.7664      0.00000
     67       9.9611      0.00000
     68      10.1026      0.00000
     69      10.3205      0.00000
     70      10.6219      0.00000
     71      10.7279      0.00000
     72      10.9750      0.00000
     73      11.8336      0.00000
     74      12.2169      0.00000
     75      12.6499      0.00000
     76      12.8899      0.00000
     77      13.1090      0.00000
     78      13.5888      0.00000
     79      13.8098      0.00000
     80      14.0850      0.00000
     81      14.2532      0.00000
     82      14.7530      0.00000
     83      15.0133      0.00000
     84      15.1448      0.00000
     85      15.4207      0.00000
     86      15.9970      0.00000
     87      16.0805      0.00000
     88      16.4340      0.00000
     89      16.7130      0.00000
     90      16.9209      0.00000
     91      17.1734      0.00000
     92      17.2871      0.00000
     93      17.6513      0.00000
     94      17.7342      0.00000
     95      17.9448      0.00000
     96      18.1894      0.00000
     97      18.4596      0.00000
     98      18.6305      0.00000
     99      18.8861      0.00000
    100      18.9690      0.00000
    101      19.1824      0.00000
    102      19.3034      0.00000
    103      19.6282      0.00000
    104      19.8172      0.00000
    105      20.0018      0.00000
    106      20.2798      0.00000
    107      20.4283      0.00000
    108      20.6088      0.00000
    109      21.1155      0.00000
    110      21.5611      0.00000
    111      21.7077      0.00000
    112      21.8983      0.00000
    113      22.0509      0.00000
    114      22.1860      0.00000
    115      22.3727      0.00000
    116      22.7260      0.00000
    117      22.8692      0.00000
    118      22.9925      0.00000
    119      23.2815      0.00000
    120      23.6086      0.00000
    121      23.7669      0.00000
    122      24.2870      0.00000
    123      24.4457      0.00000
    124      24.5643      0.00000
    125      24.7375      0.00000
    126      24.9054      0.00000
    127      25.3292      0.00000
    128      25.5289      0.00000
    129      25.7067      0.00000
    130      25.9193      0.00000
    131      25.9853      0.00000
    132      26.3320      0.00000
    133      26.4777      0.00000
    134      26.7329      0.00000
    135      26.8376      0.00000
    136      26.9944      0.00000
    137      27.2380      0.00000
    138      27.3684      0.00000
    139      27.5270      0.00000
    140      27.6617      0.00000
    141      27.8765      0.00000

 k-point   131 :       0.5000    0.0000    0.3167
  band No.  band energies     occupation 
      1     -25.4507      2.00000
      2     -25.4480      2.00000
      3     -25.4368      2.00000
      4     -25.4364      2.00000
      5     -25.4070      2.00000
      6     -25.4068      2.00000
      7     -25.3845      2.00000
      8     -25.3841      2.00000
      9     -25.3791      2.00000
     10     -25.3787      2.00000
     11     -12.4350      2.00000
     12     -11.9234      2.00000
     13     -11.3672      2.00000
     14     -11.1851      2.00000
     15     -11.0610      2.00000
     16     -10.8986      2.00000
     17      -6.1264      2.00000
     18      -5.5348      2.00000
     19      -2.7257      2.00000
     20      -2.2313      2.00000
     21      -2.1545      2.00000
     22      -1.8116      2.00000
     23      -1.5978      2.00000
     24      -1.2528      2.00000
     25      -1.1517      2.00000
     26      -1.0178      2.00000
     27      -0.8560      2.00000
     28      -0.7092      2.00000
     29      -0.6980      2.00000
     30      -0.5555      2.00000
     31      -0.5288      2.00000
     32      -0.5022      2.00000
     33      -0.4527      2.00000
     34      -0.3869      2.00000
     35       0.4386      2.00000
     36       0.5113      2.00000
     37       0.5816      2.00000
     38       0.5986      2.00000
     39       0.6208      2.00000
     40       0.6546      2.00000
     41       0.6802      2.00000
     42       0.7575      2.00000
     43       0.9617      2.00000
     44       1.0812      2.00000
     45       1.2683      2.00000
     46       1.3239      2.00000
     47       1.4119      2.00000
     48       1.5801      2.00000
     49       1.7228      2.00000
     50       1.8422      2.00000
     51       2.1790      2.00000
     52       2.3364      2.00000
     53       2.6988      2.00000
     54       2.9553      2.00000
     55       5.0077      0.00000
     56       5.3626      0.00000
     57       6.2012      0.00000
     58       6.8543      0.00000
     59       7.2841      0.00000
     60       7.5889      0.00000
     61       7.9173      0.00000
     62       8.2246      0.00000
     63       8.7563      0.00000
     64       9.0499      0.00000
     65       9.4485      0.00000
     66       9.7572      0.00000
     67       9.9493      0.00000
     68      10.1252      0.00000
     69      10.3096      0.00000
     70      10.6357      0.00000
     71      10.7667      0.00000
     72      10.9787      0.00000
     73      11.8477      0.00000
     74      12.2204      0.00000
     75      12.6155      0.00000
     76      12.8636      0.00000
     77      13.0963      0.00000
     78      13.5330      0.00000
     79      13.7735      0.00000
     80      14.0685      0.00000
     81      14.1737      0.00000
     82      14.6827      0.00000
     83      15.0158      0.00000
     84      15.1117      0.00000
     85      15.4199      0.00000
     86      15.9987      0.00000
     87      16.1092      0.00000
     88      16.3994      0.00000
     89      16.7162      0.00000
     90      16.9501      0.00000
     91      17.1502      0.00000
     92      17.2793      0.00000
     93      17.5842      0.00000
     94      17.7885      0.00000
     95      17.9317      0.00000
     96      18.1446      0.00000
     97      18.4610      0.00000
     98      18.6482      0.00000
     99      18.9124      0.00000
    100      18.9505      0.00000
    101      19.1673      0.00000
    102      19.2825      0.00000
    103      19.6706      0.00000
    104      19.8248      0.00000
    105      20.0013      0.00000
    106      20.3827      0.00000
    107      20.4542      0.00000
    108      20.6657      0.00000
    109      21.2144      0.00000
    110      21.5644      0.00000
    111      21.6955      0.00000
    112      21.9588      0.00000
    113      22.0927      0.00000
    114      22.2394      0.00000
    115      22.3923      0.00000
    116      22.5882      0.00000
    117      22.8735      0.00000
    118      23.0293      0.00000
    119      23.3282      0.00000
    120      23.5176      0.00000
    121      23.8191      0.00000
    122      24.2963      0.00000
    123      24.4522      0.00000
    124      24.5732      0.00000
    125      24.6935      0.00000
    126      24.9253      0.00000
    127      25.3436      0.00000
    128      25.5483      0.00000
    129      25.6654      0.00000
    130      25.8547      0.00000
    131      26.0151      0.00000
    132      26.2749      0.00000
    133      26.4327      0.00000
    134      26.6961      0.00000
    135      26.8220      0.00000
    136      26.9802      0.00000
    137      27.2841      0.00000
    138      27.3870      0.00000
    139      27.5651      0.00000
    140      27.7305      0.00000
    141      27.8894      0.00000

 k-point   132 :       0.5000    0.0000    0.3000
  band No.  band energies     occupation 
      1     -25.4508      2.00000
      2     -25.4478      2.00000
      3     -25.4367      2.00000
      4     -25.4363      2.00000
      5     -25.4070      2.00000
      6     -25.4067      2.00000
      7     -25.3844      2.00000
      8     -25.3840      2.00000
      9     -25.3790      2.00000
     10     -25.3786      2.00000
     11     -12.4512      2.00000
     12     -11.8984      2.00000
     13     -11.3772      2.00000
     14     -11.1842      2.00000
     15     -11.0564      2.00000
     16     -10.8994      2.00000
     17      -6.1484      2.00000
     18      -5.5077      2.00000
     19      -2.7159      2.00000
     20      -2.2458      2.00000
     21      -2.1534      2.00000
     22      -1.8044      2.00000
     23      -1.5941      2.00000
     24      -1.2675      2.00000
     25      -1.1496      2.00000
     26      -1.0168      2.00000
     27      -0.8561      2.00000
     28      -0.7149      2.00000
     29      -0.6981      2.00000
     30      -0.5575      2.00000
     31      -0.5291      2.00000
     32      -0.5038      2.00000
     33      -0.4530      2.00000
     34      -0.3883      2.00000
     35       0.4429      2.00000
     36       0.5119      2.00000
     37       0.5769      2.00000
     38       0.6010      2.00000
     39       0.6234      2.00000
     40       0.6545      2.00000
     41       0.6791      2.00000
     42       0.7598      2.00000
     43       0.9606      2.00000
     44       1.0771      2.00000
     45       1.2665      2.00000
     46       1.3212      2.00000
     47       1.4117      2.00000
     48       1.5690      2.00000
     49       1.7082      2.00000
     50       1.8294      2.00000
     51       2.1752      2.00000
     52       2.3097      2.00000
     53       2.6875      2.00000
     54       2.9946      2.00000
     55       5.0336      0.00000
     56       5.3889      0.00000
     57       6.2286      0.00000
     58       6.8612      0.00000
     59       7.2981      0.00000
     60       7.6046      0.00000
     61       7.9293      0.00000
     62       8.2497      0.00000
     63       8.7653      0.00000
     64       9.0475      0.00000
     65       9.4588      0.00000
     66       9.7476      0.00000
     67       9.9305      0.00000
     68      10.1565      0.00000
     69      10.2993      0.00000
     70      10.6432      0.00000
     71      10.8029      0.00000
     72      10.9920      0.00000
     73      11.8454      0.00000
     74      12.2374      0.00000
     75      12.5796      0.00000
     76      12.8398      0.00000
     77      13.0811      0.00000
     78      13.4712      0.00000
     79      13.7332      0.00000
     80      14.0327      0.00000
     81      14.1141      0.00000
     82      14.6099      0.00000
     83      15.0159      0.00000
     84      15.0846      0.00000
     85      15.4208      0.00000
     86      15.9931      0.00000
     87      16.1440      0.00000
     88      16.3740      0.00000
     89      16.7199      0.00000
     90      16.9452      0.00000
     91      17.1181      0.00000
     92      17.3126      0.00000
     93      17.5189      0.00000
     94      17.8106      0.00000
     95      17.9676      0.00000
     96      18.0942      0.00000
     97      18.4572      0.00000
     98      18.6457      0.00000
     99      18.8938      0.00000
    100      18.9537      0.00000
    101      19.1142      0.00000
    102      19.3339      0.00000
    103      19.6936      0.00000
    104      19.8178      0.00000
    105      20.0024      0.00000
    106      20.4600      0.00000
    107      20.5333      0.00000
    108      20.7470      0.00000
    109      21.3232      0.00000
    110      21.5064      0.00000
    111      21.7065      0.00000
    112      21.9923      0.00000
    113      22.1714      0.00000
    114      22.2811      0.00000
    115      22.4045      0.00000
    116      22.5048      0.00000
    117      22.8474      0.00000
    118      23.0754      0.00000
    119      23.3748      0.00000
    120      23.4434      0.00000
    121      23.8775      0.00000
    122      24.2559      0.00000
    123      24.4402      0.00000
    124      24.5848      0.00000
    125      24.6612      0.00000
    126      24.9950      0.00000
    127      25.3525      0.00000
    128      25.5082      0.00000
    129      25.6308      0.00000
    130      25.8219      0.00000
    131      26.0077      0.00000
    132      26.2592      0.00000
    133      26.4086      0.00000
    134      26.6662      0.00000
    135      26.8179      0.00000
    136      26.9701      0.00000
    137      27.2999      0.00000
    138      27.3988      0.00000
    139      27.6226      0.00000
    140      27.7961      0.00000
    141      27.9058      0.00000

 k-point   133 :       0.5000    0.0000    0.2833
  band No.  band energies     occupation 
      1     -25.4508      2.00000
      2     -25.4476      2.00000
      3     -25.4366      2.00000
      4     -25.4362      2.00000
      5     -25.4069      2.00000
      6     -25.4066      2.00000
      7     -25.3844      2.00000
      8     -25.3839      2.00000
      9     -25.3790      2.00000
     10     -25.3785      2.00000
     11     -12.4667      2.00000
     12     -11.8738      2.00000
     13     -11.3868      2.00000
     14     -11.1839      2.00000
     15     -11.0520      2.00000
     16     -10.9003      2.00000
     17      -6.1695      2.00000
     18      -5.4812      2.00000
     19      -2.7060      2.00000
     20      -2.2607      2.00000
     21      -2.1516      2.00000
     22      -1.7966      2.00000
     23      -1.5886      2.00000
     24      -1.2836      2.00000
     25      -1.1483      2.00000
     26      -1.0165      2.00000
     27      -0.8571      2.00000
     28      -0.7220      2.00000
     29      -0.6973      2.00000
     30      -0.5605      2.00000
     31      -0.5291      2.00000
     32      -0.5057      2.00000
     33      -0.4526      2.00000
     34      -0.3892      2.00000
     35       0.4479      2.00000
     36       0.5119      2.00000
     37       0.5720      2.00000
     38       0.6041      2.00000
     39       0.6257      2.00000
     40       0.6545      2.00000
     41       0.6785      2.00000
     42       0.7619      2.00000
     43       0.9555      2.00000
     44       1.0757      2.00000
     45       1.2612      2.00000
     46       1.3175      2.00000
     47       1.4094      2.00000
     48       1.5628      2.00000
     49       1.6990      2.00000
     50       1.8162      2.00000
     51       2.1711      2.00000
     52       2.2846      2.00000
     53       2.6753      2.00000
     54       3.0314      2.00000
     55       5.0554      0.00000
     56       5.4180      0.00000
     57       6.2577      0.00000
     58       6.8686      0.00000
     59       7.3138      0.00000
     60       7.6165      0.00000
     61       7.9475      0.00000
     62       8.2763      0.00000
     63       8.7757      0.00000
     64       9.0437      0.00000
     65       9.4722      0.00000
     66       9.7390      0.00000
     67       9.9094      0.00000
     68      10.1872      0.00000
     69      10.2929      0.00000
     70      10.6429      0.00000
     71      10.8358      0.00000
     72      11.0178      0.00000
     73      11.8247      0.00000
     74      12.2698      0.00000
     75      12.5382      0.00000
     76      12.8233      0.00000
     77      13.0606      0.00000
     78      13.4055      0.00000
     79      13.6843      0.00000
     80      13.9748      0.00000
     81      14.0831      0.00000
     82      14.5375      0.00000
     83      15.0084      0.00000
     84      15.0696      0.00000
     85      15.4223      0.00000
     86      15.9834      0.00000
     87      16.1710      0.00000
     88      16.3656      0.00000
     89      16.7234      0.00000
     90      16.9150      0.00000
     91      17.0825      0.00000
     92      17.3651      0.00000
     93      17.4693      0.00000
     94      17.8103      0.00000
     95      18.0112      0.00000
     96      18.0625      0.00000
     97      18.4503      0.00000
     98      18.6249      0.00000
     99      18.8480      0.00000
    100      18.9646      0.00000
    101      19.0670      0.00000
    102      19.4119      0.00000
    103      19.6979      0.00000
    104      19.8063      0.00000
    105      20.0065      0.00000
    106      20.5085      0.00000
    107      20.6586      0.00000
    108      20.8440      0.00000
    109      21.3947      0.00000
    110      21.4752      0.00000
    111      21.7111      0.00000
    112      22.0043      0.00000
    113      22.1970      0.00000
    114      22.3232      0.00000
    115      22.4053      0.00000
    116      22.5401      0.00000
    117      22.8125      0.00000
    118      23.1034      0.00000
    119      23.3397      0.00000
    120      23.4805      0.00000
    121      23.9190      0.00000
    122      24.2055      0.00000
    123      24.4315      0.00000
    124      24.5814      0.00000
    125      24.6368      0.00000
    126      25.0822      0.00000
    127      25.3427      0.00000
    128      25.4519      0.00000
    129      25.5838      0.00000
    130      25.8269      0.00000
    131      25.9570      0.00000
    132      26.2830      0.00000
    133      26.3992      0.00000
    134      26.6396      0.00000
    135      26.8380      0.00000
    136      26.9725      0.00000
    137      27.3020      0.00000
    138      27.4073      0.00000
    139      27.6706      0.00000
    140      27.8443      0.00000
    141      27.9211      0.00000

 k-point   134 :       0.5000    0.0000    0.2667
  band No.  band energies     occupation 
      1     -25.4508      2.00000
      2     -25.4474      2.00000
      3     -25.4366      2.00000
      4     -25.4361      2.00000
      5     -25.4068      2.00000
      6     -25.4065      2.00000
      7     -25.3843      2.00000
      8     -25.3838      2.00000
      9     -25.3789      2.00000
     10     -25.3783      2.00000
     11     -12.4813      2.00000
     12     -11.8495      2.00000
     13     -11.3959      2.00000
     14     -11.1843      2.00000
     15     -11.0478      2.00000
     16     -10.9011      2.00000
     17      -6.1898      2.00000
     18      -5.4553      2.00000
     19      -2.6960      2.00000
     20      -2.2754      2.00000
     21      -2.1492      2.00000
     22      -1.7885      2.00000
     23      -1.5816      2.00000
     24      -1.2999      2.00000
     25      -1.1483      2.00000
     26      -1.0171      2.00000
     27      -0.8593      2.00000
     28      -0.7300      2.00000
     29      -0.6964      2.00000
     30      -0.5641      2.00000
     31      -0.5293      2.00000
     32      -0.5079      2.00000
     33      -0.4512      2.00000
     34      -0.3895      2.00000
     35       0.4535      2.00000
     36       0.5114      2.00000
     37       0.5672      2.00000
     38       0.6075      2.00000
     39       0.6277      2.00000
     40       0.6543      2.00000
     41       0.6785      2.00000
     42       0.7637      2.00000
     43       0.9473      2.00000
     44       1.0761      2.00000
     45       1.2524      2.00000
     46       1.3121      2.00000
     47       1.4064      2.00000
     48       1.5611      2.00000
     49       1.6959      2.00000
     50       1.8021      2.00000
     51       2.1670      2.00000
     52       2.2617      2.00000
     53       2.6626      2.00000
     54       3.0649      2.00000
     55       5.0731      0.00000
     56       5.4495      0.00000
     57       6.2883      0.00000
     58       6.8765      0.00000
     59       7.3309      0.00000
     60       7.6238      0.00000
     61       7.9719      0.00000
     62       8.3037      0.00000
     63       8.7866      0.00000
     64       9.0401      0.00000
     65       9.4872      0.00000
     66       9.7336      0.00000
     67       9.8883      0.00000
     68      10.2071      0.00000
     69      10.2977      0.00000
     70      10.6354      0.00000
     71      10.8667      0.00000
     72      11.0537      0.00000
     73      11.7897      0.00000
     74      12.3137      0.00000
     75      12.4897      0.00000
     76      12.8169      0.00000
     77      13.0328      0.00000
     78      13.3376      0.00000
     79      13.6224      0.00000
     80      13.9185      0.00000
     81      14.0630      0.00000
     82      14.4683      0.00000
     83      14.9909      0.00000
     84      15.0690      0.00000
     85      15.4236      0.00000
     86      15.9705      0.00000
     87      16.1792      0.00000
     88      16.3793      0.00000
     89      16.7244      0.00000
     90      16.8774      0.00000
     91      17.0455      0.00000
     92      17.3783      0.00000
     93      17.4804      0.00000
     94      17.8056      0.00000
     95      17.9616      0.00000
     96      18.1264      0.00000
     97      18.4399      0.00000
     98      18.5856      0.00000
     99      18.8145      0.00000
    100      18.9417      0.00000
    101      19.0612      0.00000
    102      19.4885      0.00000
    103      19.6916      0.00000
    104      19.7934      0.00000
    105      20.0142      0.00000
    106      20.5679      0.00000
    107      20.7751      0.00000
    108      20.9449      0.00000
    109      21.3432      0.00000
    110      21.5743      0.00000
    111      21.6975      0.00000
    112      21.9941      0.00000
    113      22.1729      0.00000
    114      22.3765      0.00000
    115      22.4570      0.00000
    116      22.6107      0.00000
    117      22.7781      0.00000
    118      23.1213      0.00000
    119      23.2821      0.00000
    120      23.5636      0.00000
    121      23.9219      0.00000
    122      24.1739      0.00000
    123      24.4205      0.00000
    124      24.5687      0.00000
    125      24.6466      0.00000
    126      25.1275      0.00000
    127      25.2916      0.00000
    128      25.4484      0.00000
    129      25.5341      0.00000
    130      25.8254      0.00000
    131      25.9159      0.00000
    132      26.3092      0.00000
    133      26.4092      0.00000
    134      26.6096      0.00000
    135      26.8706      0.00000
    136      27.0037      0.00000
    137      27.2999      0.00000
    138      27.4221      0.00000
    139      27.6827      0.00000
    140      27.8493      0.00000
    141      27.9895      0.00000

 k-point   135 :       0.5000    0.0000    0.2500
  band No.  band energies     occupation 
      1     -25.4507      2.00000
      2     -25.4472      2.00000
      3     -25.4365      2.00000
      4     -25.4360      2.00000
      5     -25.4067      2.00000
      6     -25.4064      2.00000
      7     -25.3842      2.00000
      8     -25.3837      2.00000
      9     -25.3788      2.00000
     10     -25.3782      2.00000
     11     -12.4952      2.00000
     12     -11.8259      2.00000
     13     -11.4043      2.00000
     14     -11.1855      2.00000
     15     -11.0436      2.00000
     16     -10.9020      2.00000
     17      -6.2092      2.00000
     18      -5.4301      2.00000
     19      -2.6861      2.00000
     20      -2.2898      2.00000
     21      -2.1463      2.00000
     22      -1.7801      2.00000
     23      -1.5735      2.00000
     24      -1.3158      2.00000
     25      -1.1493      2.00000
     26      -1.0188      2.00000
     27      -0.8627      2.00000
     28      -0.7386      2.00000
     29      -0.6953      2.00000
     30      -0.5682      2.00000
     31      -0.5298      2.00000
     32      -0.5104      2.00000
     33      -0.4491      2.00000
     34      -0.3891      2.00000
     35       0.4595      2.00000
     36       0.5104      2.00000
     37       0.5629      2.00000
     38       0.6112      2.00000
     39       0.6293      2.00000
     40       0.6542      2.00000
     41       0.6789      2.00000
     42       0.7651      2.00000
     43       0.9373      2.00000
     44       1.0769      2.00000
     45       1.2406      2.00000
     46       1.3046      2.00000
     47       1.4048      2.00000
     48       1.5616      2.00000
     49       1.6992      2.00000
     50       1.7873      2.00000
     51       2.1630      2.00000
     52       2.2415      2.00000
     53       2.6494      2.00000
     54       3.0944      2.00000
     55       5.0870      0.00000
     56       5.4826      0.00000
     57       6.3202      0.00000
     58       6.8851      0.00000
     59       7.3493      0.00000
     60       7.6266      0.00000
     61       8.0025      0.00000
     62       8.3313      0.00000
     63       8.7967      0.00000
     64       9.0390      0.00000
     65       9.5010      0.00000
     66       9.7344      0.00000
     67       9.8679      0.00000
     68      10.2099      0.00000
     69      10.3172      0.00000
     70      10.6240      0.00000
     71      10.8975      0.00000
     72      11.0943      0.00000
     73      11.7461      0.00000
     74      12.3603      0.00000
     75      12.4387      0.00000
     76      12.8186      0.00000
     77      12.9972      0.00000
     78      13.2694      0.00000
     79      13.5479      0.00000
     80      13.8728      0.00000
     81      14.0463      0.00000
     82      14.4047      0.00000
     83      14.9691      0.00000
     84      15.0768      0.00000
     85      15.4243      0.00000
     86      15.9539      0.00000
     87      16.1707      0.00000
     88      16.4071      0.00000
     89      16.7181      0.00000
     90      16.8461      0.00000
     91      17.0104      0.00000
     92      17.3589      0.00000
     93      17.5353      0.00000
     94      17.7963      0.00000
     95      17.9019      0.00000
     96      18.1947      0.00000
     97      18.4231      0.00000
     98      18.5440      0.00000
     99      18.7901      0.00000
    100      18.9152      0.00000
    101      19.0798      0.00000
    102      19.5484      0.00000
    103      19.6848      0.00000
    104      19.7808      0.00000
    105      20.0249      0.00000
    106      20.6342      0.00000
    107      20.8633      0.00000
    108      21.0289      0.00000
    109      21.3093      0.00000
    110      21.6185      0.00000
    111      21.7379      0.00000
    112      21.9735      0.00000
    113      22.1822      0.00000
    114      22.4018      0.00000
    115      22.5252      0.00000
    116      22.6757      0.00000
    117      22.7556      0.00000
    118      23.1380      0.00000
    119      23.2482      0.00000
    120      23.6429      0.00000
    121      23.8840      0.00000
    122      24.1740      0.00000
    123      24.3986      0.00000
    124      24.5502      0.00000
    125      24.7038      0.00000
    126      25.0845      0.00000
    127      25.2596      0.00000
    128      25.4430      0.00000
    129      25.5232      0.00000
    130      25.8034      0.00000
    131      25.9070      0.00000
    132      26.3176      0.00000
    133      26.4440      0.00000
    134      26.5783      0.00000
    135      26.9002      0.00000
    136      27.0641      0.00000
    137      27.3023      0.00000
    138      27.4436      0.00000
    139      27.6658      0.00000
    140      27.8248      0.00000
    141      28.0439      0.00000

 k-point   136 :       0.5000    0.0000    0.2333
  band No.  band energies     occupation 
      1     -25.4507      2.00000
      2     -25.4470      2.00000
      3     -25.4364      2.00000
      4     -25.4360      2.00000
      5     -25.4066      2.00000
      6     -25.4063      2.00000
      7     -25.3841      2.00000
      8     -25.3836      2.00000
      9     -25.3787      2.00000
     10     -25.3781      2.00000
     11     -12.5082      2.00000
     12     -11.8029      2.00000
     13     -11.4121      2.00000
     14     -11.1874      2.00000
     15     -11.0394      2.00000
     16     -10.9029      2.00000
     17      -6.2277      2.00000
     18      -5.4058      2.00000
     19      -2.6766      2.00000
     20      -2.3033      2.00000
     21      -2.1430      2.00000
     22      -1.7716      2.00000
     23      -1.5647      2.00000
     24      -1.3305      2.00000
     25      -1.1511      2.00000
     26      -1.0218      2.00000
     27      -0.8674      2.00000
     28      -0.7476      2.00000
     29      -0.6943      2.00000
     30      -0.5725      2.00000
     31      -0.5310      2.00000
     32      -0.5131      2.00000
     33      -0.4464      2.00000
     34      -0.3880      2.00000
     35       0.4658      2.00000
     36       0.5089      2.00000
     37       0.5590      2.00000
     38       0.6149      2.00000
     39       0.6305      2.00000
     40       0.6538      2.00000
     41       0.6797      2.00000
     42       0.7661      2.00000
     43       0.9266      2.00000
     44       1.0765      2.00000
     45       1.2267      2.00000
     46       1.2958      2.00000
     47       1.4055      2.00000
     48       1.5621      2.00000
     49       1.7090      2.00000
     50       1.7719      2.00000
     51       2.1592      2.00000
     52       2.2245      2.00000
     53       2.6361      2.00000
     54       3.1194      2.00000
     55       5.0978      0.00000
     56       5.5164      0.00000
     57       6.3534      0.00000
     58       6.8946      0.00000
     59       7.3681      0.00000
     60       7.6255      0.00000
     61       8.0383      0.00000
     62       8.3581      0.00000
     63       8.8041      0.00000
     64       9.0434      0.00000
     65       9.5105      0.00000
     66       9.7444      0.00000
     67       9.8487      0.00000
     68      10.2025      0.00000
     69      10.3419      0.00000
     70      10.6134      0.00000
     71      10.9289      0.00000
     72      11.1337      0.00000
     73      11.6993      0.00000
     74      12.3597      0.00000
     75      12.4335      0.00000
     76      12.8206      0.00000
     77      12.9585      0.00000
     78      13.2016      0.00000
     79      13.4671      0.00000
     80      13.8332      0.00000
     81      14.0335      0.00000
     82      14.3487      0.00000
     83      14.9471      0.00000
     84      15.0882      0.00000
     85      15.4240      0.00000
     86      15.9335      0.00000
     87      16.1533      0.00000
     88      16.4349      0.00000
     89      16.7006      0.00000
     90      16.8231      0.00000
     91      16.9898      0.00000
     92      17.3471      0.00000
     93      17.5818      0.00000
     94      17.7689      0.00000
     95      17.8601      0.00000
     96      18.2321      0.00000
     97      18.4110      0.00000
     98      18.5275      0.00000
     99      18.7554      0.00000
    100      18.9179      0.00000
    101      19.1049      0.00000
    102      19.5806      0.00000
    103      19.6857      0.00000
    104      19.7708      0.00000
    105      20.0386      0.00000
    106      20.6817      0.00000
    107      20.9251      0.00000
    108      21.0585      0.00000
    109      21.3314      0.00000
    110      21.6146      0.00000
    111      21.8432      0.00000
    112      21.9656      0.00000
    113      22.2102      0.00000
    114      22.4205      0.00000
    115      22.5646      0.00000
    116      22.7224      0.00000
    117      22.7567      0.00000
    118      23.1299      0.00000
    119      23.2769      0.00000
    120      23.6993      0.00000
    121      23.8344      0.00000
    122      24.1945      0.00000
    123      24.3649      0.00000
    124      24.5493      0.00000
    125      24.7704      0.00000
    126      25.0134      0.00000
    127      25.2314      0.00000
    128      25.4065      0.00000
    129      25.5543      0.00000
    130      25.7895      0.00000
    131      25.9087      0.00000
    132      26.3144      0.00000
    133      26.4751      0.00000
    134      26.5581      0.00000
    135      26.9375      0.00000
    136      27.1236      0.00000
    137      27.3150      0.00000
    138      27.4694      0.00000
    139      27.6329      0.00000
    140      27.7856      0.00000
    141      27.9823      0.00000

 k-point   137 :       0.5000    0.0000    0.2167
  band No.  band energies     occupation 
      1     -25.4507      2.00000
      2     -25.4468      2.00000
      3     -25.4364      2.00000
      4     -25.4359      2.00000
      5     -25.4065      2.00000
      6     -25.4062      2.00000
      7     -25.3841      2.00000
      8     -25.3835      2.00000
      9     -25.3787      2.00000
     10     -25.3780      2.00000
     11     -12.5204      2.00000
     12     -11.7807      2.00000
     13     -11.4189      2.00000
     14     -11.1902      2.00000
     15     -11.0351      2.00000
     16     -10.9040      2.00000
     17      -6.2451      2.00000
     18      -5.3825      2.00000
     19      -2.6675      2.00000
     20      -2.3158      2.00000
     21      -2.1395      2.00000
     22      -1.7631      2.00000
     23      -1.5553      2.00000
     24      -1.3437      2.00000
     25      -1.1535      2.00000
     26      -1.0263      2.00000
     27      -0.8733      2.00000
     28      -0.7568      2.00000
     29      -0.6935      2.00000
     30      -0.5770      2.00000
     31      -0.5329      2.00000
     32      -0.5159      2.00000
     33      -0.4433      2.00000
     34      -0.3861      2.00000
     35       0.4721      2.00000
     36       0.5071      2.00000
     37       0.5557      2.00000
     38       0.6186      2.00000
     39       0.6315      2.00000
     40       0.6534      2.00000
     41       0.6805      2.00000
     42       0.7667      2.00000
     43       0.9164      2.00000
     44       1.0739      2.00000
     45       1.2117      2.00000
     46       1.2868      2.00000
     47       1.4087      2.00000
     48       1.5616      2.00000
     49       1.7235      2.00000
     50       1.7567      2.00000
     51       2.1557      2.00000
     52       2.2114      2.00000
     53       2.6226      2.00000
     54       3.1397      2.00000
     55       5.1061      0.00000
     56       5.5501      0.00000
     57       6.3876      0.00000
     58       6.9049      0.00000
     59       7.3863      0.00000
     60       7.6221      0.00000
     61       8.0781      0.00000
     62       8.3829      0.00000
     63       8.8077      0.00000
     64       9.0558      0.00000
     65       9.5138      0.00000
     66       9.7643      0.00000
     67       9.8321      0.00000
     68      10.1919      0.00000
     69      10.3615      0.00000
     70      10.6088      0.00000
     71      10.9606      0.00000
     72      11.1667      0.00000
     73      11.6541      0.00000
     74      12.3062      0.00000
     75      12.4790      0.00000
     76      12.8050      0.00000
     77      12.9323      0.00000
     78      13.1353      0.00000
     79      13.3889      0.00000
     80      13.7920      0.00000
     81      14.0271      0.00000
     82      14.3015      0.00000
     83      14.9262      0.00000
     84      15.1012      0.00000
     85      15.4225      0.00000
     86      15.9099      0.00000
     87      16.1305      0.00000
     88      16.4535      0.00000
     89      16.6760      0.00000
     90      16.7987      0.00000
     91      16.9983      0.00000
     92      17.3436      0.00000
     93      17.6047      0.00000
     94      17.7217      0.00000
     95      17.8421      0.00000
     96      18.2170      0.00000
     97      18.4288      0.00000
     98      18.5468      0.00000
     99      18.7145      0.00000
    100      18.9406      0.00000
    101      19.1371      0.00000
    102      19.5852      0.00000
    103      19.6929      0.00000
    104      19.7658      0.00000
    105      20.0558      0.00000
    106      20.6719      0.00000
    107      20.9703      0.00000
    108      21.0447      0.00000
    109      21.4108      0.00000
    110      21.6476      0.00000
    111      21.9193      0.00000
    112      21.9883      0.00000
    113      22.2503      0.00000
    114      22.4315      0.00000
    115      22.5847      0.00000
    116      22.7444      0.00000
    117      22.7835      0.00000
    118      23.1062      0.00000
    119      23.3561      0.00000
    120      23.7046      0.00000
    121      23.8167      0.00000
    122      24.2208      0.00000
    123      24.3252      0.00000
    124      24.5691      0.00000
    125      24.7903      0.00000
    126      25.0016      0.00000
    127      25.1793      0.00000
    128      25.3948      0.00000
    129      25.5747      0.00000
    130      25.7974      0.00000
    131      25.9086      0.00000
    132      26.3000      0.00000
    133      26.4661      0.00000
    134      26.5696      0.00000
    135      26.9890      0.00000
    136      27.1598      0.00000
    137      27.3318      0.00000
    138      27.4905      0.00000
    139      27.6010      0.00000
    140      27.7367      0.00000
    141      27.9282      0.00000

 k-point   138 :       0.5000    0.0000    0.2000
  band No.  band energies     occupation 
      1     -25.4507      2.00000
      2     -25.4466      2.00000
      3     -25.4363      2.00000
      4     -25.4358      2.00000
      5     -25.4065      2.00000
      6     -25.4061      2.00000
      7     -25.3840      2.00000
      8     -25.3834      2.00000
      9     -25.3786      2.00000
     10     -25.3779      2.00000
     11     -12.5317      2.00000
     12     -11.7595      2.00000
     13     -11.4249      2.00000
     14     -11.1938      2.00000
     15     -11.0307      2.00000
     16     -10.9053      2.00000
     17      -6.2615      2.00000
     18      -5.3602      2.00000
     19      -2.6591      2.00000
     20      -2.3271      2.00000
     21      -2.1360      2.00000
     22      -1.7548      2.00000
     23      -1.5456      2.00000
     24      -1.3550      2.00000
     25      -1.1562      2.00000
     26      -1.0325      2.00000
     27      -0.8801      2.00000
     28      -0.7661      2.00000
     29      -0.6927      2.00000
     30      -0.5814      2.00000
     31      -0.5355      2.00000
     32      -0.5186      2.00000
     33      -0.4400      2.00000
     34      -0.3834      2.00000
     35       0.4782      2.00000
     36       0.5051      2.00000
     37       0.5530      2.00000
     38       0.6221      2.00000
     39       0.6322      2.00000
     40       0.6530      2.00000
     41       0.6811      2.00000
     42       0.7668      2.00000
     43       0.9073      2.00000
     44       1.0683      2.00000
     45       1.1964      2.00000
     46       1.2789      2.00000
     47       1.4136      2.00000
     48       1.5600      2.00000
     49       1.7329      2.00000
     50       1.7500      2.00000
     51       2.1523      2.00000
     52       2.2028      2.00000
     53       2.6090      2.00000
     54       3.1550      2.00000
     55       5.1125      0.00000
     56       5.5830      0.00000
     57       6.4226      0.00000
     58       6.9163      0.00000
     59       7.4020      0.00000
     60       7.6185      0.00000
     61       8.1202      0.00000
     62       8.4047      0.00000
     63       8.8078      0.00000
     64       9.0772      0.00000
     65       9.5117      0.00000
     66       9.7844      0.00000
     67       9.8264      0.00000
     68      10.1811      0.00000
     69      10.3709      0.00000
     70      10.6138      0.00000
     71      10.9910      0.00000
     72      11.1887      0.00000
     73      11.6150      0.00000
     74      12.2508      0.00000
     75      12.5223      0.00000
     76      12.7580      0.00000
     77      12.9278      0.00000
     78      13.0745      0.00000
     79      13.3217      0.00000
     80      13.7442      0.00000
     81      14.0283      0.00000
     82      14.2634      0.00000
     83      14.9068      0.00000
     84      15.1144      0.00000
     85      15.4198      0.00000
     86      15.8844      0.00000
     87      16.1027      0.00000
     88      16.4588      0.00000
     89      16.6480      0.00000
     90      16.7775      0.00000
     91      17.0317      0.00000
     92      17.3419      0.00000
     93      17.5921      0.00000
     94      17.6841      0.00000
     95      17.8294      0.00000
     96      18.1832      0.00000
     97      18.4497      0.00000
     98      18.6003      0.00000
     99      18.6836      0.00000
    100      18.9643      0.00000
    101      19.1810      0.00000
    102      19.5744      0.00000
    103      19.6974      0.00000
    104      19.7648      0.00000
    105      20.0775      0.00000
    106      20.6064      0.00000
    107      20.8930      0.00000
    108      21.1462      0.00000
    109      21.5103      0.00000
    110      21.7003      0.00000
    111      21.9323      0.00000
    112      22.0531      0.00000
    113      22.3008      0.00000
    114      22.4387      0.00000
    115      22.6075      0.00000
    116      22.7590      0.00000
    117      22.8132      0.00000
    118      23.0946      0.00000
    119      23.4410      0.00000
    120      23.6681      0.00000
    121      23.8374      0.00000
    122      24.2386      0.00000
    123      24.2913      0.00000
    124      24.5887      0.00000
    125      24.7844      0.00000
    126      25.0292      0.00000
    127      25.1318      0.00000
    128      25.4141      0.00000
    129      25.5893      0.00000
    130      25.8187      0.00000
    131      25.9083      0.00000
    132      26.2696      0.00000
    133      26.4316      0.00000
    134      26.5889      0.00000
    135      27.0419      0.00000
    136      27.1739      0.00000
    137      27.3301      0.00000
    138      27.4797      0.00000
    139      27.5948      0.00000
    140      27.7028      0.00000
    141      27.8969      0.00000

 k-point   139 :       0.5000    0.0000    0.1833
  band No.  band energies     occupation 
      1     -25.4507      2.00000
      2     -25.4465      2.00000
      3     -25.4363      2.00000
      4     -25.4357      2.00000
      5     -25.4064      2.00000
      6     -25.4060      2.00000
      7     -25.3839      2.00000
      8     -25.3833      2.00000
      9     -25.3785      2.00000
     10     -25.3778      2.00000
     11     -12.5422      2.00000
     12     -11.7395      2.00000
     13     -11.4298      2.00000
     14     -11.1982      2.00000
     15     -11.0261      2.00000
     16     -10.9067      2.00000
     17      -6.2768      2.00000
     18      -5.3392      2.00000
     19      -2.6515      2.00000
     20      -2.3369      2.00000
     21      -2.1326      2.00000
     22      -1.7467      2.00000
     23      -1.5358      2.00000
     24      -1.3644      2.00000
     25      -1.1589      2.00000
     26      -1.0406      2.00000
     27      -0.8875      2.00000
     28      -0.7752      2.00000
     29      -0.6921      2.00000
     30      -0.5856      2.00000
     31      -0.5386      2.00000
     32      -0.5215      2.00000
     33      -0.4368      2.00000
     34      -0.3802      2.00000
     35       0.4833      2.00000
     36       0.5035      2.00000
     37       0.5509      2.00000
     38       0.6248      2.00000
     39       0.6330      2.00000
     40       0.6528      2.00000
     41       0.6815      2.00000
     42       0.7664      2.00000
     43       0.9000      2.00000
     44       1.0596      2.00000
     45       1.1814      2.00000
     46       1.2727      2.00000
     47       1.4200      2.00000
     48       1.5576      2.00000
     49       1.7205      2.00000
     50       1.7668      2.00000
     51       2.1488      2.00000
     52       2.1996      2.00000
     53       2.5955      2.00000
     54       3.1653      2.00000
     55       5.1175      0.00000
     56       5.6144      0.00000
     57       6.4582      0.00000
     58       6.9286      0.00000
     59       7.4130      0.00000
     60       7.6175      0.00000
     61       8.1626      0.00000
     62       8.4225      0.00000
     63       8.8066      0.00000
     64       9.1067      0.00000
     65       9.5065      0.00000
     66       9.7807      0.00000
     67       9.8527      0.00000
     68      10.1715      0.00000
     69      10.3704      0.00000
     70      10.6281      0.00000
     71      11.0166      0.00000
     72      11.1980      0.00000
     73      11.5855      0.00000
     74      12.1996      0.00000
     75      12.5522      0.00000
     76      12.6928      0.00000
     77      12.9203      0.00000
     78      13.0350      0.00000
     79      13.2722      0.00000
     80      13.6893      0.00000
     81      14.0350      0.00000
     82      14.2344      0.00000
     83      14.8891      0.00000
     84      15.1268      0.00000
     85      15.4157      0.00000
     86      15.8581      0.00000
     87      16.0702      0.00000
     88      16.4493      0.00000
     89      16.6162      0.00000
     90      16.7737      0.00000
     91      17.0735      0.00000
     92      17.3358      0.00000
     93      17.5469      0.00000
     94      17.6693      0.00000
     95      17.8146      0.00000
     96      18.1607      0.00000
     97      18.4591      0.00000
     98      18.6278      0.00000
     99      18.7155      0.00000
    100      18.9799      0.00000
    101      19.2370      0.00000
    102      19.5551      0.00000
    103      19.6989      0.00000
    104      19.7645      0.00000
    105      20.1039      0.00000
    106      20.5070      0.00000
    107      20.7927      0.00000
    108      21.2847      0.00000
    109      21.5950      0.00000
    110      21.7531      0.00000
    111      21.9250      0.00000
    112      22.1151      0.00000
    113      22.3340      0.00000
    114      22.4662      0.00000
    115      22.6393      0.00000
    116      22.7869      0.00000
    117      22.8340      0.00000
    118      23.1044      0.00000
    119      23.4996      0.00000
    120      23.6338      0.00000
    121      23.8658      0.00000
    122      24.2342      0.00000
    123      24.2803      0.00000
    124      24.5918      0.00000
    125      24.8210      0.00000
    126      24.9883      0.00000
    127      25.1559      0.00000
    128      25.4510      0.00000
    129      25.6186      0.00000
    130      25.8376      0.00000
    131      25.9171      0.00000
    132      26.2224      0.00000
    133      26.3902      0.00000
    134      26.5934      0.00000
    135      27.0629      0.00000
    136      27.1722      0.00000
    137      27.3085      0.00000
    138      27.4376      0.00000
    139      27.6014      0.00000
    140      27.7168      0.00000
    141      27.8837      0.00000

 k-point   140 :       0.5000    0.0000    0.1667
  band No.  band energies     occupation 
      1     -25.4507      2.00000
      2     -25.4463      2.00000
      3     -25.4362      2.00000
      4     -25.4356      2.00000
      5     -25.4063      2.00000
      6     -25.4060      2.00000
      7     -25.3839      2.00000
      8     -25.3832      2.00000
      9     -25.3784      2.00000
     10     -25.3777      2.00000
     11     -12.5518      2.00000
     12     -11.7208      2.00000
     13     -11.4336      2.00000
     14     -11.2034      2.00000
     15     -11.0213      2.00000
     16     -10.9084      2.00000
     17      -6.2910      2.00000
     18      -5.3195      2.00000
     19      -2.6448      2.00000
     20      -2.3453      2.00000
     21      -2.1295      2.00000
     22      -1.7388      2.00000
     23      -1.5260      2.00000
     24      -1.3716      2.00000
     25      -1.1614      2.00000
     26      -1.0506      2.00000
     27      -0.8951      2.00000
     28      -0.7842      2.00000
     29      -0.6915      2.00000
     30      -0.5896      2.00000
     31      -0.5422      2.00000
     32      -0.5244      2.00000
     33      -0.4338      2.00000
     34      -0.3765      2.00000
     35       0.4867      2.00000
     36       0.5033      2.00000
     37       0.5492      2.00000
     38       0.6260      2.00000
     39       0.6344      2.00000
     40       0.6530      2.00000
     41       0.6813      2.00000
     42       0.7655      2.00000
     43       0.8947      2.00000
     44       1.0486      2.00000
     45       1.1666      2.00000
     46       1.2686      2.00000
     47       1.4273      2.00000
     48       1.5545      2.00000
     49       1.7056      2.00000
     50       1.7863      2.00000
     51       2.1456      2.00000
     52       2.2022      2.00000
     53       2.5819      2.00000
     54       3.1706      2.00000
     55       5.1217      0.00000
     56       5.6439      0.00000
     57       6.4940      0.00000
     58       6.9418      0.00000
     59       7.4170      0.00000
     60       7.6215      0.00000
     61       8.2025      0.00000
     62       8.4366      0.00000
     63       8.8067      0.00000
     64       9.1418      0.00000
     65       9.5012      0.00000
     66       9.7663      0.00000
     67       9.8939      0.00000
     68      10.1642      0.00000
     69      10.3642      0.00000
     70      10.6480      0.00000
     71      11.0300      0.00000
     72      11.2005      0.00000
     73      11.5661      0.00000
     74      12.1549      0.00000
     75      12.5490      0.00000
     76      12.6329      0.00000
     77      12.8862      0.00000
     78      13.0350      0.00000
     79      13.2445      0.00000
     80      13.6291      0.00000
     81      14.0423      0.00000
     82      14.2152      0.00000
     83      14.8735      0.00000
     84      15.1380      0.00000
     85      15.4102      0.00000
     86      15.8317      0.00000
     87      16.0349      0.00000
     88      16.4255      0.00000
     89      16.5841      0.00000
     90      16.7891      0.00000
     91      17.1075      0.00000
     92      17.3236      0.00000
     93      17.4910      0.00000
     94      17.6671      0.00000
     95      17.8031      0.00000
     96      18.1563      0.00000
     97      18.4602      0.00000
     98      18.6177      0.00000
     99      18.8052      0.00000
    100      18.9896      0.00000
    101      19.2980      0.00000
    102      19.5289      0.00000
    103      19.7007      0.00000
    104      19.7649      0.00000
    105      20.1326      0.00000
    106      20.3919      0.00000
    107      20.7004      0.00000
    108      21.4299      0.00000
    109      21.6328      0.00000
    110      21.8082      0.00000
    111      21.9176      0.00000
    112      22.1614      0.00000
    113      22.3383      0.00000
    114      22.5123      0.00000
    115      22.6916      0.00000
    116      22.8155      0.00000
    117      22.8677      0.00000
    118      23.1338      0.00000
    119      23.5176      0.00000
    120      23.6148      0.00000
    121      23.8860      0.00000
    122      24.2172      0.00000
    123      24.2985      0.00000
    124      24.6024      0.00000
    125      24.8712      0.00000
    126      24.9309      0.00000
    127      25.2156      0.00000
    128      25.4829      0.00000
    129      25.6722      0.00000
    130      25.8455      0.00000
    131      25.9396      0.00000
    132      26.1636      0.00000
    133      26.3522      0.00000
    134      26.5787      0.00000
    135      27.0328      0.00000
    136      27.1339      0.00000
    137      27.2924      0.00000
    138      27.3953      0.00000
    139      27.6068      0.00000
    140      27.7664      0.00000
    141      27.8787      0.00000

 k-point   141 :       0.5000    0.0000    0.1500
  band No.  band energies     occupation 
      1     -25.4506      2.00000
      2     -25.4461      2.00000
      3     -25.4361      2.00000
      4     -25.4356      2.00000
      5     -25.4062      2.00000
      6     -25.4059      2.00000
      7     -25.3838      2.00000
      8     -25.3832      2.00000
      9     -25.3784      2.00000
     10     -25.3777      2.00000
     11     -12.5605      2.00000
     12     -11.7036      2.00000
     13     -11.4362      2.00000
     14     -11.2092      2.00000
     15     -11.0164      2.00000
     16     -10.9104      2.00000
     17      -6.3039      2.00000
     18      -5.3012      2.00000
     19      -2.6390      2.00000
     20      -2.3522      2.00000
     21      -2.1268      2.00000
     22      -1.7310      2.00000
     23      -1.5165      2.00000
     24      -1.3768      2.00000
     25      -1.1634      2.00000
     26      -1.0627      2.00000
     27      -0.9024      2.00000
     28      -0.7931      2.00000
     29      -0.6910      2.00000
     30      -0.5933      2.00000
     31      -0.5459      2.00000
     32      -0.5273      2.00000
     33      -0.4310      2.00000
     34      -0.3725      2.00000
     35       0.4873      2.00000
     36       0.5053      2.00000
     37       0.5480      2.00000
     38       0.6252      2.00000
     39       0.6363      2.00000
     40       0.6540      2.00000
     41       0.6808      2.00000
     42       0.7643      2.00000
     43       0.8917      2.00000
     44       1.0360      2.00000
     45       1.1518      2.00000
     46       1.2667      2.00000
     47       1.4350      2.00000
     48       1.5511      2.00000
     49       1.6917      2.00000
     50       1.8037      2.00000
     51       2.1436      2.00000
     52       2.2101      2.00000
     53       2.5684      2.00000
     54       3.1713      2.00000
     55       5.1252      0.00000
     56       5.6712      0.00000
     57       6.5299      0.00000
     58       6.9558      0.00000
     59       7.4132      0.00000
     60       7.6317      0.00000
     61       8.2359      0.00000
     62       8.4493      0.00000
     63       8.8102      0.00000
     64       9.1793      0.00000
     65       9.4984      0.00000
     66       9.7508      0.00000
     67       9.9363      0.00000
     68      10.1599      0.00000
     69      10.3582      0.00000
     70      10.6689      0.00000
     71      11.0214      0.00000
     72      11.2087      0.00000
     73      11.5532      0.00000
     74      12.1184      0.00000
     75      12.4856      0.00000
     76      12.6056      0.00000
     77      12.8415      0.00000
     78      13.0606      0.00000
     79      13.2379      0.00000
     80      13.5669      0.00000
     81      14.0442      0.00000
     82      14.2074      0.00000
     83      14.8607      0.00000
     84      15.1474      0.00000
     85      15.4033      0.00000
     86      15.8048      0.00000
     87      16.0001      0.00000
     88      16.3908      0.00000
     89      16.5565      0.00000
     90      16.8140      0.00000
     91      17.1204      0.00000
     92      17.3120      0.00000
     93      17.4346      0.00000
     94      17.6761      0.00000
     95      17.8028      0.00000
     96      18.1674      0.00000
     97      18.4561      0.00000
     98      18.6127      0.00000
     99      18.8838      0.00000
    100      19.0111      0.00000
    101      19.3532      0.00000
    102      19.4984      0.00000
    103      19.7026      0.00000
    104      19.7697      0.00000
    105      20.1444      0.00000
    106      20.2960      0.00000
    107      20.6187      0.00000
    108      21.5516      0.00000
    109      21.6349      0.00000
    110      21.8442      0.00000
    111      21.9337      0.00000
    112      22.1824      0.00000
    113      22.3406      0.00000
    114      22.5605      0.00000
    115      22.7609      0.00000
    116      22.8314      0.00000
    117      22.9276      0.00000
    118      23.1796      0.00000
    119      23.5143      0.00000
    120      23.6030      0.00000
    121      23.8847      0.00000
    122      24.1942      0.00000
    123      24.3542      0.00000
    124      24.6238      0.00000
    125      24.8547      0.00000
    126      24.9517      0.00000
    127      25.2966      0.00000
    128      25.5064      0.00000
    129      25.7251      0.00000
    130      25.8491      0.00000
    131      25.9531      0.00000
    132      26.1117      0.00000
    133      26.3353      0.00000
    134      26.5486      0.00000
    135      26.9635      0.00000
    136      27.0712      0.00000
    137      27.2533      0.00000
    138      27.3759      0.00000
    139      27.5994      0.00000
    140      27.8148      0.00000
    141      27.8945      0.00000

 k-point   142 :       0.5000    0.0000    0.1333
  band No.  band energies     occupation 
      1     -25.4506      2.00000
      2     -25.4460      2.00000
      3     -25.4361      2.00000
      4     -25.4355      2.00000
      5     -25.4062      2.00000
      6     -25.4058      2.00000
      7     -25.3837      2.00000
      8     -25.3831      2.00000
      9     -25.3783      2.00000
     10     -25.3776      2.00000
     11     -12.5683      2.00000
     12     -11.6882      2.00000
     13     -11.4376      2.00000
     14     -11.2155      2.00000
     15     -11.0113      2.00000
     16     -10.9127      2.00000
     17      -6.3156      2.00000
     18      -5.2845      2.00000
     19      -2.6342      2.00000
     20      -2.3577      2.00000
     21      -2.1247      2.00000
     22      -1.7233      2.00000
     23      -1.5076      2.00000
     24      -1.3799      2.00000
     25      -1.1649      2.00000
     26      -1.0764      2.00000
     27      -0.9091      2.00000
     28      -0.8016      2.00000
     29      -0.6905      2.00000
     30      -0.5966      2.00000
     31      -0.5498      2.00000
     32      -0.5303      2.00000
     33      -0.4285      2.00000
     34      -0.3685      2.00000
     35       0.4859      2.00000
     36       0.5088      2.00000
     37       0.5472      2.00000
     38       0.6227      2.00000
     39       0.6386      2.00000
     40       0.6558      2.00000
     41       0.6801      2.00000
     42       0.7627      2.00000
     43       0.8907      2.00000
     44       1.0230      2.00000
     45       1.1369      2.00000
     46       1.2665      2.00000
     47       1.4428      2.00000
     48       1.5471      2.00000
     49       1.6796      2.00000
     50       1.8172      2.00000
     51       2.1437      2.00000
     52       2.2227      2.00000
     53       2.5551      2.00000
     54       3.1677      2.00000
     55       5.1283      0.00000
     56       5.6960      0.00000
     57       6.5652      0.00000
     58       6.9701      0.00000
     59       7.4025      0.00000
     60       7.6472      0.00000
     61       8.2579      0.00000
     62       8.4651      0.00000
     63       8.8179      0.00000
     64       9.2156      0.00000
     65       9.5006      0.00000
     66       9.7362      0.00000
     67       9.9738      0.00000
     68      10.1592      0.00000
     69      10.3577      0.00000
     70      10.6873      0.00000
     71      10.9900      0.00000
     72      11.2285      0.00000
     73      11.5421      0.00000
     74      12.0919      0.00000
     75      12.3933      0.00000
     76      12.5845      0.00000
     77      12.7988      0.00000
     78      13.1015      0.00000
     79      13.2452      0.00000
     80      13.5073      0.00000
     81      14.0367      0.00000
     82      14.2105      0.00000
     83      14.8512      0.00000
     84      15.1549      0.00000
     85      15.3950      0.00000
     86      15.7768      0.00000
     87      15.9691      0.00000
     88      16.3506      0.00000
     89      16.5345      0.00000
     90      16.8330      0.00000
     91      17.1118      0.00000
     92      17.3010      0.00000
     93      17.3898      0.00000
     94      17.6961      0.00000
     95      17.8174      0.00000
     96      18.1897      0.00000
     97      18.4507      0.00000
     98      18.6142      0.00000
     99      18.9086      0.00000
    100      19.0748      0.00000
    101      19.3833      0.00000
    102      19.4786      0.00000
    103      19.6990      0.00000
    104      19.7834      0.00000
    105      20.0858      0.00000
    106      20.2898      0.00000
    107      20.5451      0.00000
    108      21.5409      0.00000
    109      21.7130      0.00000
    110      21.8448      0.00000
    111      21.9670      0.00000
    112      22.1910      0.00000
    113      22.3574      0.00000
    114      22.6059      0.00000
    115      22.8315      0.00000
    116      22.8524      0.00000
    117      22.9891      0.00000
    118      23.2399      0.00000
    119      23.5140      0.00000
    120      23.5961      0.00000
    121      23.8666      0.00000
    122      24.1730      0.00000
    123      24.4273      0.00000
    124      24.6304      0.00000
    125      24.8544      0.00000
    126      24.9989      0.00000
    127      25.3861      0.00000
    128      25.5354      0.00000
    129      25.7437      0.00000
    130      25.8384      0.00000
    131      25.9424      0.00000
    132      26.0846      0.00000
    133      26.3634      0.00000
    134      26.5138      0.00000
    135      26.8701      0.00000
    136      27.0061      0.00000
    137      27.1988      0.00000
    138      27.3562      0.00000
    139      27.5647      0.00000
    140      27.8261      0.00000
    141      27.9314      0.00000

 k-point   143 :       0.5000    0.0000    0.1167
  band No.  band energies     occupation 
      1     -25.4506      2.00000
      2     -25.4459      2.00000
      3     -25.4360      2.00000
      4     -25.4355      2.00000
      5     -25.4061      2.00000
      6     -25.4057      2.00000
      7     -25.3837      2.00000
      8     -25.3830      2.00000
      9     -25.3783      2.00000
     10     -25.3775      2.00000
     11     -12.5752      2.00000
     12     -11.6746      2.00000
     13     -11.4377      2.00000
     14     -11.2221      2.00000
     15     -11.0062      2.00000
     16     -10.9152      2.00000
     17      -6.3261      2.00000
     18      -5.2694      2.00000
     19      -2.6303      2.00000
     20      -2.3618      2.00000
     21      -2.1232      2.00000
     22      -1.7155      2.00000
     23      -1.4999      2.00000
     24      -1.3808      2.00000
     25      -1.1658      2.00000
     26      -1.0915      2.00000
     27      -0.9151      2.00000
     28      -0.8098      2.00000
     29      -0.6901      2.00000
     30      -0.5994      2.00000
     31      -0.5536      2.00000
     32      -0.5332      2.00000
     33      -0.4264      2.00000
     34      -0.3646      2.00000
     35       0.4837      2.00000
     36       0.5128      2.00000
     37       0.5466      2.00000
     38       0.6191      2.00000
     39       0.6407      2.00000
     40       0.6580      2.00000
     41       0.6796      2.00000
     42       0.7608      2.00000
     43       0.8917      2.00000
     44       1.0104      2.00000
     45       1.1221      2.00000
     46       1.2678      2.00000
     47       1.4503      2.00000
     48       1.5426      2.00000
     49       1.6701      2.00000
     50       1.8259      2.00000
     51       2.1460      2.00000
     52       2.2395      2.00000
     53       2.5420      2.00000
     54       3.1604      2.00000
     55       5.1312      0.00000
     56       5.7181      0.00000
     57       6.5996      0.00000
     58       6.9845      0.00000
     59       7.3873      0.00000
     60       7.6658      0.00000
     61       8.2652      0.00000
     62       8.4879      0.00000
     63       8.8293      0.00000
     64       9.2469      0.00000
     65       9.5098      0.00000
     66       9.7234      0.00000
     67      10.0024      0.00000
     68      10.1619      0.00000
     69      10.3665      0.00000
     70      10.6999      0.00000
     71      10.9471      0.00000
     72      11.2536      0.00000
     73      11.5306      0.00000
     74      12.0765      0.00000
     75      12.2930      0.00000
     76      12.5575      0.00000
     77      12.7601      0.00000
     78      13.1542      0.00000
     79      13.2533      0.00000
     80      13.4583      0.00000
     81      14.0200      0.00000
     82      14.2203      0.00000
     83      14.8458      0.00000
     84      15.1608      0.00000
     85      15.3857      0.00000
     86      15.7474      0.00000
     87      15.9447      0.00000
     88      16.3100      0.00000
     89      16.5167      0.00000
     90      16.8307      0.00000
     91      17.0951      0.00000
     92      17.2700      0.00000
     93      17.3843      0.00000
     94      17.7244      0.00000
     95      17.8452      0.00000
     96      18.2192      0.00000
     97      18.4479      0.00000
     98      18.6196      0.00000
     99      18.8949      0.00000
    100      19.1512      0.00000
    101      19.3677      0.00000
    102      19.4940      0.00000
    103      19.6831      0.00000
    104      19.8056      0.00000
    105      20.0081      0.00000
    106      20.3413      0.00000
    107      20.4780      0.00000
    108      21.4761      0.00000
    109      21.7579      0.00000
    110      21.8568      0.00000
    111      21.9773      0.00000
    112      22.2230      0.00000
    113      22.3880      0.00000
    114      22.6405      0.00000
    115      22.8561      0.00000
    116      22.9236      0.00000
    117      23.0433      0.00000
    118      23.3029      0.00000
    119      23.5246      0.00000
    120      23.6079      0.00000
    121      23.8455      0.00000
    122      24.1601      0.00000
    123      24.4631      0.00000
    124      24.6441      0.00000
    125      24.8983      0.00000
    126      25.0593      0.00000
    127      25.4467      0.00000
    128      25.5803      0.00000
    129      25.7180      0.00000
    130      25.8096      0.00000
    131      25.9488      0.00000
    132      26.0626      0.00000
    133      26.3974      0.00000
    134      26.5206      0.00000
    135      26.7698      0.00000
    136      26.9435      0.00000
    137      27.1459      0.00000
    138      27.3231      0.00000
    139      27.5083      0.00000
    140      27.7548      0.00000
    141      27.9349      0.00000

 k-point   144 :       0.5000    0.0000    0.1000
  band No.  band energies     occupation 
      1     -25.4506      2.00000
      2     -25.4458      2.00000
      3     -25.4360      2.00000
      4     -25.4354      2.00000
      5     -25.4061      2.00000
      6     -25.4057      2.00000
      7     -25.3836      2.00000
      8     -25.3830      2.00000
      9     -25.3782      2.00000
     10     -25.3774      2.00000
     11     -12.5812      2.00000
     12     -11.6630      2.00000
     13     -11.4366      2.00000
     14     -11.2289      2.00000
     15     -11.0011      2.00000
     16     -10.9179      2.00000
     17      -6.3352      2.00000
     18      -5.2561      2.00000
     19      -2.6273      2.00000
     20      -2.3648      2.00000
     21      -2.1223      2.00000
     22      -1.7076      2.00000
     23      -1.4939      2.00000
     24      -1.3794      2.00000
     25      -1.1665      2.00000
     26      -1.1071      2.00000
     27      -0.9202      2.00000
     28      -0.8175      2.00000
     29      -0.6897      2.00000
     30      -0.6017      2.00000
     31      -0.5572      2.00000
     32      -0.5358      2.00000
     33      -0.4245      2.00000
     34      -0.3609      2.00000
     35       0.4814      2.00000
     36       0.5166      2.00000
     37       0.5462      2.00000
     38       0.6146      2.00000
     39       0.6428      2.00000
     40       0.6601      2.00000
     41       0.6795      2.00000
     42       0.7588      2.00000
     43       0.8943      2.00000
     44       0.9987      2.00000
     45       1.1075      2.00000
     46       1.2701      2.00000
     47       1.4570      2.00000
     48       1.5376      2.00000
     49       1.6637      2.00000
     50       1.8296      2.00000
     51       2.1505      2.00000
     52       2.2593      2.00000
     53       2.5294      2.00000
     54       3.1504      2.00000
     55       5.1339      0.00000
     56       5.7374      0.00000
     57       6.6324      0.00000
     58       6.9984      0.00000
     59       7.3697      0.00000
     60       7.6856      0.00000
     61       8.2594      0.00000
     62       8.5175      0.00000
     63       8.8427      0.00000
     64       9.2703      0.00000
     65       9.5261      0.00000
     66       9.7132      0.00000
     67      10.0216      0.00000
     68      10.1667      0.00000
     69      10.3858      0.00000
     70      10.7033      0.00000
     71      10.9050      0.00000
     72      11.2748      0.00000
     73      11.5217      0.00000
     74      12.0717      0.00000
     75      12.1912      0.00000
     76      12.5263      0.00000
     77      12.7268      0.00000
     78      13.2129      0.00000
     79      13.2477      0.00000
     80      13.4331      0.00000
     81      13.9962      0.00000
     82      14.2314      0.00000
     83      14.8443      0.00000
     84      15.1652      0.00000
     85      15.3755      0.00000
     86      15.7178      0.00000
     87      15.9275      0.00000
     88      16.2731      0.00000
     89      16.5008      0.00000
     90      16.8031      0.00000
     91      17.0761      0.00000
     92      17.2258      0.00000
     93      17.4197      0.00000
     94      17.7560      0.00000
     95      17.8820      0.00000
     96      18.2522      0.00000
     97      18.4507      0.00000
     98      18.6267      0.00000
     99      18.8643      0.00000
    100      19.1887      0.00000
    101      19.3467      0.00000
    102      19.5199      0.00000
    103      19.6600      0.00000
    104      19.8307      0.00000
    105      19.9657      0.00000
    106      20.3937      0.00000
    107      20.4333      0.00000
    108      21.4044      0.00000
    109      21.7140      0.00000
    110      21.8874      0.00000
    111      21.9769      0.00000
    112      22.2684      0.00000
    113      22.4386      0.00000
    114      22.6642      0.00000
    115      22.8646      0.00000
    116      23.0051      0.00000
    117      23.0993      0.00000
    118      23.3517      0.00000
    119      23.5421      0.00000
    120      23.6453      0.00000
    121      23.8384      0.00000
    122      24.1574      0.00000
    123      24.4299      0.00000
    124      24.7046      0.00000
    125      24.9515      0.00000
    126      25.1448      0.00000
    127      25.4576      0.00000
    128      25.5704      0.00000
    129      25.7161      0.00000
    130      25.8153      0.00000
    131      25.9466      0.00000
    132      26.0617      0.00000
    133      26.3663      0.00000
    134      26.5769      0.00000
    135      26.7047      0.00000
    136      26.8925      0.00000
    137      27.0949      0.00000
    138      27.2786      0.00000
    139      27.4435      0.00000
    140      27.6432      0.00000
    141      27.9382      0.00000

 k-point   145 :       0.5000    0.0000    0.0833
  band No.  band energies     occupation 
      1     -25.4506      2.00000
      2     -25.4457      2.00000
      3     -25.4360      2.00000
      4     -25.4354      2.00000
      5     -25.4060      2.00000
      6     -25.4056      2.00000
      7     -25.3836      2.00000
      8     -25.3829      2.00000
      9     -25.3782      2.00000
     10     -25.3774      2.00000
     11     -12.5863      2.00000
     12     -11.6533      2.00000
     13     -11.4347      2.00000
     14     -11.2356      2.00000
     15     -10.9961      2.00000
     16     -10.9208      2.00000
     17      -6.3429      2.00000
     18      -5.2447      2.00000
     19      -2.6250      2.00000
     20      -2.3668      2.00000
     21      -2.1219      2.00000
     22      -1.6998      2.00000
     23      -1.4899      2.00000
     24      -1.3757      2.00000
     25      -1.1677      2.00000
     26      -1.1221      2.00000
     27      -0.9245      2.00000
     28      -0.8246      2.00000
     29      -0.6894      2.00000
     30      -0.6036      2.00000
     31      -0.5607      2.00000
     32      -0.5383      2.00000
     33      -0.4229      2.00000
     34      -0.3576      2.00000
     35       0.4792      2.00000
     36       0.5200      2.00000
     37       0.5460      2.00000
     38       0.6098      2.00000
     39       0.6448      2.00000
     40       0.6616      2.00000
     41       0.6802      2.00000
     42       0.7567      2.00000
     43       0.8980      2.00000
     44       0.9884      2.00000
     45       1.0936      2.00000
     46       1.2730      2.00000
     47       1.4626      2.00000
     48       1.5320      2.00000
     49       1.6606      2.00000
     50       1.8291      2.00000
     51       2.1562      2.00000
     52       2.2809      2.00000
     53       2.5174      2.00000
     54       3.1386      2.00000
     55       5.1364      0.00000
     56       5.7539      0.00000
     57       6.6629      0.00000
     58       7.0112      0.00000
     59       7.3517      0.00000
     60       7.7048      0.00000
     61       8.2452      0.00000
     62       8.5503      0.00000
     63       8.8567      0.00000
     64       9.2857      0.00000
     65       9.5469      0.00000
     66       9.7065      0.00000
     67      10.0347      0.00000
     68      10.1717      0.00000
     69      10.4121      0.00000
     70      10.6945      0.00000
     71      10.8736      0.00000
     72      11.2846      0.00000
     73      11.5220      0.00000
     74      12.0687      0.00000
     75      12.0984      0.00000
     76      12.4932      0.00000
     77      12.7003      0.00000
     78      13.2088      0.00000
     79      13.2848      0.00000
     80      13.4383      0.00000
     81      13.9670      0.00000
     82      14.2401      0.00000
     83      14.8463      0.00000
     84      15.1688      0.00000
     85      15.3646      0.00000
     86      15.6905      0.00000
     87      15.9167      0.00000
     88      16.2430      0.00000
     89      16.4830      0.00000
     90      16.7619      0.00000
     91      17.0483      0.00000
     92      17.1875      0.00000
     93      17.4820      0.00000
     94      17.7868      0.00000
     95      17.9226      0.00000
     96      18.2852      0.00000
     97      18.4610      0.00000
     98      18.6342      0.00000
     99      18.8221      0.00000
    100      19.1539      0.00000
    101      19.3541      0.00000
    102      19.5251      0.00000
    103      19.6646      0.00000
    104      19.8538      0.00000
    105      19.9627      0.00000
    106      20.3485      0.00000
    107      20.4995      0.00000
    108      21.3372      0.00000
    109      21.6350      0.00000
    110      21.8880      0.00000
    111      21.9852      0.00000
    112      22.2864      0.00000
    113      22.5175      0.00000
    114      22.6828      0.00000
    115      22.8749      0.00000
    116      23.0693      0.00000
    117      23.1669      0.00000
    118      23.3876      0.00000
    119      23.5670      0.00000
    120      23.6756      0.00000
    121      23.8720      0.00000
    122      24.1622      0.00000
    123      24.3738      0.00000
    124      24.7672      0.00000
    125      25.0026      0.00000
    126      25.2438      0.00000
    127      25.4125      0.00000
    128      25.5448      0.00000
    129      25.7181      0.00000
    130      25.8540      0.00000
    131      25.9332      0.00000
    132      26.0970      0.00000
    133      26.3247      0.00000
    134      26.5177      0.00000
    135      26.7392      0.00000
    136      26.8872      0.00000
    137      27.0437      0.00000
    138      27.2306      0.00000
    139      27.3785      0.00000
    140      27.5462      0.00000
    141      27.9004      0.00000

 k-point   146 :       0.5000    0.0000    0.0667
  band No.  band energies     occupation 
      1     -25.4505      2.00000
      2     -25.4456      2.00000
      3     -25.4359      2.00000
      4     -25.4353      2.00000
      5     -25.4060      2.00000
      6     -25.4056      2.00000
      7     -25.3836      2.00000
      8     -25.3829      2.00000
      9     -25.3781      2.00000
     10     -25.3773      2.00000
     11     -12.5905      2.00000
     12     -11.6457      2.00000
     13     -11.4322      2.00000
     14     -11.2418      2.00000
     15     -10.9914      2.00000
     16     -10.9237      2.00000
     17      -6.3493      2.00000
     18      -5.2352      2.00000
     19      -2.6234      2.00000
     20      -2.3681      2.00000
     21      -2.1220      2.00000
     22      -1.6924      2.00000
     23      -1.4880      2.00000
     24      -1.3699      2.00000
     25      -1.1706      2.00000
     26      -1.1345      2.00000
     27      -0.9280      2.00000
     28      -0.8309      2.00000
     29      -0.6890      2.00000
     30      -0.6049      2.00000
     31      -0.5637      2.00000
     32      -0.5403      2.00000
     33      -0.4216      2.00000
     34      -0.3548      2.00000
     35       0.4772      2.00000
     36       0.5230      2.00000
     37       0.5458      2.00000
     38       0.6052      2.00000
     39       0.6468      2.00000
     40       0.6623      2.00000
     41       0.6817      2.00000
     42       0.7545      2.00000
     43       0.9024      2.00000
     44       0.9798      2.00000
     45       1.0810      2.00000
     46       1.2761      2.00000
     47       1.4672      2.00000
     48       1.5263      2.00000
     49       1.6603      2.00000
     50       1.8256      2.00000
     51       2.1625      2.00000
     52       2.3026      2.00000
     53       2.5064      2.00000
     54       3.1262      2.00000
     55       5.1386      0.00000
     56       5.7674      0.00000
     57       6.6901      0.00000
     58       7.0222      0.00000
     59       7.3350      0.00000
     60       7.7221      0.00000
     61       8.2276      0.00000
     62       8.5827      0.00000
     63       8.8696      0.00000
     64       9.2947      0.00000
     65       9.5675      0.00000
     66       9.7038      0.00000
     67      10.0458      0.00000
     68      10.1760      0.00000
     69      10.4382      0.00000
     70      10.6761      0.00000
     71      10.8562      0.00000
     72      11.2813      0.00000
     73      11.5355      0.00000
     74      11.9920      0.00000
     75      12.0901      0.00000
     76      12.4609      0.00000
     77      12.6811      0.00000
     78      13.1652      0.00000
     79      13.3462      0.00000
     80      13.4648      0.00000
     81      13.9330      0.00000
     82      14.2449      0.00000
     83      14.8506      0.00000
     84      15.1720      0.00000
     85      15.3535      0.00000
     86      15.6676      0.00000
     87      15.9105      0.00000
     88      16.2220      0.00000
     89      16.4586      0.00000
     90      16.7235      0.00000
     91      17.0108      0.00000
     92      17.1599      0.00000
     93      17.5606      0.00000
     94      17.8143      0.00000
     95      17.9626      0.00000
     96      18.3157      0.00000
     97      18.4775      0.00000
     98      18.6412      0.00000
     99      18.7718      0.00000
    100      19.0775      0.00000
    101      19.3624      0.00000
    102      19.5139      0.00000
    103      19.7051      0.00000
    104      19.8744      0.00000
    105      19.9841      0.00000
    106      20.2957      0.00000
    107      20.5813      0.00000
    108      21.2820      0.00000
    109      21.5430      0.00000
    110      21.8717      0.00000
    111      21.9873      0.00000
    112      22.2799      0.00000
    113      22.5951      0.00000
    114      22.7042      0.00000
    115      22.8995      0.00000
    116      23.1135      0.00000
    117      23.2317      0.00000
    118      23.4249      0.00000
    119      23.5982      0.00000
    120      23.6854      0.00000
    121      23.9440      0.00000
    122      24.1642      0.00000
    123      24.3273      0.00000
    124      24.7893      0.00000
    125      25.0599      0.00000
    126      25.2960      0.00000
    127      25.3945      0.00000
    128      25.5499      0.00000
    129      25.7026      0.00000
    130      25.8531      0.00000
    131      25.9506      0.00000
    132      26.1308      0.00000
    133      26.3156      0.00000
    134      26.4333      0.00000
    135      26.7306      0.00000
    136      26.9020      0.00000
    137      27.0309      0.00000
    138      27.1914      0.00000
    139      27.3342      0.00000
    140      27.4821      0.00000
    141      27.8190      0.00000

 k-point   147 :       0.5000    0.0000    0.0500
  band No.  band energies     occupation 
      1     -25.4505      2.00000
      2     -25.4455      2.00000
      3     -25.4359      2.00000
      4     -25.4353      2.00000
      5     -25.4059      2.00000
      6     -25.4055      2.00000
      7     -25.3835      2.00000
      8     -25.3828      2.00000
      9     -25.3781      2.00000
     10     -25.3773      2.00000
     11     -12.5938      2.00000
     12     -11.6399      2.00000
     13     -11.4294      2.00000
     14     -11.2472      2.00000
     15     -10.9873      2.00000
     16     -10.9264      2.00000
     17      -6.3543      2.00000
     18      -5.2277      2.00000
     19      -2.6222      2.00000
     20      -2.3689      2.00000
     21      -2.1222      2.00000
     22      -1.6857      2.00000
     23      -1.4877      2.00000
     24      -1.3630      2.00000
     25      -1.1767      2.00000
     26      -1.1420      2.00000
     27      -0.9307      2.00000
     28      -0.8361      2.00000
     29      -0.6888      2.00000
     30      -0.6059      2.00000
     31      -0.5663      2.00000
     32      -0.5420      2.00000
     33      -0.4206      2.00000
     34      -0.3526      2.00000
     35       0.4757      2.00000
     36       0.5255      2.00000
     37       0.5457      2.00000
     38       0.6011      2.00000
     39       0.6486      2.00000
     40       0.6622      2.00000
     41       0.6837      2.00000
     42       0.7526      2.00000
     43       0.9069      2.00000
     44       0.9729      2.00000
     45       1.0700      2.00000
     46       1.2789      2.00000
     47       1.4706      2.00000
     48       1.5210      2.00000
     49       1.6621      2.00000
     50       1.8205      2.00000
     51       2.1684      2.00000
     52       2.3227      2.00000
     53       2.4968      2.00000
     54       3.1146      2.00000
     55       5.1405      0.00000
     56       5.7779      0.00000
     57       6.7131      0.00000
     58       7.0309      0.00000
     59       7.3208      0.00000
     60       7.7365      0.00000
     61       8.2103      0.00000
     62       8.6113      0.00000
     63       8.8802      0.00000
     64       9.2996      0.00000
     65       9.5838      0.00000
     66       9.7049      0.00000
     67      10.0576      0.00000
     68      10.1792      0.00000
     69      10.4562      0.00000
     70      10.6580      0.00000
     71      10.8482      0.00000
     72      11.2711      0.00000
     73      11.5588      0.00000
     74      11.9073      0.00000
     75      12.1004      0.00000
     76      12.4326      0.00000
     77      12.6682      0.00000
     78      13.1210      0.00000
     79      13.3963      0.00000
     80      13.5065      0.00000
     81      13.8947      0.00000
     82      14.2461      0.00000
     83      14.8555      0.00000
     84      15.1750      0.00000
     85      15.3430      0.00000
     86      15.6506      0.00000
     87      15.9074      0.00000
     88      16.2120      0.00000
     89      16.4241      0.00000
     90      16.6985      0.00000
     91      16.9700      0.00000
     92      17.1409      0.00000
     93      17.6441      0.00000
     94      17.8372      0.00000
     95      17.9997      0.00000
     96      18.3409      0.00000
     97      18.4957      0.00000
     98      18.6471      0.00000
     99      18.7209      0.00000
    100      18.9892      0.00000
    101      19.3605      0.00000
    102      19.5081      0.00000
    103      19.7526      0.00000
    104      19.8939      0.00000
    105      20.0144      0.00000
    106      20.2505      0.00000
    107      20.6591      0.00000
    108      21.2434      0.00000
    109      21.4521      0.00000
    110      21.8470      0.00000
    111      21.9765      0.00000
    112      22.2685      0.00000
    113      22.6397      0.00000
    114      22.7305      0.00000
    115      22.9482      0.00000
    116      23.1435      0.00000
    117      23.2732      0.00000
    118      23.4653      0.00000
    119      23.6267      0.00000
    120      23.7113      0.00000
    121      24.0154      0.00000
    122      24.1491      0.00000
    123      24.3123      0.00000
    124      24.7509      0.00000
    125      25.1284      0.00000
    126      25.2874      0.00000
    127      25.4365      0.00000
    128      25.5607      0.00000
    129      25.7060      0.00000
    130      25.8340      0.00000
    131      25.9703      0.00000
    132      26.1166      0.00000
    133      26.3222      0.00000
    134      26.4074      0.00000
    135      26.7029      0.00000
    136      26.8459      0.00000
    137      27.0429      0.00000
    138      27.1699      0.00000
    139      27.3632      0.00000
    140      27.4462      0.00000
    141      27.7117      0.00000

 k-point   148 :       0.5000    0.0000    0.0333
  band No.  band energies     occupation 
      1     -25.4505      2.00000
      2     -25.4455      2.00000
      3     -25.4359      2.00000
      4     -25.4353      2.00000
      5     -25.4059      2.00000
      6     -25.4055      2.00000
      7     -25.3835      2.00000
      8     -25.3828      2.00000
      9     -25.3781      2.00000
     10     -25.3773      2.00000
     11     -12.5961      2.00000
     12     -11.6358      2.00000
     13     -11.4270      2.00000
     14     -11.2514      2.00000
     15     -10.9840      2.00000
     16     -10.9287      2.00000
     17      -6.3579      2.00000
     18      -5.2224      2.00000
     19      -2.6215      2.00000
     20      -2.3693      2.00000
     21      -2.1226      2.00000
     22      -1.6803      2.00000
     23      -1.4884      2.00000
     24      -1.3562      2.00000
     25      -1.1847      2.00000
     26      -1.1451      2.00000
     27      -0.9327      2.00000
     28      -0.8400      2.00000
     29      -0.6886      2.00000
     30      -0.6064      2.00000
     31      -0.5683      2.00000
     32      -0.5432      2.00000
     33      -0.4198      2.00000
     34      -0.3510      2.00000
     35       0.4745      2.00000
     36       0.5273      2.00000
     37       0.5456      2.00000
     38       0.5979      2.00000
     39       0.6501      2.00000
     40       0.6618      2.00000
     41       0.6855      2.00000
     42       0.7510      2.00000
     43       0.9108      2.00000
     44       0.9680      2.00000
     45       1.0614      2.00000
     46       1.2813      2.00000
     47       1.4730      2.00000
     48       1.5165      2.00000
     49       1.6649      2.00000
     50       1.8153      2.00000
     51       2.1733      2.00000
     52       2.3391      2.00000
     53       2.4890      2.00000
     54       3.1050      2.00000
     55       5.1419      0.00000
     56       5.7855      0.00000
     57       6.7307      0.00000
     58       7.0369      0.00000
     59       7.3101      0.00000
     60       7.7473      0.00000
     61       8.1961      0.00000
     62       8.6339      0.00000
     63       8.8878      0.00000
     64       9.3021      0.00000
     65       9.5944      0.00000
     66       9.7080      0.00000
     67      10.0702      0.00000
     68      10.1811      0.00000
     69      10.4621      0.00000
     70      10.6488      0.00000
     71      10.8440      0.00000
     72      11.2616      0.00000
     73      11.5853      0.00000
     74      11.8356      0.00000
     75      12.1093      0.00000
     76      12.4113      0.00000
     77      12.6604      0.00000
     78      13.0843      0.00000
     79      13.4290      0.00000
     80      13.5588      0.00000
     81      13.8533      0.00000
     82      14.2450      0.00000
     83      14.8598      0.00000
     84      15.1778      0.00000
     85      15.3341      0.00000
     86      15.6395      0.00000
     87      15.9062      0.00000
     88      16.2133      0.00000
     89      16.3827      0.00000
     90      16.6887      0.00000
     91      16.9334      0.00000
     92      17.1283      0.00000
     93      17.7196      0.00000
     94      17.8542      0.00000
     95      18.0341      0.00000
     96      18.3549      0.00000
     97      18.5083      0.00000
     98      18.6513      0.00000
     99      18.6843      0.00000
    100      18.9052      0.00000
    101      19.3553      0.00000
    102      19.5078      0.00000
    103      19.7913      0.00000
    104      19.9125      0.00000
    105      20.0389      0.00000
    106      20.2189      0.00000
    107      20.7251      0.00000
    108      21.2184      0.00000
    109      21.3780      0.00000
    110      21.8151      0.00000
    111      21.9606      0.00000
    112      22.2615      0.00000
    113      22.6595      0.00000
    114      22.7480      0.00000
    115      23.0140      0.00000
    116      23.1591      0.00000
    117      23.2945      0.00000
    118      23.4854      0.00000
    119      23.6601      0.00000
    120      23.7675      0.00000
    121      24.0403      0.00000
    122      24.1448      0.00000
    123      24.3207      0.00000
    124      24.6761      0.00000
    125      25.2006      0.00000
    126      25.2967      0.00000
    127      25.4391      0.00000
    128      25.5663      0.00000
    129      25.7220      0.00000
    130      25.8458      0.00000
    131      25.9788      0.00000
    132      26.0874      0.00000
    133      26.2685      0.00000
    134      26.4535      0.00000
    135      26.6767      0.00000
    136      26.8113      0.00000
    137      27.0082      0.00000
    138      27.1629      0.00000
    139      27.3915      0.00000
    140      27.4789      0.00000
    141      27.6223      0.00000

 k-point   149 :       0.5000    0.0000    0.0167
  band No.  band energies     occupation 
      1     -25.4505      2.00000
      2     -25.4454      2.00000
      3     -25.4359      2.00000
      4     -25.4353      2.00000
      5     -25.4059      2.00000
      6     -25.4055      2.00000
      7     -25.3835      2.00000
      8     -25.3828      2.00000
      9     -25.3781      2.00000
     10     -25.3773      2.00000
     11     -12.5975      2.00000
     12     -11.6335      2.00000
     13     -11.4253      2.00000
     14     -11.2541      2.00000
     15     -10.9818      2.00000
     16     -10.9302      2.00000
     17      -6.3601      2.00000
     18      -5.2191      2.00000
     19      -2.6211      2.00000
     20      -2.3695      2.00000
     21      -2.1228      2.00000
     22      -1.6768      2.00000
     23      -1.4892      2.00000
     24      -1.3512      2.00000
     25      -1.1913      2.00000
     26      -1.1461      2.00000
     27      -0.9339      2.00000
     28      -0.8424      2.00000
     29      -0.6885      2.00000
     30      -0.6067      2.00000
     31      -0.5696      2.00000
     32      -0.5440      2.00000
     33      -0.4194      2.00000
     34      -0.3500      2.00000
     35       0.4738      2.00000
     36       0.5285      2.00000
     37       0.5455      2.00000
     38       0.5958      2.00000
     39       0.6512      2.00000
     40       0.6613      2.00000
     41       0.6868      2.00000
     42       0.7499      2.00000
     43       0.9135      2.00000
     44       0.9650      2.00000
     45       1.0559      2.00000
     46       1.2828      2.00000
     47       1.4744      2.00000
     48       1.5136      2.00000
     49       1.6672      2.00000
     50       1.8114      2.00000
     51       2.1765      2.00000
     52       2.3500      2.00000
     53       2.4838      2.00000
     54       3.0987      2.00000
     55       5.1427      0.00000
     56       5.7900      0.00000
     57       6.7419      0.00000
     58       7.0404      0.00000
     59       7.3035      0.00000
     60       7.7539      0.00000
     61       8.1868      0.00000
     62       8.6484      0.00000
     63       8.8923      0.00000
     64       9.3033      0.00000
     65       9.6000      0.00000
     66       9.7108      0.00000
     67      10.0805      0.00000
     68      10.1817      0.00000
     69      10.4600      0.00000
     70      10.6476      0.00000
     71      10.8412      0.00000
     72      11.2564      0.00000
     73      11.6085      0.00000
     74      11.7842      0.00000
     75      12.1147      0.00000
     76      12.3985      0.00000
     77      12.6564      0.00000
     78      13.0600      0.00000
     79      13.4466      0.00000
     80      13.6085      0.00000
     81      13.8142      0.00000
     82      14.2434      0.00000
     83      14.8627      0.00000
     84      15.1798      0.00000
     85      15.3281      0.00000
     86      15.6335      0.00000
     87      15.9058      0.00000
     88      16.2232      0.00000
     89      16.3447      0.00000
     90      16.6879      0.00000
     91      16.9073      0.00000
     92      17.1209      0.00000
     93      17.7727      0.00000
     94      17.8647      0.00000
     95      18.0644      0.00000
     96      18.3518      0.00000
     97      18.5129      0.00000
     98      18.6535      0.00000
     99      18.6750      0.00000
    100      18.8387      0.00000
    101      19.3517      0.00000
    102      19.5088      0.00000
    103      19.8155      0.00000
    104      19.9284      0.00000
    105      20.0478      0.00000
    106      20.2048      0.00000
    107      20.7721      0.00000
    108      21.1966      0.00000
    109      21.3378      0.00000
    110      21.7846      0.00000
    111      21.9489      0.00000
    112      22.2590      0.00000
    113      22.6692      0.00000
    114      22.7544      0.00000
    115      23.0759      0.00000
    116      23.1573      0.00000
    117      23.3060      0.00000
    118      23.4833      0.00000
    119      23.6967      0.00000
    120      23.8328      0.00000
    121      24.0100      0.00000
    122      24.1713      0.00000
    123      24.3260      0.00000
    124      24.6102      0.00000
    125      25.2625      0.00000
    126      25.3182      0.00000
    127      25.4062      0.00000
    128      25.5804      0.00000
    129      25.7004      0.00000
    130      25.9026      0.00000
    131      25.9753      0.00000
    132      26.0835      0.00000
    133      26.2124      0.00000
    134      26.4532      0.00000
    135      26.6679      0.00000
    136      26.8380      0.00000
    137      26.9583      0.00000
    138      27.1702      0.00000
    139      27.3491      0.00000
    140      27.4950      0.00000
    141      27.6589      0.00000

 k-point   150 :       0.5000    0.0000   -0.0000
  band No.  band energies     occupation 
      1     -25.4535      2.00000
      2     -25.4485      2.00000
      3     -25.4389      2.00000
      4     -25.4383      2.00000
      5     -25.4089      2.00000
      6     -25.4085      2.00000
      7     -25.3865      2.00000
      8     -25.3858      2.00000
      9     -25.3811      2.00000
     10     -25.3803      2.00000
     11     -12.6010      2.00000
     12     -11.6357      2.00000
     13     -11.4277      2.00000
     14     -11.2581      2.00000
     15     -10.9841      2.00000
     16     -10.9338      2.00000
     17      -6.3638      2.00000
     18      -5.2211      2.00000
     19      -2.6240      2.00000
     20      -2.3725      2.00000
     21      -2.1259      2.00000
     22      -1.6786      2.00000
     23      -1.4925      2.00000
     24      -1.3523      2.00000
     25      -1.1968      2.00000
     26      -1.1492      2.00000
     27      -0.9373      2.00000
     28      -0.8463      2.00000
     29      -0.6915      2.00000
     30      -0.6098      2.00000
     31      -0.5730      2.00000
     32      -0.5473      2.00000
     33      -0.4223      2.00000
     34      -0.3527      2.00000
     35       0.4706      2.00000
     36       0.5259      2.00000
     37       0.5424      2.00000
     38       0.5921      2.00000
     39       0.6486      2.00000
     40       0.6581      2.00000
     41       0.6842      2.00000
     42       0.7466      2.00000
     43       0.9115      2.00000
     44       0.9610      2.00000
     45       1.0510      2.00000
     46       1.2803      2.00000
     47       1.4718      2.00000
     48       1.5095      2.00000
     49       1.6651      2.00000
     50       1.8070      2.00000
     51       2.1745      2.00000
     52       2.3508      2.00000
     53       2.4790      2.00000
     54       3.0935      2.00000
     55       5.1430      0.00000
     56       5.7915      0.00000
     57       6.7457      0.00000
     58       7.0416      0.00000
     59       7.3013      0.00000
     60       7.7562      0.00000
     61       8.1835      0.00000
     62       8.6535      0.00000
     63       8.8938      0.00000
     64       9.3036      0.00000
     65       9.6017      0.00000
     66       9.7119      0.00000
     67      10.0847      0.00000
     68      10.1817      0.00000
     69      10.4581      0.00000
     70      10.6482      0.00000
     71      10.8401      0.00000
     72      11.2550      0.00000
     73      11.6188      0.00000
     74      11.7642      0.00000
     75      12.1164      0.00000
     76      12.3944      0.00000
     77      12.6552      0.00000
     78      13.0515      0.00000
     79      13.4522      0.00000
     80      13.6318      0.00000
     81      13.7950      0.00000
     82      14.2428      0.00000
     83      14.8636      0.00000
     84      15.1805      0.00000
     85      15.3260      0.00000
     86      15.6317      0.00000
     87      15.9057      0.00000
     88      16.2306      0.00000
     89      16.3273      0.00000
     90      16.6888      0.00000
     91      16.8977      0.00000
     92      17.1185      0.00000
     93      17.7917      0.00000
     94      17.8681      0.00000
     95      18.0785      0.00000
     96      18.3451      0.00000
     97      18.5139      0.00000
     98      18.6549      0.00000
     99      18.6783      0.00000
    100      18.8104      0.00000
    101      19.3505      0.00000
    102      19.5094      0.00000
    103      19.8236      0.00000
    104      19.9355      0.00000
    105      20.0477      0.00000
    106      20.2022      0.00000
    107      20.7899      0.00000
    108      21.1847      0.00000
    109      21.3282      0.00000
    110      21.7715      0.00000
    111      21.9449      0.00000
    112      22.2585      0.00000
    113      22.6723      0.00000
    114      22.7556      0.00000
    115      23.1094      0.00000
    116      23.1456      0.00000
    117      23.3101      0.00000
    118      23.4794      0.00000
    119      23.7127      0.00000
    120      23.8676      0.00000
    121      23.9870      0.00000
    122      24.1852      0.00000
    123      24.3240      0.00000
    124      24.5855      0.00000
    125      25.2873      0.00000
    126      25.3514      0.00000
    127      25.3649      0.00000
    128      25.5927      0.00000
    129      25.6816      0.00000
    130      25.9381      0.00000
    131      25.9622      0.00000
    132      26.1057      0.00000
    133      26.1732      0.00000
    134      26.4406      0.00000
    135      26.6679      0.00000
    136      26.8854      0.00000
    137      26.9128      0.00000
    138      27.1809      0.00000
    139      27.3176      0.00000
    140      27.4832      0.00000
    141      27.7570      0.00000


--------------------------------------------------------------------------------------------------------


 soft charge-density along one line, spin component           1
         0         1         2         3         4         5         6         7         8         9
 total charge-density along one line

 pseudopotential strength for first ion, spin component:           1
 -1.673  -0.003   0.000  -0.004   0.000  -5.936   0.002  -0.001
 -0.003  -1.678  -0.005  -0.003  -0.002   0.002  -5.933   0.002
  0.000  -0.005  -1.665  -0.003  -0.016  -0.001   0.002  -5.942
 -0.004  -0.003  -0.003  -1.651  -0.005   0.002   0.002   0.002
  0.000  -0.002  -0.016  -0.005  -1.674  -0.000   0.000   0.011
 -5.936   0.002  -0.001   0.002  -0.000  11.316  -0.001   0.001
  0.002  -5.933   0.002   0.002   0.000  -0.001  11.314  -0.001
 -0.001   0.002  -5.942   0.002   0.011   0.001  -0.001  11.320
  0.002   0.002   0.002  -5.952   0.004  -0.001  -0.001  -0.001
 -0.000   0.000   0.011   0.004  -5.936   0.000   0.001  -0.008
  0.001  -0.001  -0.001   0.001  -0.002  -0.001   0.001   0.000
  0.001  -0.002  -0.001   0.001  -0.004  -0.001   0.001   0.001
  0.008  -0.007   0.001   0.000   0.005  -0.004   0.003  -0.000
  0.000  -0.006   0.002   0.003  -0.000  -0.000   0.003  -0.001
 -0.003   0.000  -0.002  -0.007  -0.002   0.001  -0.000   0.001
  0.012  -0.010   0.001   0.001   0.007  -0.005   0.003  -0.000
  0.001  -0.008   0.006   0.004  -0.000  -0.000   0.003  -0.001
 -0.003   0.001  -0.002  -0.010  -0.005   0.000  -0.000   0.001
 total augmentation occupancy for first ion, spin component:           1
  1.964   0.001  -0.002  -0.003   0.000  -0.011  -0.000   0.002   0.003  -0.000   0.002  -0.001  -0.028  -0.006  -0.008  -0.005
  0.001   1.966  -0.007  -0.004  -0.008  -0.000  -0.010   0.006   0.003   0.007   0.002   0.003   0.021   0.016   0.001   0.002
 -0.002  -0.007   1.964  -0.001  -0.003   0.002   0.006  -0.008   0.001   0.002   0.005  -0.003   0.007  -0.024  -0.001   0.004
 -0.003  -0.004  -0.001   1.971  -0.001   0.003   0.003   0.001  -0.013   0.001   0.007  -0.001  -0.004   0.001   0.017  -0.000
  0.000  -0.008  -0.003  -0.001   1.964  -0.000   0.007   0.002   0.001  -0.009   0.002  -0.003  -0.012   0.002   0.024   0.004
 -0.011  -0.000   0.002   0.003  -0.000   0.017  -0.008  -0.001  -0.002  -0.002   0.002  -0.000   0.046   0.003   0.010  -0.005
 -0.000  -0.010   0.006   0.003   0.007  -0.008   0.012  -0.001  -0.001  -0.002  -0.007   0.001  -0.033  -0.005   0.001   0.004
  0.002   0.006  -0.008   0.001   0.002  -0.001  -0.001   0.025  -0.000  -0.001   0.006  -0.001  -0.008   0.062   0.003   0.001
  0.003   0.003   0.001  -0.013   0.001  -0.002  -0.001  -0.000   0.012   0.009   0.004  -0.001   0.002  -0.001  -0.034  -0.000
 -0.000   0.007   0.002   0.001  -0.009  -0.002  -0.002  -0.001   0.009   0.017   0.002  -0.000   0.001  -0.002  -0.049  -0.000
  0.002   0.002   0.005   0.007   0.002   0.002  -0.007   0.006   0.004   0.002   1.956  -0.361   0.029   0.019  -0.012  -0.004
 -0.001   0.003  -0.003  -0.001  -0.003  -0.000   0.001  -0.001  -0.001  -0.000  -0.361   0.070  -0.004  -0.002   0.001   0.001
 -0.028   0.021   0.007  -0.004  -0.012   0.046  -0.033  -0.008   0.002   0.001   0.029  -0.004   0.218  -0.008   0.004  -0.026
 -0.006   0.016  -0.024   0.001   0.002   0.003  -0.005   0.062  -0.001  -0.002   0.019  -0.002  -0.008   0.235   0.004   0.001
 -0.008   0.001  -0.001   0.017   0.024   0.010   0.001   0.003  -0.034  -0.049  -0.012   0.001   0.004   0.004   0.227  -0.000
 -0.005   0.002   0.004  -0.000   0.004  -0.005   0.004   0.001  -0.000  -0.000  -0.004   0.001  -0.026   0.001  -0.000   0.003
 -0.000  -0.003  -0.013   0.002   0.000  -0.000   0.000  -0.007  -0.000   0.000  -0.003   0.000   0.001  -0.027  -0.000  -0.000
 -0.006  -0.000  -0.002   0.002   0.010  -0.001  -0.000  -0.000   0.004   0.006   0.002  -0.000   0.000  -0.000  -0.026  -0.000


------------------------ aborting loop because EDIFF is reached ----------------------------------------



 optimized coefficients for linear combined projectors, energy window     -28.16     31.35
 species Cu NT=   1 L=   2     0.969    -0.446
 species Cu NT=   1 L=   0     0.586     0.946
 species Cu NT=   1 L=   1     0.788     0.930
 species Ge NT=   2 L=   2     0.997    -0.324
 species Ge NT=   2 L=   0     0.807     0.960
 species Ge NT=   2 L=   1     0.607     0.951
 species Se NT=   3 L=   0     0.866     0.962
 species Se NT=   3 L=   1     0.719     0.953
 species Se NT=   3 L=   2     0.792



 total charge

# of ion       s       p       d       tot
------------------------------------------
    1        0.340   0.319   9.364  10.023
    2        0.340   0.319   9.364  10.023
    3        0.337   0.311   9.367  10.015
    4        0.337   0.311   9.367  10.015
    5        1.112   1.093  10.099  12.304
    6        1.112   1.093  10.099  12.304
    7        1.459   2.418   0.054   3.931
    8        1.459   2.418   0.054   3.931
    9        1.457   2.424   0.054   3.936
   10        1.457   2.424   0.054   3.936
   11        1.472   2.368   0.048   3.888
   12        1.472   2.368   0.048   3.888
--------------------------------------------------
tot         12.353  17.866  57.974  88.193

    CHARGE:  cpu time      0.4636: real time      0.4691
    FORLOC:  cpu time      0.0048: real time      0.0049
    FORHF :  cpu time   5033.0663: real time   5059.2395
    FORNL :  cpu time      3.2148: real time      3.2257
    FORCOR:  cpu time      0.6802: real time      0.6831
    FORHAR:  cpu time      0.0143: real time      0.0144
    MIXING:  cpu time      0.0005: real time      0.0005
    OFIELD:  cpu time      0.0000: real time      0.0001

 VOLUME and BASIS-vectors are now :
 -----------------------------------------------------------------------------
  energy-cutoff  :      500.00
  volume of cell :      262.02
      direct lattice vectors                 reciprocal lattice vectors
     3.403488257  5.959540085  0.000000000     0.146908102  0.083899092  0.049463472
    -3.403488257  5.959540085  0.000000000    -0.146908102  0.083899092 -0.049463472
    -2.174765060  0.000000000  6.459122124     0.000000000 -0.000000000  0.154819801

  length of vectors
     6.862933071  6.862933071  6.815413537     0.176260271  0.176260271  0.154819801


 FORCES acting on ions
    electron-ion (+dipol)            ewald-force                    non-local-force                 convergence-correction
 -----------------------------------------------------------------------------------------------
   -.804E+01 -.621E+01 0.835E+01   0.748E+01 0.732E+01 -.754E+01   0.535E+00 -.110E+01 -.805E+00   0.789E-05 0.834E-05 0.146E-04
   -.804E+01 0.621E+01 0.835E+01   0.748E+01 -.732E+01 -.754E+01   0.535E+00 0.110E+01 -.805E+00   0.585E-05 -.104E-04 0.155E-04
   0.324E+02 -.525E+01 0.133E+02   -.306E+02 0.512E+01 -.126E+02   -.178E+01 0.108E+00 -.723E+00   -.230E-04 0.149E-03 0.309E-04
   0.324E+02 0.525E+01 0.133E+02   -.306E+02 -.512E+01 -.126E+02   -.178E+01 -.108E+00 -.723E+00   -.233E-04 -.146E-03 0.288E-04
   -.248E+02 0.796E+01 -.264E+02   0.230E+02 -.466E+01 0.236E+02   0.170E+01 -.304E+01 0.261E+01   0.311E-03 -.499E-03 0.268E-03
   -.248E+02 -.796E+01 -.264E+02   0.230E+02 0.466E+01 0.236E+02   0.170E+01 0.304E+01 0.261E+01   0.311E-03 0.499E-03 0.264E-03
   0.584E+02 -.113E+01 0.101E+02   -.604E+02 0.113E+01 -.106E+02   0.172E+01 -.429E-02 0.425E+00   -.250E-03 0.984E-04 0.681E-04
   0.584E+02 0.113E+01 0.101E+02   -.604E+02 -.113E+01 -.106E+02   0.172E+01 0.429E-02 0.425E+00   -.250E-03 -.982E-04 0.682E-04
   -.242E+02 0.283E+02 0.111E+02   0.251E+02 -.299E+02 -.118E+02   -.744E+00 0.131E+01 0.598E+00   0.273E-03 0.100E-03 -.161E-03
   -.242E+02 -.283E+02 0.111E+02   0.251E+02 0.299E+02 -.118E+02   -.744E+00 -.131E+01 0.598E+00   0.273E-03 -.101E-03 -.160E-03
   -.343E+02 0.200E+02 -.176E+02   0.354E+02 -.216E+02 0.189E+02   -.102E+01 0.136E+01 -.114E+01   -.476E-04 0.113E-03 0.327E-04
   -.343E+02 -.200E+02 -.176E+02   0.354E+02 0.216E+02 0.189E+02   -.102E+01 -.136E+01 -.114E+01   -.472E-04 -.113E-03 0.325E-04
 -----------------------------------------------------------------------------------------------
   -.106E+01 -.161E-06 -.223E+01   0.497E-13 0.178E-13 -.497E-13   0.824E+00 -.444E-15 0.192E+01   0.540E-03 0.778E-06 0.502E-03


 POSITION                                       TOTAL-FORCE (eV/Angst)
 -----------------------------------------------------------------------------------
     -0.55808      8.90599      0.03720        -0.010924     -0.019609     -0.005564
     -1.64546      3.01309      3.26676        -0.010924      0.019609     -0.005564
     -1.55463     10.88987      3.29081         0.000492     -0.004729     -0.015811
     -0.46724      1.02921      0.06125         0.000492      0.004729     -0.015811
     -1.69819      6.98279      3.13985        -0.035325      0.004481      0.032957
     -2.78557      4.93629      6.36941        -0.035325     -0.004481      0.032957
     -0.54266      1.00640      2.48129         0.037263     -0.003596      0.033210
     -1.63005     10.91268      5.71085         0.037263      0.003596      0.033210
     -1.60319      3.03581      5.67338         0.015327     -0.032969     -0.013672
     -0.51581      8.88327      2.44382         0.015327      0.032969     -0.013672
     -0.48212      4.99171      2.38555        -0.006832     -0.032811     -0.031120
     -1.56950      6.92737      5.61511        -0.006832      0.032811     -0.031120
 -----------------------------------------------------------------------------------
    total drift:                               -0.000051      0.000001      0.001625


--------------------------------------------------------------------------------------------------------



  FREE ENERGIE OF THE ION-ELECTRON SYSTEM (eV)
  ---------------------------------------------------
  free  energy   TOTEN  =       -56.18984042 eV

  energy  without entropy=      -56.18984042  energy(sigma->0) =      -56.18984042



--------------------------------------------------------------------------------------------------------


    POTLOK:  cpu time      0.6215: real time      0.7012


--------------------------------------------------------------------------------------------------------


 writing wavefunctions
     LOOP+:  cpu time 157245.6787: real time 158156.9414
    4ORBIT:  cpu time      0.0000: real time      0.0000

 optimized coefficients for linear combined projectors, energy window     -28.16     31.35
 species Cu NT=   1 L=   2     0.969    -0.446
 species Cu NT=   1 L=   0     0.586     0.946
 species Cu NT=   1 L=   1     0.788     0.930
 species Ge NT=   2 L=   2     0.997    -0.324
 species Ge NT=   2 L=   0     0.807     0.960
 species Ge NT=   2 L=   1     0.607     0.951
 species Se NT=   3 L=   0     0.866     0.962
 species Se NT=   3 L=   1     0.719     0.953
 species Se NT=   3 L=   2     0.792



 total charge

# of ion       s       p       d       tot
------------------------------------------
    1        0.340   0.319   9.364  10.023
    2        0.340   0.319   9.364  10.023
    3        0.337   0.311   9.367  10.015
    4        0.337   0.311   9.367  10.015
    5        1.112   1.093  10.099  12.304
    6        1.112   1.093  10.099  12.304
    7        1.459   2.418   0.054   3.931
    8        1.459   2.418   0.054   3.931
    9        1.457   2.424   0.054   3.936
   10        1.457   2.424   0.054   3.936
   11        1.472   2.368   0.048   3.888
   12        1.472   2.368   0.048   3.888
--------------------------------------------------
tot         12.353  17.866  57.974  88.193


 total amount of memory used by VASP MPI-rank0   366323. kBytes
=======================================================================

   base      :      30000. kBytes
   nonl-proj :     110551. kBytes
   fftplans  :       4335. kBytes
   grid      :       7156. kBytes
   one-center:         46. kBytes
   HF        :        194. kBytes
   nonlr-proj:       1589. kBytes
   wavefun   :     197625. kBytes
   fock_wrk  :      14827. kBytes

  
  
 General timing and accounting informations for this job:
 ========================================================
  
                  Total CPU time used (sec):   157278.547
                            User time (sec):   142492.685
                          System time (sec):    14785.858
                         Elapsed time (sec):   158199.247
  
                   Maximum memory used (kb):      866012.
                   Average memory used (kb):          N/A
  
                          Minor page faults:        46576
                          Major page faults:            2
                 Voluntary context switches:        26086
