Cu4 Ge2 S6                              
   1.0000000000000000     
     3.2282483910686497    5.6614199357809643    0.0222972666156423
    -3.2282483910686497    5.6614199357809643   -0.0222972666156423
    -2.0904694075647581    0.0000000000000000    6.0972127209668603
  Cu/0e71e558f37  Ge_d/944b26c40  S/0fc7481fb069
               4               2               6
Direct
  0.6273930236330622  0.8684884102302785  0.1409267805566414
  0.1315115897697215  0.3726069763669377  0.6409267805566413
  0.9737011963462094  0.2000066176537620  0.1401926129138586
  0.7999933823462376  0.0262988036537905  0.6401926129138585
  0.2754559514449293  0.5524108346006275  0.1191682584324985
  0.4475891653993728  0.7245440485550708  0.6191682584324986
  0.7444902565719149  0.7408572782247175  0.5162485974748098
  0.2591427217752825  0.2555097434280851  0.0162485974748099
  0.0885326111558719  0.0792997790506747  0.5186699020803588
  0.9207002209493250  0.9114673888441280  0.0186699020803587
  0.5787655926526470  0.5792837320445703  0.9997938485418280
  0.4207162679554294  0.4212344073473524  0.4997938485418280

  0.00000000E+00  0.00000000E+00  0.00000000E+00
  0.00000000E+00  0.00000000E+00  0.00000000E+00
  0.00000000E+00  0.00000000E+00  0.00000000E+00
  0.00000000E+00  0.00000000E+00  0.00000000E+00
  0.00000000E+00  0.00000000E+00  0.00000000E+00
  0.00000000E+00  0.00000000E+00  0.00000000E+00
  0.00000000E+00  0.00000000E+00  0.00000000E+00
  0.00000000E+00  0.00000000E+00  0.00000000E+00
  0.00000000E+00  0.00000000E+00  0.00000000E+00
  0.00000000E+00  0.00000000E+00  0.00000000E+00
  0.00000000E+00  0.00000000E+00  0.00000000E+00
  0.00000000E+00  0.00000000E+00  0.00000000E+00
