Cu8 Ge4 Se12                            
   1.0000000000000000     
     6.8069765135663491    0.0000000000000000    0.0000000000000000
     0.0000000000000000   11.9190801698664917    0.0000000000000000
    -2.1747650599535131    0.0000000000000000    6.4591221236745602
  Cu/0e71e558f37  Ge_d/944b26c40  Se/eabb916e6b4
               8               4              12
Direct
  0.9198538516884156  0.7472043301126803  0.0057588758636200
  0.4198538516884156  0.7527956698873197  0.5057588758636200
  0.9343875960001995  0.9136500136005239  0.5094819460143754
  0.4343875960001995  0.5863499863994761  0.0094819460143754
  0.4198538516884156  0.2472043301126803  0.0057588758636200
  0.9198538516884156  0.2527956698873197  0.5057588758636200
  0.4343875960001995  0.4136500136005239  0.5094819460143754
  0.9343875960001995  0.0863499863994761  0.0094819460143754
  0.9058299913501173  0.5858493369277440  0.4861107073377724
  0.4058299913501173  0.9141506630722560  0.9861107073377724
  0.4058299913501173  0.0858493369277440  0.4861107073377724
  0.9058299913501173  0.4141506630722560  0.9861107073377724
  0.5430116127009939  0.5844358970915451  0.3841527191939775
  0.0430116127009939  0.9155641029084549  0.8841527191939775
  0.5451036142731880  0.7547021156974125  0.8783516417464838
  0.0451036142731880  0.7452978843025875  0.3783516417464838
  0.5471697839871155  0.9187997160009758  0.3693296738437652
  0.0471697839871084  0.5812002839990242  0.8693296738437652
  0.0430116127009939  0.0844358970915451  0.3841527191939775
  0.5430116127009939  0.4155641029084549  0.8841527191939775
  0.0451036142731880  0.2547021156974125  0.8783516417464838
  0.5451036142731880  0.2452978843025875  0.3783516417464838
  0.0471697839871084  0.4187997160009758  0.3693296738437652
  0.5471697839871155  0.0812002839990313  0.8693296738437652

  0.00000000E+00  0.00000000E+00  0.00000000E+00
  0.00000000E+00  0.00000000E+00  0.00000000E+00
  0.00000000E+00  0.00000000E+00  0.00000000E+00
  0.00000000E+00  0.00000000E+00  0.00000000E+00
  0.00000000E+00  0.00000000E+00  0.00000000E+00
  0.00000000E+00  0.00000000E+00  0.00000000E+00
  0.00000000E+00  0.00000000E+00  0.00000000E+00
  0.00000000E+00  0.00000000E+00  0.00000000E+00
  0.00000000E+00  0.00000000E+00  0.00000000E+00
  0.00000000E+00  0.00000000E+00  0.00000000E+00
  0.00000000E+00  0.00000000E+00  0.00000000E+00
  0.00000000E+00  0.00000000E+00  0.00000000E+00
  0.00000000E+00  0.00000000E+00  0.00000000E+00
  0.00000000E+00  0.00000000E+00  0.00000000E+00
  0.00000000E+00  0.00000000E+00  0.00000000E+00
  0.00000000E+00  0.00000000E+00  0.00000000E+00
  0.00000000E+00  0.00000000E+00  0.00000000E+00
  0.00000000E+00  0.00000000E+00  0.00000000E+00
  0.00000000E+00  0.00000000E+00  0.00000000E+00
  0.00000000E+00  0.00000000E+00  0.00000000E+00
  0.00000000E+00  0.00000000E+00  0.00000000E+00
  0.00000000E+00  0.00000000E+00  0.00000000E+00
  0.00000000E+00  0.00000000E+00  0.00000000E+00
  0.00000000E+00  0.00000000E+00  0.00000000E+00
