   24   24    1    1
  0.2183530E+02  0.6806977E-09  0.1191908E-08  0.6815414E-09  0.5000000E-15
   1.0000000000000000E-004
  CAR 
 unknown system                          
    216     75    141

  0.1262379E-14  0.1262379E-14  0.1262379E-14  0.5102041E-02
      1        -25.456175   1.000000
      2        -25.456130   1.000000
      3        -25.451007   1.000000
      4        -25.450999   1.000000
      5        -25.441410   1.000000
      6        -25.441401   1.000000
      7        -25.440959   1.000000
      8        -25.440936   1.000000
      9        -25.412091   1.000000
     10        -25.412058   1.000000
     11        -25.411717   1.000000
     12        -25.411688   1.000000
     13        -25.389516   1.000000
     14        -25.389506   1.000000
     15        -25.388896   1.000000
     16        -25.388883   1.000000
     17        -25.384181   1.000000
     18        -25.384170   1.000000
     19        -25.383523   1.000000
     20        -25.383498   1.000000
     21        -12.864247   1.000000
     22        -12.602565   1.000000
     23        -11.847472   1.000000
     24        -11.550323   1.000000
     25        -11.391904   1.000000
     26        -11.377320   1.000000
     27        -11.150988   1.000000
     28        -11.137961   1.000000
     29        -10.962750   1.000000
     30        -10.830796   1.000000
     31        -10.825305   1.000000
     32        -10.793809   1.000000
     33         -6.482506   1.000000
     34         -6.459507   1.000000
     35         -5.578231   1.000000
     36         -5.413289   1.000000
     37         -2.894674   1.000000
     38         -2.476744   1.000000
     39         -2.456596   1.000000
     40         -2.314673   1.000000
     41         -2.231257   1.000000
     42         -2.228711   1.000000
     43         -2.116724   1.000000
     44         -1.948519   1.000000
     45         -1.767175   1.000000
     46         -1.482068   1.000000
     47         -1.376323   1.000000
     48         -1.317116   1.000000
     49         -1.310219   1.000000
     50         -1.184160   1.000000
     51         -1.065299   1.000000
     52         -1.031857   1.000000
     53         -0.957118   1.000000
     54         -0.736961   1.000000
     55         -0.665821   1.000000
     56         -0.654287   1.000000
     57         -0.651246   1.000000
     58         -0.626761   1.000000
     59         -0.622089   1.000000
     60         -0.595848   1.000000
     61         -0.591295   1.000000
     62         -0.537559   1.000000
     63         -0.528280   1.000000
     64         -0.408302   1.000000
     65         -0.407891   1.000000
     66         -0.407864   1.000000
     67         -0.405967   1.000000
     68         -0.226326   1.000000
     69          0.487864   1.000000
     70          0.514652   1.000000
     71          0.537607   1.000000
     72          0.569368   1.000000
     73          0.572434   1.000000
     74          0.601062   1.000000
     75          0.603375   1.000000
     76          0.609581   1.000000
     77          0.632213   1.000000
     78          0.641491   1.000000
     79          0.647767   1.000000
     80          0.667777   1.000000
     81          0.690559   1.000000
     82          0.698738   1.000000
     83          0.702447   1.000000
     84          0.703393   1.000000
     85          0.732779   1.000000
     86          0.915218   1.000000
     87          1.001332   1.000000
     88          1.090217   1.000000
     89          1.097512   1.000000
     90          1.114193   1.000000
     91          1.118967   1.000000
     92          1.173323   1.000000
     93          1.234275   1.000000
     94          1.459463   1.000000
     95          1.470606   1.000000
     96          1.740320   1.000000
     97          1.777691   1.000000
     98          1.934082   1.000000
     99          1.942843   1.000000
    100          2.024886   1.000000
    101          2.322724   1.000000
    102          2.474541   1.000000
    103          2.617001   1.000000
    104          3.020163   1.000000
    105          3.289806   1.000000
    106          3.305025   1.000000
    107          3.327515   1.000000
    108          3.479221   1.000000
    109          4.079927   0.000000
    110          4.525682   0.000000
    111          4.991863   0.000000
    112          5.530495   0.000000
    113          5.934965   0.000000
    114          6.440882   0.000000
    115          6.770468   0.000000
    116          7.032507   0.000000
    117          7.341491   0.000000
    118          7.421799   0.000000
    119          7.602309   0.000000
    120          7.718318   0.000000
    121          7.879972   0.000000
    122          8.125482   0.000000
    123          8.329880   0.000000
    124          8.438352   0.000000
    125          8.582684   0.000000
    126          8.747449   0.000000
    127          9.115850   0.000000
    128          9.228570   0.000000
    129          9.547329   0.000000
    130          9.555613   0.000000
    131          9.643078   0.000000
    132          9.684510   0.000000
    133          9.727680   0.000000
    134          9.791308   0.000000
    135         10.109238   0.000000
    136         10.194524   0.000000
    137         10.611436   0.000000
    138         10.687888   0.000000
    139         10.760392   0.000000
    140         10.823234   0.000000
    141         11.287531   0.000000

  0.1428571E+00  0.1262379E-14  0.1261439E-14  0.1020408E-01
      1        -25.456183   1.000000
      2        -25.456144   1.000000
      3        -25.451015   1.000000
      4        -25.451006   1.000000
      5        -25.441415   1.000000
      6        -25.441403   1.000000
      7        -25.440967   1.000000
      8        -25.440950   1.000000
      9        -25.412092   1.000000
     10        -25.412066   1.000000
     11        -25.411719   1.000000
     12        -25.411699   1.000000
     13        -25.389530   1.000000
     14        -25.389519   1.000000
     15        -25.388906   1.000000
     16        -25.388897   1.000000
     17        -25.384196   1.000000
     18        -25.384187   1.000000
     19        -25.383526   1.000000
     20        -25.383504   1.000000
     21        -12.833265   1.000000
     22        -12.589740   1.000000
     23        -11.818929   1.000000
     24        -11.538566   1.000000
     25        -11.392137   1.000000
     26        -11.384749   1.000000
     27        -11.200731   1.000000
     28        -11.167041   1.000000
     29        -10.955857   1.000000
     30        -10.854548   1.000000
     31        -10.849677   1.000000
     32        -10.819183   1.000000
     33         -6.460124   1.000000
     34         -6.442773   1.000000
     35         -5.522796   1.000000
     36         -5.354782   1.000000
     37         -2.863416   1.000000
     38         -2.438615   1.000000
     39         -2.415662   1.000000
     40         -2.352702   1.000000
     41         -2.206128   1.000000
     42         -2.161463   1.000000
     43         -2.123088   1.000000
     44         -1.969138   1.000000
     45         -1.741053   1.000000
     46         -1.614414   1.000000
     47         -1.487435   1.000000
     48         -1.318594   1.000000
     49         -1.219533   1.000000
     50         -1.197476   1.000000
     51         -0.947670   1.000000
     52         -0.921957   1.000000
     53         -0.917343   1.000000
     54         -0.785576   1.000000
     55         -0.696094   1.000000
     56         -0.669667   1.000000
     57         -0.665332   1.000000
     58         -0.646010   1.000000
     59         -0.644901   1.000000
     60         -0.599710   1.000000
     61         -0.559871   1.000000
     62         -0.548501   1.000000
     63         -0.538903   1.000000
     64         -0.438667   1.000000
     65         -0.428250   1.000000
     66         -0.411277   1.000000
     67         -0.406844   1.000000
     68         -0.244791   1.000000
     69          0.490244   1.000000
     70          0.515965   1.000000
     71          0.535521   1.000000
     72          0.564204   1.000000
     73          0.583969   1.000000
     74          0.597933   1.000000
     75          0.601508   1.000000
     76          0.607449   1.000000
     77          0.621462   1.000000
     78          0.628567   1.000000
     79          0.643185   1.000000
     80          0.644913   1.000000
     81          0.686689   1.000000
     82          0.690032   1.000000
     83          0.706965   1.000000
     84          0.736357   1.000000
     85          0.781911   1.000000
     86          0.953901   1.000000
     87          0.967177   1.000000
     88          0.998104   1.000000
     89          1.035390   1.000000
     90          1.113201   1.000000
     91          1.218604   1.000000
     92          1.226575   1.000000
     93          1.306462   1.000000
     94          1.369266   1.000000
     95          1.496958   1.000000
     96          1.783175   1.000000
     97          1.786619   1.000000
     98          1.807560   1.000000
     99          1.948156   1.000000
    100          2.097594   1.000000
    101          2.241194   1.000000
    102          2.272002   1.000000
    103          2.672694   1.000000
    104          2.851485   1.000000
    105          2.937743   1.000000
    106          3.135516   1.000000
    107          3.250048   1.000000
    108          3.437900   1.000000
    109          4.476253   0.000000
    110          4.594176   0.000000
    111          5.222806   0.000000
    112          5.582428   0.000000
    113          6.052613   0.000000
    114          6.680783   0.000000
    115          6.892178   0.000000
    116          6.935021   0.000000
    117          7.351584   0.000000
    118          7.457205   0.000000
    119          7.543583   0.000000
    120          7.653734   0.000000
    121          7.747908   0.000000
    122          7.780270   0.000000
    123          8.277299   0.000000
    124          8.506116   0.000000
    125          8.525986   0.000000
    126          8.840211   0.000000
    127          9.321187   0.000000
    128          9.326435   0.000000
    129          9.373728   0.000000
    130          9.575121   0.000000
    131          9.700516   0.000000
    132          9.798750   0.000000
    133          9.958568   0.000000
    134         10.042739   0.000000
    135         10.138813   0.000000
    136         10.438527   0.000000
    137         10.503989   0.000000
    138         10.671598   0.000000
    139         10.807744   0.000000
    140         10.929249   0.000000
    141         11.027661   0.000000

  0.2857143E+00  0.1262379E-14  0.1274269E-14  0.1020408E-01
      1        -25.456171   1.000000
      2        -25.456147   1.000000
      3        -25.451013   1.000000
      4        -25.451003   1.000000
      5        -25.441416   1.000000
      6        -25.441410   1.000000
      7        -25.440963   1.000000
      8        -25.440951   1.000000
      9        -25.412082   1.000000
     10        -25.412064   1.000000
     11        -25.411723   1.000000
     12        -25.411713   1.000000
     13        -25.389527   1.000000
     14        -25.389521   1.000000
     15        -25.388913   1.000000
     16        -25.388906   1.000000
     17        -25.384200   1.000000
     18        -25.384186   1.000000
     19        -25.383523   1.000000
     20        -25.383505   1.000000
     21        -12.750348   1.000000
     22        -12.567284   1.000000
     23        -11.739810   1.000000
     24        -11.515255   1.000000
     25        -11.406489   1.000000
     26        -11.394245   1.000000
     27        -11.303763   1.000000
     28        -11.249150   1.000000
     29        -10.943607   1.000000
     30        -10.919341   1.000000
     31        -10.884685   1.000000
     32        -10.881569   1.000000
     33         -6.410975   1.000000
     34         -6.404424   1.000000
     35         -5.388040   1.000000
     36         -5.239392   1.000000
     37         -2.766369   1.000000
     38         -2.408453   1.000000
     39         -2.385112   1.000000
     40         -2.312085   1.000000
     41         -2.179568   1.000000
     42         -2.145267   1.000000
     43         -1.969793   1.000000
     44         -1.918060   1.000000
     45         -1.750701   1.000000
     46         -1.714979   1.000000
     47         -1.572124   1.000000
     48         -1.322152   1.000000
     49         -1.302897   1.000000
     50         -1.127081   1.000000
     51         -0.951697   1.000000
     52         -0.829841   1.000000
     53         -0.803420   1.000000
     54         -0.795426   1.000000
     55         -0.776647   1.000000
     56         -0.768600   1.000000
     57         -0.665414   1.000000
     58         -0.665345   1.000000
     59         -0.620906   1.000000
     60         -0.611279   1.000000
     61         -0.606524   1.000000
     62         -0.534258   1.000000
     63         -0.531598   1.000000
     64         -0.492541   1.000000
     65         -0.477688   1.000000
     66         -0.426995   1.000000
     67         -0.391405   1.000000
     68         -0.287016   1.000000
     69          0.498604   1.000000
     70          0.513592   1.000000
     71          0.521929   1.000000
     72          0.548583   1.000000
     73          0.569988   1.000000
     74          0.574455   1.000000
     75          0.602917   1.000000
     76          0.620766   1.000000
     77          0.620941   1.000000
     78          0.647840   1.000000
     79          0.651725   1.000000
     80          0.665265   1.000000
     81          0.685125   1.000000
     82          0.690321   1.000000
     83          0.711216   1.000000
     84          0.753515   1.000000
     85          0.848665   1.000000
     86          0.891211   1.000000
     87          0.937115   1.000000
     88          0.969200   1.000000
     89          1.067629   1.000000
     90          1.162746   1.000000
     91          1.251342   1.000000
     92          1.265121   1.000000
     93          1.420334   1.000000
     94          1.466828   1.000000
     95          1.491243   1.000000
     96          1.527077   1.000000
     97          1.690731   1.000000
     98          1.723637   1.000000
     99          1.977357   1.000000
    100          2.013243   1.000000
    101          2.026166   1.000000
    102          2.238771   1.000000
    103          2.307148   1.000000
    104          2.593142   1.000000
    105          2.904029   1.000000
    106          2.933185   1.000000
    107          3.117878   1.000000
    108          3.313250   1.000000
    109          4.704876   0.000000
    110          4.837103   0.000000
    111          5.555221   0.000000
    112          5.632607   0.000000
    113          6.532293   0.000000
    114          6.734436   0.000000
    115          7.036534   0.000000
    116          7.091682   0.000000
    117          7.215750   0.000000
    118          7.308872   0.000000
    119          7.514967   0.000000
    120          7.619845   0.000000
    121          7.728146   0.000000
    122          7.764813   0.000000
    123          8.159941   0.000000
    124          8.320538   0.000000
    125          8.711043   0.000000
    126          9.070430   0.000000
    127          9.230503   0.000000
    128          9.448489   0.000000
    129          9.539754   0.000000
    130          9.703088   0.000000
    131          9.817725   0.000000
    132          9.915183   0.000000
    133          9.949384   0.000000
    134         10.384028   0.000000
    135         10.391241   0.000000
    136         10.434045   0.000000
    137         10.587680   0.000000
    138         10.635743   0.000000
    139         10.786749   0.000000
    140         10.815061   0.000000
    141         10.832479   0.000000

  0.4285714E+00  0.1262379E-14  0.1251586E-14  0.1020408E-01
      1        -25.456160   1.000000
      2        -25.456154   1.000000
      3        -25.451018   1.000000
      4        -25.451003   1.000000
      5        -25.441418   1.000000
      6        -25.441409   1.000000
      7        -25.440955   1.000000
      8        -25.440945   1.000000
      9        -25.412062   1.000000
     10        -25.412054   1.000000
     11        -25.411719   1.000000
     12        -25.411714   1.000000
     13        -25.389524   1.000000
     14        -25.389517   1.000000
     15        -25.388917   1.000000
     16        -25.388909   1.000000
     17        -25.384203   1.000000
     18        -25.384189   1.000000
     19        -25.383518   1.000000
     20        -25.383512   1.000000
     21        -12.647989   1.000000
     22        -12.577259   1.000000
     23        -11.631585   1.000000
     24        -11.536753   1.000000
     25        -11.416567   1.000000
     26        -11.402451   1.000000
     27        -11.369997   1.000000
     28        -11.341607   1.000000
     29        -10.963044   1.000000
     30        -10.944572   1.000000
     31        -10.929741   1.000000
     32        -10.911633   1.000000
     33         -6.373178   1.000000
     34         -6.372484   1.000000
     35         -5.248838   1.000000
     36         -5.185788   1.000000
     37         -2.621930   1.000000
     38         -2.476619   1.000000
     39         -2.399631   1.000000
     40         -2.316469   1.000000
     41         -2.084065   1.000000
     42         -1.993213   1.000000
     43         -1.920635   1.000000
     44         -1.811247   1.000000
     45         -1.690645   1.000000
     46         -1.677435   1.000000
     47         -1.494347   1.000000
     48         -1.461409   1.000000
     49         -1.393346   1.000000
     50         -1.312457   1.000000
     51         -1.040384   1.000000
     52         -0.909648   1.000000
     53         -0.886250   1.000000
     54         -0.805506   1.000000
     55         -0.709966   1.000000
     56         -0.688954   1.000000
     57         -0.670484   1.000000
     58         -0.653528   1.000000
     59         -0.610241   1.000000
     60         -0.602210   1.000000
     61         -0.597674   1.000000
     62         -0.579819   1.000000
     63         -0.519331   1.000000
     64         -0.508386   1.000000
     65         -0.498029   1.000000
     66         -0.465338   1.000000
     67         -0.362600   1.000000
     68         -0.328470   1.000000
     69          0.503398   1.000000
     70          0.508385   1.000000
     71          0.526289   1.000000
     72          0.540331   1.000000
     73          0.585462   1.000000
     74          0.592680   1.000000
     75          0.620787   1.000000
     76          0.621533   1.000000
     77          0.623331   1.000000
     78          0.650201   1.000000
     79          0.657819   1.000000
     80          0.657968   1.000000
     81          0.683682   1.000000
     82          0.712780   1.000000
     83          0.722059   1.000000
     84          0.746266   1.000000
     85          0.811790   1.000000
     86          0.876870   1.000000
     87          0.957368   1.000000
     88          1.015374   1.000000
     89          1.112257   1.000000
     90          1.115537   1.000000
     91          1.270877   1.000000
     92          1.278720   1.000000
     93          1.439965   1.000000
     94          1.461061   1.000000
     95          1.483462   1.000000
     96          1.534352   1.000000
     97          1.615509   1.000000
     98          1.656687   1.000000
     99          1.758899   1.000000
    100          1.940569   1.000000
    101          2.078992   1.000000
    102          2.144375   1.000000
    103          2.209727   1.000000
    104          2.237611   1.000000
    105          2.959279   1.000000
    106          3.000655   1.000000
    107          3.008172   1.000000
    108          3.155272   1.000000
    109          4.816076   0.000000
    110          4.906204   0.000000
    111          5.617304   0.000000
    112          5.753154   0.000000
    113          6.747428   0.000000
    114          6.917942   0.000000
    115          7.024028   0.000000
    116          7.176145   0.000000
    117          7.198420   0.000000
    118          7.271969   0.000000
    119          7.453116   0.000000
    120          7.666990   0.000000
    121          7.859839   0.000000
    122          7.865306   0.000000
    123          7.938811   0.000000
    124          8.057104   0.000000
    125          9.165236   0.000000
    126          9.303814   0.000000
    127          9.330959   0.000000
    128          9.429828   0.000000
    129          9.687605   0.000000
    130          9.777077   0.000000
    131          9.894216   0.000000
    132         10.177776   0.000000
    133         10.355454   0.000000
    134         10.360837   0.000000
    135         10.417077   0.000000
    136         10.418765   0.000000
    137         10.543858   0.000000
    138         10.687117   0.000000
    139         10.747028   0.000000
    140         11.045316   0.000000
    141         11.109868   0.000000

  0.1262379E-14  0.2500000E+00  0.1262379E-14  0.1020408E-01
      1        -25.456180   1.000000
      2        -25.456141   1.000000
      3        -25.451013   1.000000
      4        -25.451007   1.000000
      5        -25.441421   1.000000
      6        -25.441415   1.000000
      7        -25.440967   1.000000
      8        -25.440952   1.000000
      9        -25.412089   1.000000
     10        -25.412074   1.000000
     11        -25.411727   1.000000
     12        -25.411697   1.000000
     13        -25.389527   1.000000
     14        -25.389515   1.000000
     15        -25.388902   1.000000
     16        -25.388896   1.000000
     17        -25.384192   1.000000
     18        -25.384185   1.000000
     19        -25.383525   1.000000
     20        -25.383508   1.000000
     21        -12.834782   1.000000
     22        -12.654267   1.000000
     23        -11.776216   1.000000
     24        -11.538349   1.000000
     25        -11.447053   1.000000
     26        -11.417120   1.000000
     27        -11.135798   1.000000
     28        -11.115732   1.000000
     29        -10.956035   1.000000
     30        -10.884702   1.000000
     31        -10.789071   1.000000
     32        -10.785860   1.000000
     33         -6.480538   1.000000
     34         -6.464183   1.000000
     35         -5.554592   1.000000
     36         -5.437569   1.000000
     37         -2.873618   1.000000
     38         -2.621651   1.000000
     39         -2.491479   1.000000
     40         -2.400829   1.000000
     41         -2.194876   1.000000
     42         -2.089974   1.000000
     43         -1.999777   1.000000
     44         -1.939394   1.000000
     45         -1.755490   1.000000
     46         -1.600816   1.000000
     47         -1.412285   1.000000
     48         -1.326598   1.000000
     49         -1.169005   1.000000
     50         -1.102134   1.000000
     51         -1.048815   1.000000
     52         -1.021273   1.000000
     53         -0.949724   1.000000
     54         -0.724862   1.000000
     55         -0.696297   1.000000
     56         -0.675553   1.000000
     57         -0.653999   1.000000
     58         -0.634082   1.000000
     59         -0.623942   1.000000
     60         -0.611379   1.000000
     61         -0.573253   1.000000
     62         -0.545053   1.000000
     63         -0.538724   1.000000
     64         -0.432855   1.000000
     65         -0.420855   1.000000
     66         -0.420314   1.000000
     67         -0.386226   1.000000
     68         -0.258673   1.000000
     69          0.490425   1.000000
     70          0.503085   1.000000
     71          0.518683   1.000000
     72          0.553442   1.000000
     73          0.559193   1.000000
     74          0.577744   1.000000
     75          0.602553   1.000000
     76          0.612307   1.000000
     77          0.618013   1.000000
     78          0.626530   1.000000
     79          0.639081   1.000000
     80          0.646959   1.000000
     81          0.672074   1.000000
     82          0.679574   1.000000
     83          0.703708   1.000000
     84          0.713702   1.000000
     85          0.816599   1.000000
     86          0.921974   1.000000
     87          0.995105   1.000000
     88          1.083937   1.000000
     89          1.113310   1.000000
     90          1.113705   1.000000
     91          1.258995   1.000000
     92          1.283234   1.000000
     93          1.305675   1.000000
     94          1.345835   1.000000
     95          1.552580   1.000000
     96          1.665129   1.000000
     97          1.831477   1.000000
     98          1.861480   1.000000
     99          2.022826   1.000000
    100          2.119437   1.000000
    101          2.216953   1.000000
    102          2.437681   1.000000
    103          2.462728   1.000000
    104          2.813896   1.000000
    105          2.970098   1.000000
    106          3.252712   1.000000
    107          3.320197   1.000000
    108          3.434746   1.000000
    109          4.441694   0.000000
    110          4.638611   0.000000
    111          5.162811   0.000000
    112          5.500747   0.000000
    113          6.128396   0.000000
    114          6.458479   0.000000
    115          6.827525   0.000000
    116          7.073337   0.000000
    117          7.345874   0.000000
    118          7.409556   0.000000
    119          7.649695   0.000000
    120          7.710790   0.000000
    121          7.920975   0.000000
    122          8.147622   0.000000
    123          8.284379   0.000000
    124          8.340953   0.000000
    125          8.661375   0.000000
    126          8.700316   0.000000
    127          9.130668   0.000000
    128          9.190421   0.000000
    129          9.427021   0.000000
    130          9.494283   0.000000
    131          9.634511   0.000000
    132          9.664055   0.000000
    133          9.803336   0.000000
    134          9.836385   0.000000
    135         10.124250   0.000000
    136         10.253965   0.000000
    137         10.559402   0.000000
    138         10.608814   0.000000
    139         10.692175   0.000000
    140         10.836603   0.000000
    141         10.838039   0.000000

  0.1428571E+00  0.2500000E+00  0.1261439E-14  0.2040816E-01
      1        -25.456176   1.000000
      2        -25.456151   1.000000
      3        -25.451014   1.000000
      4        -25.451007   1.000000
      5        -25.441423   1.000000
      6        -25.441414   1.000000
      7        -25.440967   1.000000
      8        -25.440953   1.000000
      9        -25.412093   1.000000
     10        -25.412074   1.000000
     11        -25.411721   1.000000
     12        -25.411708   1.000000
     13        -25.389531   1.000000
     14        -25.389521   1.000000
     15        -25.388909   1.000000
     16        -25.388900   1.000000
     17        -25.384197   1.000000
     18        -25.384187   1.000000
     19        -25.383529   1.000000
     20        -25.383510   1.000000
     21        -12.805239   1.000000
     22        -12.636589   1.000000
     23        -11.755841   1.000000
     24        -11.529401   1.000000
     25        -11.450717   1.000000
     26        -11.415145   1.000000
     27        -11.180405   1.000000
     28        -11.143849   1.000000
     29        -10.955438   1.000000
     30        -10.904494   1.000000
     31        -10.815623   1.000000
     32        -10.811074   1.000000
     33         -6.458554   1.000000
     34         -6.446082   1.000000
     35         -5.500066   1.000000
     36         -5.380790   1.000000
     37         -2.841359   1.000000
     38         -2.579793   1.000000
     39         -2.463558   1.000000
     40         -2.391147   1.000000
     41         -2.237513   1.000000
     42         -2.131878   1.000000
     43         -1.964362   1.000000
     44         -1.943576   1.000000
     45         -1.695416   1.000000
     46         -1.562071   1.000000
     47         -1.438904   1.000000
     48         -1.313962   1.000000
     49         -1.213041   1.000000
     50         -1.144689   1.000000
     51         -1.002138   1.000000
     52         -0.933286   1.000000
     53         -0.878873   1.000000
     54         -0.770529   1.000000
     55         -0.732257   1.000000
     56         -0.683373   1.000000
     57         -0.674098   1.000000
     58         -0.673372   1.000000
     59         -0.631431   1.000000
     60         -0.579847   1.000000
     61         -0.571552   1.000000
     62         -0.557871   1.000000
     63         -0.556226   1.000000
     64         -0.467444   1.000000
     65         -0.427567   1.000000
     66         -0.410015   1.000000
     67         -0.396582   1.000000
     68         -0.275529   1.000000
     69          0.472638   1.000000
     70          0.506691   1.000000
     71          0.522542   1.000000
     72          0.556128   1.000000
     73          0.558375   1.000000
     74          0.575739   1.000000
     75          0.592905   1.000000
     76          0.612093   1.000000
     77          0.618386   1.000000
     78          0.622896   1.000000
     79          0.645113   1.000000
     80          0.645831   1.000000
     81          0.668692   1.000000
     82          0.677832   1.000000
     83          0.708898   1.000000
     84          0.715754   1.000000
     85          0.839387   1.000000
     86          0.956657   1.000000
     87          0.961077   1.000000
     88          1.049767   1.000000
     89          1.081796   1.000000
     90          1.170707   1.000000
     91          1.250452   1.000000
     92          1.294706   1.000000
     93          1.346194   1.000000
     94          1.362317   1.000000
     95          1.506363   1.000000
     96          1.651607   1.000000
     97          1.825582   1.000000
     98          1.839190   1.000000
     99          1.923056   1.000000
    100          2.080288   1.000000
    101          2.202750   1.000000
    102          2.344480   1.000000
    103          2.508461   1.000000
    104          2.636422   1.000000
    105          2.931178   1.000000
    106          3.119924   1.000000
    107          3.143115   1.000000
    108          3.374104   1.000000
    109          4.674664   0.000000
    110          4.714014   0.000000
    111          5.338927   0.000000
    112          5.574741   0.000000
    113          6.234212   0.000000
    114          6.672093   0.000000
    115          6.927710   0.000000
    116          6.949002   0.000000
    117          7.413314   0.000000
    118          7.415710   0.000000
    119          7.615389   0.000000
    120          7.741863   0.000000
    121          7.770458   0.000000
    122          7.944541   0.000000
    123          8.183783   0.000000
    124          8.420036   0.000000
    125          8.552239   0.000000
    126          8.766332   0.000000
    127          9.200485   0.000000
    128          9.266587   0.000000
    129          9.464185   0.000000
    130          9.563135   0.000000
    131          9.658817   0.000000
    132          9.804114   0.000000
    133          9.804628   0.000000
    134         10.081815   0.000000
    135         10.118376   0.000000
    136         10.337446   0.000000
    137         10.468859   0.000000
    138         10.545895   0.000000
    139         10.712213   0.000000
    140         10.798412   0.000000
    141         11.074445   0.000000

  0.2857143E+00  0.2500000E+00  0.1274269E-14  0.2040816E-01
      1        -25.456167   1.000000
      2        -25.456147   1.000000
      3        -25.451013   1.000000
      4        -25.451007   1.000000
      5        -25.441424   1.000000
      6        -25.441414   1.000000
      7        -25.440963   1.000000
      8        -25.440953   1.000000
      9        -25.412083   1.000000
     10        -25.412068   1.000000
     11        -25.411721   1.000000
     12        -25.411712   1.000000
     13        -25.389527   1.000000
     14        -25.389521   1.000000
     15        -25.388911   1.000000
     16        -25.388905   1.000000
     17        -25.384198   1.000000
     18        -25.384189   1.000000
     19        -25.383521   1.000000
     20        -25.383508   1.000000
     21        -12.727499   1.000000
     22        -12.599182   1.000000
     23        -11.704091   1.000000
     24        -11.526331   1.000000
     25        -11.453430   1.000000
     26        -11.412209   1.000000
     27        -11.270487   1.000000
     28        -11.214557   1.000000
     29        -10.955758   1.000000
     30        -10.944147   1.000000
     31        -10.874303   1.000000
     32        -10.872769   1.000000
     33         -6.409858   1.000000
     34         -6.404866   1.000000
     35         -5.371691   1.000000
     36         -5.266116   1.000000
     37         -2.752921   1.000000
     38         -2.518929   1.000000
     39         -2.389902   1.000000
     40         -2.358010   1.000000
     41         -2.251694   1.000000
     42         -2.223024   1.000000
     43         -1.830713   1.000000
     44         -1.820244   1.000000
     45         -1.635160   1.000000
     46         -1.549926   1.000000
     47         -1.524762   1.000000
     48         -1.335232   1.000000
     49         -1.323172   1.000000
     50         -1.044851   1.000000
     51         -0.976589   1.000000
     52         -0.922840   1.000000
     53         -0.849527   1.000000
     54         -0.817262   1.000000
     55         -0.815259   1.000000
     56         -0.731200   1.000000
     57         -0.705747   1.000000
     58         -0.677390   1.000000
     59         -0.621836   1.000000
     60         -0.608838   1.000000
     61         -0.586527   1.000000
     62         -0.555433   1.000000
     63         -0.551178   1.000000
     64         -0.524725   1.000000
     65         -0.450046   1.000000
     66         -0.408694   1.000000
     67         -0.387053   1.000000
     68         -0.310177   1.000000
     69          0.471494   1.000000
     70          0.494260   1.000000
     71          0.522158   1.000000
     72          0.542314   1.000000
     73          0.553154   1.000000
     74          0.580793   1.000000
     75          0.584962   1.000000
     76          0.609993   1.000000
     77          0.625173   1.000000
     78          0.640973   1.000000
     79          0.641971   1.000000
     80          0.659772   1.000000
     81          0.673089   1.000000
     82          0.686079   1.000000
     83          0.700976   1.000000
     84          0.730362   1.000000
     85          0.879830   1.000000
     86          0.916690   1.000000
     87          0.968994   1.000000
     88          1.044299   1.000000
     89          1.096591   1.000000
     90          1.219486   1.000000
     91          1.253040   1.000000
     92          1.325007   1.000000
     93          1.345004   1.000000
     94          1.404870   1.000000
     95          1.442762   1.000000
     96          1.532689   1.000000
     97          1.665204   1.000000
     98          1.744194   1.000000
     99          1.998121   1.000000
    100          2.006918   1.000000
    101          2.089978   1.000000
    102          2.227818   1.000000
    103          2.325328   1.000000
    104          2.510530   1.000000
    105          2.784395   1.000000
    106          2.888960   1.000000
    107          2.975577   1.000000
    108          3.287667   1.000000
    109          4.843732   0.000000
    110          4.962393   0.000000
    111          5.620685   0.000000
    112          5.679359   0.000000
    113          6.643185   0.000000
    114          6.858698   0.000000
    115          6.990811   0.000000
    116          7.115624   0.000000
    117          7.173598   0.000000
    118          7.396596   0.000000
    119          7.402674   0.000000
    120          7.775407   0.000000
    121          7.881909   0.000000
    122          7.924462   0.000000
    123          7.991795   0.000000
    124          8.333460   0.000000
    125          8.736580   0.000000
    126          9.005436   0.000000
    127          9.220649   0.000000
    128          9.269198   0.000000
    129          9.525021   0.000000
    130          9.611597   0.000000
    131          9.778308   0.000000
    132          9.924723   0.000000
    133         10.080491   0.000000
    134         10.118853   0.000000
    135         10.326692   0.000000
    136         10.392466   0.000000
    137         10.545931   0.000000
    138         10.607169   0.000000
    139         10.687077   0.000000
    140         10.931574   0.000000
    141         10.963106   0.000000

  0.4285714E+00  0.2500000E+00  0.1251586E-14  0.2040816E-01
      1        -25.456159   1.000000
      2        -25.456148   1.000000
      3        -25.451011   1.000000
      4        -25.451006   1.000000
      5        -25.441420   1.000000
      6        -25.441414   1.000000
      7        -25.440958   1.000000
      8        -25.440952   1.000000
      9        -25.412061   1.000000
     10        -25.412056   1.000000
     11        -25.411720   1.000000
     12        -25.411714   1.000000
     13        -25.389521   1.000000
     14        -25.389515   1.000000
     15        -25.388914   1.000000
     16        -25.388908   1.000000
     17        -25.384196   1.000000
     18        -25.384190   1.000000
     19        -25.383512   1.000000
     20        -25.383505   1.000000
     21        -12.636776   1.000000
     22        -12.586476   1.000000
     23        -11.642809   1.000000
     24        -11.576775   1.000000
     25        -11.434388   1.000000
     26        -11.417715   1.000000
     27        -11.314282   1.000000
     28        -11.283094   1.000000
     29        -10.973004   1.000000
     30        -10.962542   1.000000
     31        -10.925785   1.000000
     32        -10.918697   1.000000
     33         -6.371731   1.000000
     34         -6.371035   1.000000
     35         -5.248166   1.000000
     36         -5.203409   1.000000
     37         -2.642375   1.000000
     38         -2.549095   1.000000
     39         -2.379100   1.000000
     40         -2.335328   1.000000
     41         -2.150664   1.000000
     42         -2.114938   1.000000
     43         -1.725925   1.000000
     44         -1.686520   1.000000
     45         -1.641925   1.000000
     46         -1.571073   1.000000
     47         -1.534043   1.000000
     48         -1.400987   1.000000
     49         -1.329517   1.000000
     50         -1.217898   1.000000
     51         -1.089468   1.000000
     52         -0.973903   1.000000
     53         -0.899979   1.000000
     54         -0.838526   1.000000
     55         -0.808446   1.000000
     56         -0.721285   1.000000
     57         -0.680080   1.000000
     58         -0.675960   1.000000
     59         -0.618435   1.000000
     60         -0.613884   1.000000
     61         -0.582084   1.000000
     62         -0.575525   1.000000
     63         -0.551017   1.000000
     64         -0.529920   1.000000
     65         -0.454588   1.000000
     66         -0.428727   1.000000
     67         -0.361099   1.000000
     68         -0.337439   1.000000
     69          0.487099   1.000000
     70          0.495283   1.000000
     71          0.520545   1.000000
     72          0.532053   1.000000
     73          0.552478   1.000000
     74          0.584901   1.000000
     75          0.600314   1.000000
     76          0.617523   1.000000
     77          0.632151   1.000000
     78          0.646798   1.000000
     79          0.651839   1.000000
     80          0.659806   1.000000
     81          0.695178   1.000000
     82          0.698887   1.000000
     83          0.711378   1.000000
     84          0.751805   1.000000
     85          0.838331   1.000000
     86          0.885349   1.000000
     87          0.950443   1.000000
     88          1.062463   1.000000
     89          1.080541   1.000000
     90          1.144414   1.000000
     91          1.276228   1.000000
     92          1.303027   1.000000
     93          1.375065   1.000000
     94          1.401099   1.000000
     95          1.500460   1.000000
     96          1.551467   1.000000
     97          1.634030   1.000000
     98          1.661113   1.000000
     99          1.778355   1.000000
    100          1.925249   1.000000
    101          2.105642   1.000000
    102          2.190056   1.000000
    103          2.229727   1.000000
    104          2.311598   1.000000
    105          2.713531   1.000000
    106          2.750977   1.000000
    107          3.054102   1.000000
    108          3.161673   1.000000
    109          4.966247   0.000000
    110          5.041819   0.000000
    111          5.690983   0.000000
    112          5.792400   0.000000
    113          6.739932   0.000000
    114          6.883527   0.000000
    115          7.018719   0.000000
    116          7.097949   0.000000
    117          7.256848   0.000000
    118          7.374456   0.000000
    119          7.452247   0.000000
    120          7.655451   0.000000
    121          7.922669   0.000000
    122          8.034459   0.000000
    123          8.191841   0.000000
    124          8.317628   0.000000
    125          9.123153   0.000000
    126          9.162012   0.000000
    127          9.351096   0.000000
    128          9.354281   0.000000
    129          9.620705   0.000000
    130          9.744124   0.000000
    131          9.804471   0.000000
    132         10.044389   0.000000
    133         10.054775   0.000000
    134         10.247584   0.000000
    135         10.273804   0.000000
    136         10.494669   0.000000
    137         10.510839   0.000000
    138         10.583525   0.000000
    139         10.624925   0.000000
    140         10.818885   0.000000
    141         10.851576   0.000000

  0.1262379E-14  0.5000000E+00  0.1262379E-14  0.5102041E-02
      1        -25.456167   1.000000
      2        -25.456162   1.000000
      3        -25.451018   1.000000
      4        -25.451013   1.000000
      5        -25.441424   1.000000
      6        -25.441418   1.000000
      7        -25.440960   1.000000
      8        -25.440955   1.000000
      9        -25.412087   1.000000
     10        -25.412082   1.000000
     11        -25.411718   1.000000
     12        -25.411713   1.000000
     13        -25.389525   1.000000
     14        -25.389519   1.000000
     15        -25.388909   1.000000
     16        -25.388903   1.000000
     17        -25.384198   1.000000
     18        -25.384193   1.000000
     19        -25.383521   1.000000
     20        -25.383516   1.000000
     21        -12.754518   1.000000
     22        -12.754517   1.000000
     23        -11.624004   1.000000
     24        -11.624004   1.000000
     25        -11.468896   1.000000
     26        -11.468896   1.000000
     27        -11.109808   1.000000
     28        -11.109807   1.000000
     29        -10.932967   1.000000
     30        -10.932967   1.000000
     31        -10.777031   1.000000
     32        -10.777030   1.000000
     33         -6.473725   1.000000
     34         -6.473724   1.000000
     35         -5.496388   1.000000
     36         -5.496388   1.000000
     37         -2.786323   1.000000
     38         -2.786322   1.000000
     39         -2.495380   1.000000
     40         -2.495379   1.000000
     41         -2.103700   1.000000
     42         -2.103700   1.000000
     43         -1.833279   1.000000
     44         -1.833279   1.000000
     45         -1.753024   1.000000
     46         -1.753024   1.000000
     47         -1.419719   1.000000
     48         -1.419719   1.000000
     49         -1.096082   1.000000
     50         -1.096081   1.000000
     51         -0.970050   1.000000
     52         -0.970049   1.000000
     53         -0.796122   1.000000
     54         -0.796121   1.000000
     55         -0.701451   1.000000
     56         -0.701450   1.000000
     57         -0.680922   1.000000
     58         -0.680921   1.000000
     59         -0.631953   1.000000
     60         -0.631951   1.000000
     61         -0.566243   1.000000
     62         -0.566242   1.000000
     63         -0.484301   1.000000
     64         -0.484300   1.000000
     65         -0.434034   1.000000
     66         -0.434033   1.000000
     67         -0.328322   1.000000
     68         -0.328321   1.000000
     69          0.487579   1.000000
     70          0.487581   1.000000
     71          0.527320   1.000000
     72          0.527320   1.000000
     73          0.553703   1.000000
     74          0.553704   1.000000
     75          0.600402   1.000000
     76          0.600403   1.000000
     77          0.623828   1.000000
     78          0.623828   1.000000
     79          0.641584   1.000000
     80          0.641585   1.000000
     81          0.666195   1.000000
     82          0.666196   1.000000
     83          0.703182   1.000000
     84          0.703183   1.000000
     85          0.918749   1.000000
     86          0.918749   1.000000
     87          1.000077   1.000000
     88          1.000078   1.000000
     89          1.167626   1.000000
     90          1.167627   1.000000
     91          1.201065   1.000000
     92          1.201066   1.000000
     93          1.578505   1.000000
     94          1.578506   1.000000
     95          1.671255   1.000000
     96          1.671256   1.000000
     97          1.731230   1.000000
     98          1.731231   1.000000
     99          2.046414   1.000000
    100          2.046415   1.000000
    101          2.200691   1.000000
    102          2.200692   1.000000
    103          2.504693   1.000000
    104          2.504693   1.000000
    105          3.026037   1.000000
    106          3.026038   1.000000
    107          3.376403   1.000000
    108          3.376404   1.000000
    109          4.705206   0.000000
    110          4.705206   0.000000
    111          5.389492   0.000000
    112          5.389492   0.000000
    113          6.412506   0.000000
    114          6.412507   0.000000
    115          6.987920   0.000000
    116          6.987920   0.000000
    117          7.387685   0.000000
    118          7.387685   0.000000
    119          7.703164   0.000000
    120          7.703164   0.000000
    121          8.070202   0.000000
    122          8.070203   0.000000
    123          8.274087   0.000000
    124          8.274088   0.000000
    125          8.631330   0.000000
    126          8.631330   0.000000
    127          9.155684   0.000000
    128          9.155684   0.000000
    129          9.428748   0.000000
    130          9.428749   0.000000
    131          9.611371   0.000000
    132          9.611372   0.000000
    133          9.841071   0.000000
    134          9.841072   0.000000
    135         10.272530   0.000000
    136         10.272530   0.000000
    137         10.439528   0.000000
    138         10.439529   0.000000
    139         10.600805   0.000000
    140         10.600815   0.000000
    141         11.019425   0.000000

  0.1428571E+00  0.5000000E+00  0.1261439E-14  0.1020408E-01
      1        -25.456165   1.000000
      2        -25.456159   1.000000
      3        -25.451012   1.000000
      4        -25.451006   1.000000
      5        -25.441426   1.000000
      6        -25.441420   1.000000
      7        -25.440963   1.000000
      8        -25.440957   1.000000
      9        -25.412089   1.000000
     10        -25.412084   1.000000
     11        -25.411716   1.000000
     12        -25.411711   1.000000
     13        -25.389528   1.000000
     14        -25.389522   1.000000
     15        -25.388909   1.000000
     16        -25.388903   1.000000
     17        -25.384196   1.000000
     18        -25.384190   1.000000
     19        -25.383518   1.000000
     20        -25.383513   1.000000
     21        -12.729513   1.000000
     22        -12.729512   1.000000
     23        -11.618148   1.000000
     24        -11.618148   1.000000
     25        -11.462558   1.000000
     26        -11.462558   1.000000
     27        -11.143890   1.000000
     28        -11.143890   1.000000
     29        -10.944172   1.000000
     30        -10.944171   1.000000
     31        -10.803318   1.000000
     32        -10.803317   1.000000
     33         -6.453210   1.000000
     34         -6.453210   1.000000
     35         -5.442050   1.000000
     36         -5.442050   1.000000
     37         -2.750937   1.000000
     38         -2.750937   1.000000
     39         -2.470389   1.000000
     40         -2.470389   1.000000
     41         -2.193888   1.000000
     42         -2.193887   1.000000
     43         -1.848786   1.000000
     44         -1.848786   1.000000
     45         -1.588067   1.000000
     46         -1.588067   1.000000
     47         -1.383889   1.000000
     48         -1.383889   1.000000
     49         -1.174180   1.000000
     50         -1.174180   1.000000
     51         -0.923753   1.000000
     52         -0.923752   1.000000
     53         -0.805398   1.000000
     54         -0.805397   1.000000
     55         -0.750837   1.000000
     56         -0.750837   1.000000
     57         -0.696307   1.000000
     58         -0.696306   1.000000
     59         -0.608040   1.000000
     60         -0.608040   1.000000
     61         -0.582107   1.000000
     62         -0.582107   1.000000
     63         -0.511595   1.000000
     64         -0.511595   1.000000
     65         -0.424761   1.000000
     66         -0.424760   1.000000
     67         -0.340556   1.000000
     68         -0.340555   1.000000
     69          0.466992   1.000000
     70          0.466993   1.000000
     71          0.541314   1.000000
     72          0.541315   1.000000
     73          0.551607   1.000000
     74          0.551608   1.000000
     75          0.602649   1.000000
     76          0.602649   1.000000
     77          0.622536   1.000000
     78          0.622537   1.000000
     79          0.645044   1.000000
     80          0.645044   1.000000
     81          0.664909   1.000000
     82          0.664911   1.000000
     83          0.694272   1.000000
     84          0.694273   1.000000
     85          0.943961   1.000000
     86          0.943962   1.000000
     87          0.997663   1.000000
     88          0.997664   1.000000
     89          1.160430   1.000000
     90          1.160431   1.000000
     91          1.245735   1.000000
     92          1.245736   1.000000
     93          1.458274   1.000000
     94          1.458275   1.000000
     95          1.655256   1.000000
     96          1.655257   1.000000
     97          1.766791   1.000000
     98          1.766792   1.000000
     99          2.022574   1.000000
    100          2.022574   1.000000
    101          2.110658   1.000000
    102          2.110659   1.000000
    103          2.491825   1.000000
    104          2.491826   1.000000
    105          3.001904   1.000000
    106          3.001905   1.000000
    107          3.217566   1.000000
    108          3.217567   1.000000
    109          4.823144   0.000000
    110          4.823145   0.000000
    111          5.499466   0.000000
    112          5.499466   0.000000
    113          6.552754   0.000000
    114          6.552755   0.000000
    115          6.960677   0.000000
    116          6.960677   0.000000
    117          7.419482   0.000000
    118          7.419483   0.000000
    119          7.776714   0.000000
    120          7.776714   0.000000
    121          7.979026   0.000000
    122          7.979026   0.000000
    123          8.230325   0.000000
    124          8.230325   0.000000
    125          8.599324   0.000000
    126          8.599324   0.000000
    127          9.168090   0.000000
    128          9.168091   0.000000
    129          9.425698   0.000000
    130          9.425698   0.000000
    131          9.674353   0.000000
    132          9.674354   0.000000
    133         10.018986   0.000000
    134         10.018987   0.000000
    135         10.133869   0.000000
    136         10.133869   0.000000
    137         10.426075   0.000000
    138         10.426076   0.000000
    139         10.648054   0.000000
    140         10.648060   0.000000
    141         11.112111   0.000000

  0.2857143E+00  0.5000000E+00  0.1274269E-14  0.1020408E-01
      1        -25.456158   1.000000
      2        -25.456152   1.000000
      3        -25.451017   1.000000
      4        -25.451011   1.000000
      5        -25.441424   1.000000
      6        -25.441418   1.000000
      7        -25.440963   1.000000
      8        -25.440957   1.000000
      9        -25.412082   1.000000
     10        -25.412077   1.000000
     11        -25.411718   1.000000
     12        -25.411713   1.000000
     13        -25.389525   1.000000
     14        -25.389519   1.000000
     15        -25.388911   1.000000
     16        -25.388905   1.000000
     17        -25.384194   1.000000
     18        -25.384188   1.000000
     19        -25.383517   1.000000
     20        -25.383512   1.000000
     21        -12.667694   1.000000
     22        -12.667694   1.000000
     23        -11.615497   1.000000
     24        -11.615497   1.000000
     25        -11.445540   1.000000
     26        -11.445540   1.000000
     27        -11.215482   1.000000
     28        -11.215482   1.000000
     29        -10.965288   1.000000
     30        -10.965288   1.000000
     31        -10.867494   1.000000
     32        -10.867494   1.000000
     33         -6.407036   1.000000
     34         -6.407036   1.000000
     35         -5.324081   1.000000
     36         -5.324081   1.000000
     37         -2.677187   1.000000
     38         -2.677186   1.000000
     39         -2.389145   1.000000
     40         -2.389144   1.000000
     41         -2.286463   1.000000
     42         -2.286463   1.000000
     43         -1.730486   1.000000
     44         -1.730486   1.000000
     45         -1.485754   1.000000
     46         -1.485754   1.000000
     47         -1.357287   1.000000
     48         -1.357286   1.000000
     49         -1.242772   1.000000
     50         -1.242772   1.000000
     51         -0.931234   1.000000
     52         -0.931233   1.000000
     53         -0.876143   1.000000
     54         -0.876143   1.000000
     55         -0.796390   1.000000
     56         -0.796390   1.000000
     57         -0.718861   1.000000
     58         -0.718860   1.000000
     59         -0.621362   1.000000
     60         -0.621362   1.000000
     61         -0.566576   1.000000
     62         -0.566575   1.000000
     63         -0.554053   1.000000
     64         -0.554053   1.000000
     65         -0.413310   1.000000
     66         -0.413310   1.000000
     67         -0.357180   1.000000
     68         -0.357179   1.000000
     69          0.457274   1.000000
     70          0.457275   1.000000
     71          0.532833   1.000000
     72          0.532834   1.000000
     73          0.555834   1.000000
     74          0.555835   1.000000
     75          0.606647   1.000000
     76          0.606648   1.000000
     77          0.623300   1.000000
     78          0.623301   1.000000
     79          0.641737   1.000000
     80          0.641738   1.000000
     81          0.667599   1.000000
     82          0.667600   1.000000
     83          0.703917   1.000000
     84          0.703918   1.000000
     85          0.960187   1.000000
     86          0.960189   1.000000
     87          1.047327   1.000000
     88          1.047328   1.000000
     89          1.199327   1.000000
     90          1.199327   1.000000
     91          1.221412   1.000000
     92          1.221412   1.000000
     93          1.283143   1.000000
     94          1.283144   1.000000
     95          1.551235   1.000000
     96          1.551236   1.000000
     97          1.838277   1.000000
     98          1.838277   1.000000
     99          1.934173   1.000000
    100          1.934173   1.000000
    101          2.098197   1.000000
    102          2.098198   1.000000
    103          2.396489   1.000000
    104          2.396490   1.000000
    105          2.712154   1.000000
    106          2.712155   1.000000
    107          3.133872   1.000000
    108          3.133873   1.000000
    109          5.016174   0.000000
    110          5.016174   0.000000
    111          5.698108   0.000000
    112          5.698108   0.000000
    113          6.829934   0.000000
    114          6.829935   0.000000
    115          7.105342   0.000000
    116          7.105342   0.000000
    117          7.224609   0.000000
    118          7.224609   0.000000
    119          7.612812   0.000000
    120          7.612812   0.000000
    121          8.101914   0.000000
    122          8.101914   0.000000
    123          8.218488   0.000000
    124          8.218488   0.000000
    125          8.750674   0.000000
    126          8.750675   0.000000
    127          9.209795   0.000000
    128          9.209795   0.000000
    129          9.512973   0.000000
    130          9.512973   0.000000
    131          9.659845   0.000000
    132          9.659846   0.000000
    133         10.087820   0.000000
    134         10.087821   0.000000
    135         10.307873   0.000000
    136         10.307873   0.000000
    137         10.434400   0.000000
    138         10.434400   0.000000
    139         10.913569   0.000000
    140         10.913684   0.000000
    141         11.191476   0.000000

  0.4285714E+00  0.5000000E+00  0.1251586E-14  0.1020408E-01
      1        -25.456157   1.000000
      2        -25.456152   1.000000
      3        -25.451013   1.000000
      4        -25.451007   1.000000
      5        -25.441423   1.000000
      6        -25.441418   1.000000
      7        -25.440962   1.000000
      8        -25.440956   1.000000
      9        -25.412067   1.000000
     10        -25.412062   1.000000
     11        -25.411722   1.000000
     12        -25.411717   1.000000
     13        -25.389520   1.000000
     14        -25.389515   1.000000
     15        -25.388913   1.000000
     16        -25.388908   1.000000
     17        -25.384197   1.000000
     18        -25.384192   1.000000
     19        -25.383510   1.000000
     20        -25.383505   1.000000
     21        -12.610640   1.000000
     22        -12.610640   1.000000
     23        -11.632114   1.000000
     24        -11.632114   1.000000
     25        -11.430158   1.000000
     26        -11.430158   1.000000
     27        -11.255083   1.000000
     28        -11.255083   1.000000
     29        -10.982204   1.000000
     30        -10.982204   1.000000
     31        -10.925529   1.000000
     32        -10.925528   1.000000
     33         -6.369912   1.000000
     34         -6.369912   1.000000
     35         -5.234251   1.000000
     36         -5.234251   1.000000
     37         -2.629429   1.000000
     38         -2.629429   1.000000
     39         -2.373979   1.000000
     40         -2.373979   1.000000
     41         -2.165898   1.000000
     42         -2.165898   1.000000
     43         -1.646665   1.000000
     44         -1.646665   1.000000
     45         -1.521615   1.000000
     46         -1.521615   1.000000
     47         -1.375381   1.000000
     48         -1.375380   1.000000
     49         -1.182855   1.000000
     50         -1.182854   1.000000
     51         -1.106106   1.000000
     52         -1.106106   1.000000
     53         -0.934628   1.000000
     54         -0.934627   1.000000
     55         -0.838036   1.000000
     56         -0.838035   1.000000
     57         -0.692632   1.000000
     58         -0.692631   1.000000
     59         -0.617113   1.000000
     60         -0.617113   1.000000
     61         -0.572671   1.000000
     62         -0.572670   1.000000
     63         -0.545239   1.000000
     64         -0.545239   1.000000
     65         -0.420029   1.000000
     66         -0.420028   1.000000
     67         -0.353361   1.000000
     68         -0.353361   1.000000
     69          0.470259   1.000000
     70          0.470260   1.000000
     71          0.525441   1.000000
     72          0.525441   1.000000
     73          0.552056   1.000000
     74          0.552057   1.000000
     75          0.595329   1.000000
     76          0.595331   1.000000
     77          0.641949   1.000000
     78          0.641950   1.000000
     79          0.662064   1.000000
     80          0.662065   1.000000
     81          0.678138   1.000000
     82          0.678139   1.000000
     83          0.737331   1.000000
     84          0.737331   1.000000
     85          0.915340   1.000000
     86          0.915342   1.000000
     87          0.993045   1.000000
     88          0.993045   1.000000
     89          1.088408   1.000000
     90          1.088409   1.000000
     91          1.249400   1.000000
     92          1.249401   1.000000
     93          1.392701   1.000000
     94          1.392702   1.000000
     95          1.539293   1.000000
     96          1.539293   1.000000
     97          1.730655   1.000000
     98          1.730656   1.000000
     99          1.821002   1.000000
    100          1.821003   1.000000
    101          2.165553   1.000000
    102          2.165554   1.000000
    103          2.349823   1.000000
    104          2.349825   1.000000
    105          2.496960   1.000000
    106          2.496961   1.000000
    107          3.097894   1.000000
    108          3.097894   1.000000
    109          5.132384   0.000000
    110          5.132385   0.000000
    111          5.788688   0.000000
    112          5.788688   0.000000
    113          6.785551   0.000000
    114          6.785551   0.000000
    115          7.034827   0.000000
    116          7.034827   0.000000
    117          7.317466   0.000000
    118          7.317466   0.000000
    119          7.679752   0.000000
    120          7.679752   0.000000
    121          8.168216   0.000000
    122          8.168217   0.000000
    123          8.586922   0.000000
    124          8.586923   0.000000
    125          8.875618   0.000000
    126          8.875618   0.000000
    127          9.264667   0.000000
    128          9.264668   0.000000
    129          9.579485   0.000000
    130          9.579485   0.000000
    131          9.773583   0.000000
    132          9.773583   0.000000
    133         10.038030   0.000000
    134         10.038030   0.000000
    135         10.277600   0.000000
    136         10.277600   0.000000
    137         10.451738   0.000000
    138         10.451742   0.000000
    139         10.651529   0.000000
    140         10.651550   0.000000
    141         10.953678   0.000000

  0.1262379E-14  0.1262379E-14  0.1428571E+00  0.1020408E-01
      1        -25.455974   1.000000
      2        -25.455929   1.000000
      3        -25.451331   1.000000
      4        -25.451326   1.000000
      5        -25.441356   1.000000
      6        -25.441351   1.000000
      7        -25.440931   1.000000
      8        -25.440919   1.000000
      9        -25.412074   1.000000
     10        -25.412055   1.000000
     11        -25.411749   1.000000
     12        -25.411715   1.000000
     13        -25.389487   1.000000
     14        -25.389479   1.000000
     15        -25.388926   1.000000
     16        -25.388920   1.000000
     17        -25.384162   1.000000
     18        -25.384152   1.000000
     19        -25.383563   1.000000
     20        -25.383537   1.000000
     21        -12.818847   1.000000
     22        -12.562387   1.000000
     23        -11.848276   1.000000
     24        -11.688516   1.000000
     25        -11.430298   1.000000
     26        -11.307411   1.000000
     27        -11.148252   1.000000
     28        -11.140396   1.000000
     29        -10.988730   1.000000
     30        -10.830625   1.000000
     31        -10.825730   1.000000
     32        -10.809934   1.000000
     33         -6.393095   1.000000
     34         -6.390342   1.000000
     35         -5.606235   1.000000
     36         -5.430418   1.000000
     37         -2.814694   1.000000
     38         -2.590731   1.000000
     39         -2.450532   1.000000
     40         -2.421084   1.000000
     41         -2.131817   1.000000
     42         -2.060188   1.000000
     43         -2.028355   1.000000
     44         -1.954501   1.000000
     45         -1.700441   1.000000
     46         -1.438523   1.000000
     47         -1.414858   1.000000
     48         -1.406336   1.000000
     49         -1.345136   1.000000
     50         -1.201458   1.000000
     51         -1.046986   1.000000
     52         -1.041823   1.000000
     53         -0.998599   1.000000
     54         -0.761275   1.000000
     55         -0.690744   1.000000
     56         -0.659588   1.000000
     57         -0.647140   1.000000
     58         -0.630691   1.000000
     59         -0.627011   1.000000
     60         -0.605059   1.000000
     61         -0.551431   1.000000
     62         -0.548026   1.000000
     63         -0.526287   1.000000
     64         -0.426264   1.000000
     65         -0.416710   1.000000
     66         -0.410601   1.000000
     67         -0.404779   1.000000
     68         -0.260277   1.000000
     69          0.463302   1.000000
     70          0.515695   1.000000
     71          0.534933   1.000000
     72          0.574743   1.000000
     73          0.579667   1.000000
     74          0.583491   1.000000
     75          0.594491   1.000000
     76          0.617979   1.000000
     77          0.629962   1.000000
     78          0.640985   1.000000
     79          0.646667   1.000000
     80          0.656376   1.000000
     81          0.686667   1.000000
     82          0.687808   1.000000
     83          0.709414   1.000000
     84          0.713258   1.000000
     85          0.793928   1.000000
     86          0.923402   1.000000
     87          0.978964   1.000000
     88          0.989929   1.000000
     89          1.001533   1.000000
     90          1.130280   1.000000
     91          1.191928   1.000000
     92          1.225869   1.000000
     93          1.249796   1.000000
     94          1.433362   1.000000
     95          1.553220   1.000000
     96          1.783326   1.000000
     97          1.842644   1.000000
     98          1.900792   1.000000
     99          1.918547   1.000000
    100          1.991492   1.000000
    101          2.381960   1.000000
    102          2.485561   1.000000
    103          2.572917   1.000000
    104          2.848142   1.000000
    105          2.913879   1.000000
    106          3.108543   1.000000
    107          3.243678   1.000000
    108          3.289162   1.000000
    109          4.547313   0.000000
    110          4.746249   0.000000
    111          5.028256   0.000000
    112          5.612451   0.000000
    113          6.054377   0.000000
    114          6.594820   0.000000
    115          6.678421   0.000000
    116          7.169278   0.000000
    117          7.232706   0.000000
    118          7.282348   0.000000
    119          7.505260   0.000000
    120          7.607084   0.000000
    121          7.916191   0.000000
    122          8.114599   0.000000
    123          8.424453   0.000000
    124          8.552801   0.000000
    125          8.654875   0.000000
    126          8.986878   0.000000
    127          9.156533   0.000000
    128          9.367421   0.000000
    129          9.430242   0.000000
    130          9.441267   0.000000
    131          9.752210   0.000000
    132          9.753211   0.000000
    133          9.763494   0.000000
    134          9.798758   0.000000
    135         10.221812   0.000000
    136         10.397137   0.000000
    137         10.518982   0.000000
    138         10.630397   0.000000
    139         10.768172   0.000000
    140         10.858496   0.000000
    141         10.896033   0.000000

  0.1428571E+00  0.1262379E-14  0.1428571E+00  0.1020408E-01
      1        -25.455968   1.000000
      2        -25.455925   1.000000
      3        -25.451335   1.000000
      4        -25.451325   1.000000
      5        -25.441355   1.000000
      6        -25.441349   1.000000
      7        -25.440934   1.000000
      8        -25.440914   1.000000
      9        -25.412075   1.000000
     10        -25.412054   1.000000
     11        -25.411743   1.000000
     12        -25.411718   1.000000
     13        -25.389488   1.000000
     14        -25.389480   1.000000
     15        -25.388928   1.000000
     16        -25.388922   1.000000
     17        -25.384168   1.000000
     18        -25.384162   1.000000
     19        -25.383565   1.000000
     20        -25.383540   1.000000
     21        -12.769724   1.000000
     22        -12.540981   1.000000
     23        -11.801889   1.000000
     24        -11.716499   1.000000
     25        -11.445784   1.000000
     26        -11.287561   1.000000
     27        -11.220569   1.000000
     28        -11.195520   1.000000
     29        -11.005182   1.000000
     30        -10.866641   1.000000
     31        -10.829060   1.000000
     32        -10.811628   1.000000
     33         -6.366745   1.000000
     34         -6.359800   1.000000
     35         -5.518191   1.000000
     36         -5.333633   1.000000
     37         -2.738422   1.000000
     38         -2.539195   1.000000
     39         -2.388597   1.000000
     40         -2.344932   1.000000
     41         -2.052936   1.000000
     42         -2.026588   1.000000
     43         -2.022470   1.000000
     44         -1.957361   1.000000
     45         -1.842485   1.000000
     46         -1.510486   1.000000
     47         -1.419292   1.000000
     48         -1.417705   1.000000
     49         -1.278840   1.000000
     50         -1.262087   1.000000
     51         -1.037667   1.000000
     52         -1.008572   1.000000
     53         -0.971548   1.000000
     54         -0.883114   1.000000
     55         -0.752830   1.000000
     56         -0.663752   1.000000
     57         -0.653606   1.000000
     58         -0.652445   1.000000
     59         -0.612619   1.000000
     60         -0.603652   1.000000
     61         -0.585440   1.000000
     62         -0.526796   1.000000
     63         -0.515270   1.000000
     64         -0.451949   1.000000
     65         -0.434292   1.000000
     66         -0.415500   1.000000
     67         -0.397701   1.000000
     68         -0.296255   1.000000
     69          0.516021   1.000000
     70          0.517668   1.000000
     71          0.536755   1.000000
     72          0.566738   1.000000
     73          0.567290   1.000000
     74          0.567739   1.000000
     75          0.573311   1.000000
     76          0.626306   1.000000
     77          0.630092   1.000000
     78          0.636681   1.000000
     79          0.640362   1.000000
     80          0.643025   1.000000
     81          0.688034   1.000000
     82          0.696437   1.000000
     83          0.699387   1.000000
     84          0.735420   1.000000
     85          0.806195   1.000000
     86          0.941071   1.000000
     87          0.990593   1.000000
     88          1.002727   1.000000
     89          1.019499   1.000000
     90          1.027740   1.000000
     91          1.175104   1.000000
     92          1.199912   1.000000
     93          1.220643   1.000000
     94          1.422963   1.000000
     95          1.491268   1.000000
     96          1.739121   1.000000
     97          1.747791   1.000000
     98          1.956382   1.000000
     99          1.987963   1.000000
    100          2.138893   1.000000
    101          2.266440   1.000000
    102          2.325529   1.000000
    103          2.471864   1.000000
    104          2.524269   1.000000
    105          2.796548   1.000000
    106          2.813806   1.000000
    107          3.105009   1.000000
    108          3.250874   1.000000
    109          4.852412   0.000000
    110          4.902961   0.000000
    111          5.300205   0.000000
    112          5.656991   0.000000
    113          6.443986   0.000000
    114          6.785596   0.000000
    115          6.898344   0.000000
    116          7.015616   0.000000
    117          7.326732   0.000000
    118          7.415627   0.000000
    119          7.560235   0.000000
    120          7.842230   0.000000
    121          7.895363   0.000000
    122          7.919934   0.000000
    123          8.356839   0.000000
    124          8.498439   0.000000
    125          8.729618   0.000000
    126          8.932524   0.000000
    127          9.226912   0.000000
    128          9.309172   0.000000
    129          9.737100   0.000000
    130          9.739497   0.000000
    131          9.870878   0.000000
    132          9.957403   0.000000
    133         10.127822   0.000000
    134         10.151274   0.000000
    135         10.346933   0.000000
    136         10.397876   0.000000
    137         10.548438   0.000000
    138         10.559603   0.000000
    139         10.727603   0.000000
    140         10.954171   0.000000
    141         11.003254   0.000000

  0.2857143E+00  0.1262379E-14  0.1428571E+00  0.1020408E-01
      1        -25.455956   1.000000
      2        -25.455938   1.000000
      3        -25.451336   1.000000
      4        -25.451318   1.000000
      5        -25.441355   1.000000
      6        -25.441349   1.000000
      7        -25.440930   1.000000
      8        -25.440907   1.000000
      9        -25.412053   1.000000
     10        -25.412038   1.000000
     11        -25.411743   1.000000
     12        -25.411737   1.000000
     13        -25.389490   1.000000
     14        -25.389476   1.000000
     15        -25.388930   1.000000
     16        -25.388916   1.000000
     17        -25.384171   1.000000
     18        -25.384157   1.000000
     19        -25.383554   1.000000
     20        -25.383548   1.000000
     21        -12.677400   1.000000
     22        -12.523148   1.000000
     23        -11.722880   1.000000
     24        -11.721721   1.000000
     25        -11.441885   1.000000
     26        -11.310596   1.000000
     27        -11.292948   1.000000
     28        -11.290168   1.000000
     29        -11.016581   1.000000
     30        -10.932206   1.000000
     31        -10.859625   1.000000
     32        -10.841704   1.000000
     33         -6.329073   1.000000
     34         -6.324496   1.000000
     35         -5.392989   1.000000
     36         -5.232281   1.000000
     37         -2.633365   1.000000
     38         -2.458626   1.000000
     39         -2.391692   1.000000
     40         -2.272965   1.000000
     41         -2.068475   1.000000
     42         -1.995750   1.000000
     43         -1.986720   1.000000
     44         -1.873137   1.000000
     45         -1.702312   1.000000
     46         -1.668381   1.000000
     47         -1.546404   1.000000
     48         -1.449848   1.000000
     49         -1.361755   1.000000
     50         -1.274075   1.000000
     51         -0.980705   1.000000
     52         -0.921042   1.000000
     53         -0.918192   1.000000
     54         -0.882733   1.000000
     55         -0.859502   1.000000
     56         -0.690214   1.000000
     57         -0.657712   1.000000
     58         -0.626601   1.000000
     59         -0.622894   1.000000
     60         -0.618455   1.000000
     61         -0.600369   1.000000
     62         -0.523243   1.000000
     63         -0.503470   1.000000
     64         -0.483708   1.000000
     65         -0.470035   1.000000
     66         -0.436528   1.000000
     67         -0.366679   1.000000
     68         -0.341908   1.000000
     69          0.519822   1.000000
     70          0.529515   1.000000
     71          0.537727   1.000000
     72          0.554621   1.000000
     73          0.565559   1.000000
     74          0.609996   1.000000
     75          0.615272   1.000000
     76          0.617929   1.000000
     77          0.618912   1.000000
     78          0.638882   1.000000
     79          0.640453   1.000000
     80          0.645694   1.000000
     81          0.691865   1.000000
     82          0.722675   1.000000
     83          0.723711   1.000000
     84          0.727827   1.000000
     85          0.831840   1.000000
     86          0.845045   1.000000
     87          0.884414   1.000000
     88          0.980105   1.000000
     89          1.050142   1.000000
     90          1.134755   1.000000
     91          1.270627   1.000000
     92          1.275347   1.000000
     93          1.279276   1.000000
     94          1.434893   1.000000
     95          1.552169   1.000000
     96          1.590788   1.000000
     97          1.653809   1.000000
     98          1.877036   1.000000
     99          1.927629   1.000000
    100          1.943382   1.000000
    101          2.108335   1.000000
    102          2.196282   1.000000
    103          2.288804   1.000000
    104          2.392963   1.000000
    105          2.749443   1.000000
    106          2.869841   1.000000
    107          2.891698   1.000000
    108          3.168345   1.000000
    109          4.973042   0.000000
    110          5.053574   0.000000
    111          5.534525   0.000000
    112          5.682975   0.000000
    113          6.441557   0.000000
    114          6.904176   0.000000
    115          7.019724   0.000000
    116          7.168962   0.000000
    117          7.178295   0.000000
    118          7.468603   0.000000
    119          7.646843   0.000000
    120          7.805917   0.000000
    121          7.886923   0.000000
    122          8.028323   0.000000
    123          8.076866   0.000000
    124          8.251358   0.000000
    125          9.004741   0.000000
    126          9.047824   0.000000
    127          9.233973   0.000000
    128          9.259673   0.000000
    129          9.932728   0.000000
    130          9.947307   0.000000
    131         10.002631   0.000000
    132         10.234063   0.000000
    133         10.275679   0.000000
    134         10.360189   0.000000
    135         10.505079   0.000000
    136         10.583287   0.000000
    137         10.644694   0.000000
    138         10.749515   0.000000
    139         10.775928   0.000000
    140         10.851379   0.000000
    141         10.874706   0.000000

  0.4285714E+00  0.1262379E-14  0.1428571E+00  0.1020408E-01
      1        -25.455946   1.000000
      2        -25.455939   1.000000
      3        -25.451335   1.000000
      4        -25.451315   1.000000
      5        -25.441353   1.000000
      6        -25.441344   1.000000
      7        -25.440921   1.000000
      8        -25.440912   1.000000
      9        -25.412046   1.000000
     10        -25.412039   1.000000
     11        -25.411736   1.000000
     12        -25.411730   1.000000
     13        -25.389487   1.000000
     14        -25.389482   1.000000
     15        -25.388932   1.000000
     16        -25.388926   1.000000
     17        -25.384168   1.000000
     18        -25.384163   1.000000
     19        -25.383556   1.000000
     20        -25.383547   1.000000
     21        -12.582120   1.000000
     22        -12.552735   1.000000
     23        -11.726251   1.000000
     24        -11.640748   1.000000
     25        -11.411116   1.000000
     26        -11.364067   1.000000
     27        -11.338798   1.000000
     28        -11.328168   1.000000
     29        -11.013526   1.000000
     30        -10.972974   1.000000
     31        -10.923362   1.000000
     32        -10.860210   1.000000
     33         -6.313853   1.000000
     34         -6.307219   1.000000
     35         -5.298823   1.000000
     36         -5.233155   1.000000
     37         -2.504231   1.000000
     38         -2.491978   1.000000
     39         -2.481820   1.000000
     40         -2.242650   1.000000
     41         -2.086672   1.000000
     42         -2.039549   1.000000
     43         -1.973733   1.000000
     44         -1.770238   1.000000
     45         -1.633559   1.000000
     46         -1.622198   1.000000
     47         -1.532080   1.000000
     48         -1.476839   1.000000
     49         -1.409936   1.000000
     50         -1.276864   1.000000
     51         -1.009419   1.000000
     52         -0.954457   1.000000
     53         -0.911615   1.000000
     54         -0.803681   1.000000
     55         -0.758549   1.000000
     56         -0.698508   1.000000
     57         -0.637781   1.000000
     58         -0.632966   1.000000
     59         -0.620332   1.000000
     60         -0.599874   1.000000
     61         -0.574913   1.000000
     62         -0.547998   1.000000
     63         -0.501702   1.000000
     64         -0.496862   1.000000
     65         -0.494551   1.000000
     66         -0.479885   1.000000
     67         -0.382700   1.000000
     68         -0.343440   1.000000
     69          0.504540   1.000000
     70          0.518797   1.000000
     71          0.542169   1.000000
     72          0.547126   1.000000
     73          0.594826   1.000000
     74          0.604392   1.000000
     75          0.616452   1.000000
     76          0.621466   1.000000
     77          0.621936   1.000000
     78          0.640213   1.000000
     79          0.642711   1.000000
     80          0.652938   1.000000
     81          0.697148   1.000000
     82          0.697191   1.000000
     83          0.739385   1.000000
     84          0.763996   1.000000
     85          0.835978   1.000000
     86          0.855695   1.000000
     87          0.860857   1.000000
     88          1.047541   1.000000
     89          1.066691   1.000000
     90          1.135933   1.000000
     91          1.242692   1.000000
     92          1.371432   1.000000
     93          1.472318   1.000000
     94          1.475528   1.000000
     95          1.486502   1.000000
     96          1.558368   1.000000
     97          1.636263   1.000000
     98          1.725167   1.000000
     99          1.763536   1.000000
    100          1.833554   1.000000
    101          2.011833   1.000000
    102          2.089874   1.000000
    103          2.315346   1.000000
    104          2.443740   1.000000
    105          2.763683   1.000000
    106          2.769981   1.000000
    107          3.018120   1.000000
    108          3.088568   1.000000
    109          5.000227   0.000000
    110          5.034087   0.000000
    111          5.535441   0.000000
    112          5.713339   0.000000
    113          6.364651   0.000000
    114          6.835252   0.000000
    115          7.000749   0.000000
    116          7.159202   0.000000
    117          7.257219   0.000000
    118          7.416167   0.000000
    119          7.458139   0.000000
    120          7.586846   0.000000
    121          7.886033   0.000000
    122          7.945140   0.000000
    123          7.989916   0.000000
    124          8.097018   0.000000
    125          9.047173   0.000000
    126          9.079680   0.000000
    127          9.368148   0.000000
    128          9.426745   0.000000
    129          9.702242   0.000000
    130          9.795513   0.000000
    131         10.031872   0.000000
    132         10.231791   0.000000
    133         10.240883   0.000000
    134         10.264665   0.000000
    135         10.366625   0.000000
    136         10.594911   0.000000
    137         10.622769   0.000000
    138         10.745722   0.000000
    139         10.814641   0.000000
    140         10.856804   0.000000
    141         11.095208   0.000000

 -0.4285714E+00  0.1262379E-14  0.1428571E+00  0.1020408E-01
      1        -25.455952   1.000000
      2        -25.455935   1.000000
      3        -25.451339   1.000000
      4        -25.451309   1.000000
      5        -25.441355   1.000000
      6        -25.441344   1.000000
      7        -25.440920   1.000000
      8        -25.440914   1.000000
      9        -25.412050   1.000000
     10        -25.412045   1.000000
     11        -25.411742   1.000000
     12        -25.411735   1.000000
     13        -25.389481   1.000000
     14        -25.389475   1.000000
     15        -25.388939   1.000000
     16        -25.388924   1.000000
     17        -25.384176   1.000000
     18        -25.384157   1.000000
     19        -25.383552   1.000000
     20        -25.383541   1.000000
     21        -12.639297   1.000000
     22        -12.533388   1.000000
     23        -11.755661   1.000000
     24        -11.595133   1.000000
     25        -11.373793   1.000000
     26        -11.364408   1.000000
     27        -11.352130   1.000000
     28        -11.280039   1.000000
     29        -10.988530   1.000000
     30        -10.965944   1.000000
     31        -10.946159   1.000000
     32        -10.887190   1.000000
     33         -6.333525   1.000000
     34         -6.318994   1.000000
     35         -5.345595   1.000000
     36         -5.284238   1.000000
     37         -2.645841   1.000000
     38         -2.573143   1.000000
     39         -2.375158   1.000000
     40         -2.279770   1.000000
     41         -2.211513   1.000000
     42         -2.032940   1.000000
     43         -2.027051   1.000000
     44         -1.833808   1.000000
     45         -1.786619   1.000000
     46         -1.591651   1.000000
     47         -1.402267   1.000000
     48         -1.367290   1.000000
     49         -1.261389   1.000000
     50         -1.140988   1.000000
     51         -1.039377   1.000000
     52         -0.938012   1.000000
     53         -0.796368   1.000000
     54         -0.726364   1.000000
     55         -0.666999   1.000000
     56         -0.661654   1.000000
     57         -0.660701   1.000000
     58         -0.651101   1.000000
     59         -0.628030   1.000000
     60         -0.608121   1.000000
     61         -0.605545   1.000000
     62         -0.598586   1.000000
     63         -0.539222   1.000000
     64         -0.498912   1.000000
     65         -0.489085   1.000000
     66         -0.459453   1.000000
     67         -0.402333   1.000000
     68         -0.323738   1.000000
     69          0.481944   1.000000
     70          0.499809   1.000000
     71          0.529146   1.000000
     72          0.531831   1.000000
     73          0.581739   1.000000
     74          0.585048   1.000000
     75          0.616431   1.000000
     76          0.628736   1.000000
     77          0.635850   1.000000
     78          0.637002   1.000000
     79          0.648174   1.000000
     80          0.662263   1.000000
     81          0.674397   1.000000
     82          0.707835   1.000000
     83          0.725217   1.000000
     84          0.729945   1.000000
     85          0.911446   1.000000
     86          0.923075   1.000000
     87          0.934172   1.000000
     88          1.022760   1.000000
     89          1.043127   1.000000
     90          1.158817   1.000000
     91          1.299260   1.000000
     92          1.316873   1.000000
     93          1.436242   1.000000
     94          1.464555   1.000000
     95          1.466975   1.000000
     96          1.611266   1.000000
     97          1.622873   1.000000
     98          1.688930   1.000000
     99          1.882159   1.000000
    100          1.974472   1.000000
    101          2.094639   1.000000
    102          2.143661   1.000000
    103          2.358951   1.000000
    104          2.539446   1.000000
    105          2.700045   1.000000
    106          2.804287   1.000000
    107          3.060709   1.000000
    108          3.159900   1.000000
    109          4.816408   0.000000
    110          5.053804   0.000000
    111          5.507930   0.000000
    112          5.601403   0.000000
    113          6.525720   0.000000
    114          6.651709   0.000000
    115          6.841091   0.000000
    116          6.876099   0.000000
    117          6.976564   0.000000
    118          7.277156   0.000000
    119          7.309235   0.000000
    120          7.650227   0.000000
    121          7.714728   0.000000
    122          7.960375   0.000000
    123          7.976617   0.000000
    124          8.292998   0.000000
    125          8.734664   0.000000
    126          8.874113   0.000000
    127          9.221062   0.000000
    128          9.358634   0.000000
    129          9.478578   0.000000
    130          9.725623   0.000000
    131          9.816162   0.000000
    132         10.027352   0.000000
    133         10.046353   0.000000
    134         10.134453   0.000000
    135         10.143665   0.000000
    136         10.352313   0.000000
    137         10.581104   0.000000
    138         10.854557   0.000000
    139         10.896247   0.000000
    140         10.978338   0.000000
    141         11.239348   0.000000

 -0.2857143E+00  0.1262379E-14  0.1428571E+00  0.1020408E-01
      1        -25.455963   1.000000
      2        -25.455933   1.000000
      3        -25.451338   1.000000
      4        -25.451311   1.000000
      5        -25.441356   1.000000
      6        -25.441346   1.000000
      7        -25.440925   1.000000
      8        -25.440915   1.000000
      9        -25.412067   1.000000
     10        -25.412053   1.000000
     11        -25.411740   1.000000
     12        -25.411721   1.000000
     13        -25.389490   1.000000
     14        -25.389480   1.000000
     15        -25.388937   1.000000
     16        -25.388919   1.000000
     17        -25.384172   1.000000
     18        -25.384152   1.000000
     19        -25.383558   1.000000
     20        -25.383540   1.000000
     21        -12.739770   1.000000
     22        -12.539460   1.000000
     23        -11.808479   1.000000
     24        -11.598609   1.000000
     25        -11.385948   1.000000
     26        -11.356759   1.000000
     27        -11.258117   1.000000
     28        -11.192679   1.000000
     29        -10.935134   1.000000
     30        -10.923130   1.000000
     31        -10.918262   1.000000
     32        -10.899751   1.000000
     33         -6.370223   1.000000
     34         -6.352854   1.000000
     35         -5.496483   1.000000
     36         -5.351434   1.000000
     37         -2.789471   1.000000
     38         -2.589145   1.000000
     39         -2.466404   1.000000
     40         -2.333021   1.000000
     41         -2.253269   1.000000
     42         -1.998195   1.000000
     43         -1.950537   1.000000
     44         -1.856584   1.000000
     45         -1.855422   1.000000
     46         -1.788959   1.000000
     47         -1.417526   1.000000
     48         -1.196405   1.000000
     49         -1.177866   1.000000
     50         -1.115782   1.000000
     51         -0.969186   1.000000
     52         -0.838585   1.000000
     53         -0.774986   1.000000
     54         -0.746573   1.000000
     55         -0.716208   1.000000
     56         -0.707968   1.000000
     57         -0.670671   1.000000
     58         -0.642142   1.000000
     59         -0.630747   1.000000
     60         -0.624729   1.000000
     61         -0.579019   1.000000
     62         -0.554422   1.000000
     63         -0.543037   1.000000
     64         -0.481492   1.000000
     65         -0.460587   1.000000
     66         -0.435623   1.000000
     67         -0.404862   1.000000
     68         -0.288815   1.000000
     69          0.453032   1.000000
     70          0.512454   1.000000
     71          0.534106   1.000000
     72          0.537065   1.000000
     73          0.579085   1.000000
     74          0.586994   1.000000
     75          0.609969   1.000000
     76          0.611757   1.000000
     77          0.626964   1.000000
     78          0.639893   1.000000
     79          0.656287   1.000000
     80          0.671695   1.000000
     81          0.672929   1.000000
     82          0.714008   1.000000
     83          0.738827   1.000000
     84          0.803763   1.000000
     85          0.818232   1.000000
     86          0.857992   1.000000
     87          0.863999   1.000000
     88          1.059837   1.000000
     89          1.064913   1.000000
     90          1.126675   1.000000
     91          1.280169   1.000000
     92          1.331481   1.000000
     93          1.505879   1.000000
     94          1.520558   1.000000
     95          1.569662   1.000000
     96          1.644315   1.000000
     97          1.664565   1.000000
     98          1.710860   1.000000
     99          1.988371   1.000000
    100          2.054102   1.000000
    101          2.159123   1.000000
    102          2.281829   1.000000
    103          2.493373   1.000000
    104          2.683561   1.000000
    105          2.865046   1.000000
    106          2.948317   1.000000
    107          3.066698   1.000000
    108          3.243603   1.000000
    109          4.634884   0.000000
    110          4.925131   0.000000
    111          5.365123   0.000000
    112          5.454412   0.000000
    113          6.205061   0.000000
    114          6.712254   0.000000
    115          6.714858   0.000000
    116          6.750148   0.000000
    117          6.929399   0.000000
    118          7.209241   0.000000
    119          7.272733   0.000000
    120          7.491300   0.000000
    121          7.628628   0.000000
    122          7.787866   0.000000
    123          8.216689   0.000000
    124          8.528349   0.000000
    125          8.601022   0.000000
    126          8.958420   0.000000
    127          9.082426   0.000000
    128          9.194424   0.000000
    129          9.355057   0.000000
    130          9.443271   0.000000
    131          9.732460   0.000000
    132          9.756673   0.000000
    133          9.917609   0.000000
    134         10.142704   0.000000
    135         10.194152   0.000000
    136         10.309803   0.000000
    137         10.682501   0.000000
    138         10.707561   0.000000
    139         10.795021   0.000000
    140         10.812050   0.000000
    141         11.187717   0.000000

 -0.1428571E+00  0.1262379E-14  0.1428571E+00  0.1020408E-01
      1        -25.455979   1.000000
      2        -25.455933   1.000000
      3        -25.451338   1.000000
      4        -25.451328   1.000000
      5        -25.441359   1.000000
      6        -25.441354   1.000000
      7        -25.440934   1.000000
      8        -25.440919   1.000000
      9        -25.412082   1.000000
     10        -25.412059   1.000000
     11        -25.411749   1.000000
     12        -25.411717   1.000000
     13        -25.389492   1.000000
     14        -25.389486   1.000000
     15        -25.388934   1.000000
     16        -25.388929   1.000000
     17        -25.384171   1.000000
     18        -25.384165   1.000000
     19        -25.383576   1.000000
     20        -25.383548   1.000000
     21        -12.807746   1.000000
     22        -12.560472   1.000000
     23        -11.848298   1.000000
     24        -11.641224   1.000000
     25        -11.407150   1.000000
     26        -11.335725   1.000000
     27        -11.162302   1.000000
     28        -11.140804   1.000000
     29        -10.962006   1.000000
     30        -10.868476   1.000000
     31        -10.854311   1.000000
     32        -10.840523   1.000000
     33         -6.395110   1.000000
     34         -6.386035   1.000000
     35         -5.600875   1.000000
     36         -5.431125   1.000000
     37         -2.844802   1.000000
     38         -2.573853   1.000000
     39         -2.533886   1.000000
     40         -2.398356   1.000000
     41         -2.205361   1.000000
     42         -2.066966   1.000000
     43         -1.964657   1.000000
     44         -1.950834   1.000000
     45         -1.613545   1.000000
     46         -1.606723   1.000000
     47         -1.593260   1.000000
     48         -1.282672   1.000000
     49         -1.267987   1.000000
     50         -1.159636   1.000000
     51         -0.973898   1.000000
     52         -0.897193   1.000000
     53         -0.850350   1.000000
     54         -0.759102   1.000000
     55         -0.718027   1.000000
     56         -0.703269   1.000000
     57         -0.663769   1.000000
     58         -0.614204   1.000000
     59         -0.612083   1.000000
     60         -0.597748   1.000000
     61         -0.571070   1.000000
     62         -0.540336   1.000000
     63         -0.538193   1.000000
     64         -0.434970   1.000000
     65         -0.424258   1.000000
     66         -0.423158   1.000000
     67         -0.406592   1.000000
     68         -0.257052   1.000000
     69          0.437356   1.000000
     70          0.536005   1.000000
     71          0.546585   1.000000
     72          0.556762   1.000000
     73          0.594736   1.000000
     74          0.599408   1.000000
     75          0.601301   1.000000
     76          0.619322   1.000000
     77          0.620963   1.000000
     78          0.627637   1.000000
     79          0.652221   1.000000
     80          0.673087   1.000000
     81          0.689455   1.000000
     82          0.702519   1.000000
     83          0.704578   1.000000
     84          0.710130   1.000000
     85          0.801937   1.000000
     86          0.861001   1.000000
     87          0.967110   1.000000
     88          1.001193   1.000000
     89          1.018174   1.000000
     90          1.119787   1.000000
     91          1.275545   1.000000
     92          1.321394   1.000000
     93          1.412104   1.000000
     94          1.454631   1.000000
     95          1.505774   1.000000
     96          1.713317   1.000000
     97          1.736762   1.000000
     98          1.931997   1.000000
     99          1.993075   1.000000
    100          2.116108   1.000000
    101          2.279636   1.000000
    102          2.340967   1.000000
    103          2.730584   1.000000
    104          2.840030   1.000000
    105          2.894149   1.000000
    106          3.127336   1.000000
    107          3.228186   1.000000
    108          3.235846   1.000000
    109          4.589824   0.000000
    110          4.658533   0.000000
    111          5.163074   0.000000
    112          5.396027   0.000000
    113          5.988917   0.000000
    114          6.472143   0.000000
    115          6.674630   0.000000
    116          6.905230   0.000000
    117          7.251246   0.000000
    118          7.272321   0.000000
    119          7.279728   0.000000
    120          7.444550   0.000000
    121          7.759366   0.000000
    122          7.867220   0.000000
    123          8.305309   0.000000
    124          8.551797   0.000000
    125          8.645240   0.000000
    126          9.048321   0.000000
    127          9.256757   0.000000
    128          9.263212   0.000000
    129          9.268225   0.000000
    130          9.269766   0.000000
    131          9.647256   0.000000
    132          9.689306   0.000000
    133          9.930537   0.000000
    134         10.016371   0.000000
    135         10.244706   0.000000
    136         10.342823   0.000000
    137         10.551549   0.000000
    138         10.651804   0.000000
    139         10.678730   0.000000
    140         10.993070   0.000000
    141         11.033616   0.000000

  0.1262379E-14  0.2500000E+00  0.1428571E+00  0.2040816E-01
      1        -25.455968   1.000000
      2        -25.455938   1.000000
      3        -25.451333   1.000000
      4        -25.451328   1.000000
      5        -25.441357   1.000000
      6        -25.441350   1.000000
      7        -25.440926   1.000000
      8        -25.440914   1.000000
      9        -25.412071   1.000000
     10        -25.412057   1.000000
     11        -25.411740   1.000000
     12        -25.411720   1.000000
     13        -25.389490   1.000000
     14        -25.389484   1.000000
     15        -25.388928   1.000000
     16        -25.388923   1.000000
     17        -25.384168   1.000000
     18        -25.384162   1.000000
     19        -25.383568   1.000000
     20        -25.383547   1.000000
     21        -12.789849   1.000000
     22        -12.612851   1.000000
     23        -11.791639   1.000000
     24        -11.682993   1.000000
     25        -11.445996   1.000000
     26        -11.367552   1.000000
     27        -11.135045   1.000000
     28        -11.119221   1.000000
     29        -10.974937   1.000000
     30        -10.882319   1.000000
     31        -10.801319   1.000000
     32        -10.795144   1.000000
     33         -6.394190   1.000000
     34         -6.392158   1.000000
     35         -5.581204   1.000000
     36         -5.456523   1.000000
     37         -2.800803   1.000000
     38         -2.643778   1.000000
     39         -2.481279   1.000000
     40         -2.477799   1.000000
     41         -2.121295   1.000000
     42         -2.091140   1.000000
     43         -1.956171   1.000000
     44         -1.835200   1.000000
     45         -1.714168   1.000000
     46         -1.577377   1.000000
     47         -1.443906   1.000000
     48         -1.329438   1.000000
     49         -1.194886   1.000000
     50         -1.114330   1.000000
     51         -1.057072   1.000000
     52         -1.049955   1.000000
     53         -0.967083   1.000000
     54         -0.794503   1.000000
     55         -0.732077   1.000000
     56         -0.687910   1.000000
     57         -0.645670   1.000000
     58         -0.624651   1.000000
     59         -0.614794   1.000000
     60         -0.595629   1.000000
     61         -0.573218   1.000000
     62         -0.559332   1.000000
     63         -0.513318   1.000000
     64         -0.451481   1.000000
     65         -0.426438   1.000000
     66         -0.423282   1.000000
     67         -0.388609   1.000000
     68         -0.288633   1.000000
     69          0.472912   1.000000
     70          0.512002   1.000000
     71          0.521289   1.000000
     72          0.556824   1.000000
     73          0.557778   1.000000
     74          0.581553   1.000000
     75          0.598459   1.000000
     76          0.610506   1.000000
     77          0.619210   1.000000
     78          0.627403   1.000000
     79          0.648677   1.000000
     80          0.653770   1.000000
     81          0.674672   1.000000
     82          0.677372   1.000000
     83          0.700446   1.000000
     84          0.726571   1.000000
     85          0.829370   1.000000
     86          0.930278   1.000000
     87          0.958990   1.000000
     88          1.061483   1.000000
     89          1.069851   1.000000
     90          1.195466   1.000000
     91          1.198652   1.000000
     92          1.264283   1.000000
     93          1.352407   1.000000
     94          1.372292   1.000000
     95          1.528443   1.000000
     96          1.680268   1.000000
     97          1.731760   1.000000
     98          1.917669   1.000000
     99          2.023738   1.000000
    100          2.147995   1.000000
    101          2.195570   1.000000
    102          2.451100   1.000000
    103          2.454722   1.000000
    104          2.678122   1.000000
    105          2.853720   1.000000
    106          3.128508   1.000000
    107          3.134671   1.000000
    108          3.257664   1.000000
    109          4.733705   0.000000
    110          4.818845   0.000000
    111          5.205564   0.000000
    112          5.589296   0.000000
    113          6.239762   0.000000
    114          6.604700   0.000000
    115          6.759983   0.000000
    116          7.150509   0.000000
    117          7.259815   0.000000
    118          7.280062   0.000000
    119          7.575531   0.000000
    120          7.661212   0.000000
    121          7.970431   0.000000
    122          8.163065   0.000000
    123          8.348830   0.000000
    124          8.495048   0.000000
    125          8.666935   0.000000
    126          8.905460   0.000000
    127          9.182020   0.000000
    128          9.256110   0.000000
    129          9.309321   0.000000
    130          9.451255   0.000000
    131          9.628074   0.000000
    132          9.645123   0.000000
    133          9.946577   0.000000
    134          9.950830   0.000000
    135         10.166660   0.000000
    136         10.231316   0.000000
    137         10.377908   0.000000
    138         10.379686   0.000000
    139         10.685059   0.000000
    140         10.831296   0.000000
    141         11.112567   0.000000

  0.1428571E+00  0.2500000E+00  0.1428571E+00  0.2040816E-01
      1        -25.455963   1.000000
      2        -25.455932   1.000000
      3        -25.451336   1.000000
      4        -25.451325   1.000000
      5        -25.441356   1.000000
      6        -25.441345   1.000000
      7        -25.440925   1.000000
      8        -25.440914   1.000000
      9        -25.412068   1.000000
     10        -25.412056   1.000000
     11        -25.411740   1.000000
     12        -25.411719   1.000000
     13        -25.389487   1.000000
     14        -25.389481   1.000000
     15        -25.388926   1.000000
     16        -25.388920   1.000000
     17        -25.384165   1.000000
     18        -25.384159   1.000000
     19        -25.383563   1.000000
     20        -25.383542   1.000000
     21        -12.742909   1.000000
     22        -12.583979   1.000000
     23        -11.763244   1.000000
     24        -11.709108   1.000000
     25        -11.455002   1.000000
     26        -11.355470   1.000000
     27        -11.200620   1.000000
     28        -11.164304   1.000000
     29        -10.992364   1.000000
     30        -10.905937   1.000000
     31        -10.810533   1.000000
     32        -10.806883   1.000000
     33         -6.367178   1.000000
     34         -6.362123   1.000000
     35         -5.493056   1.000000
     36         -5.362159   1.000000
     37         -2.723087   1.000000
     38         -2.576407   1.000000
     39         -2.438376   1.000000
     40         -2.397314   1.000000
     41         -2.144361   1.000000
     42         -2.136557   1.000000
     43         -1.893744   1.000000
     44         -1.806087   1.000000
     45         -1.735813   1.000000
     46         -1.513102   1.000000
     47         -1.426741   1.000000
     48         -1.358618   1.000000
     49         -1.247633   1.000000
     50         -1.163931   1.000000
     51         -1.071816   1.000000
     52         -1.052275   1.000000
     53         -0.955906   1.000000
     54         -0.869299   1.000000
     55         -0.791608   1.000000
     56         -0.711874   1.000000
     57         -0.670635   1.000000
     58         -0.654784   1.000000
     59         -0.611979   1.000000
     60         -0.586385   1.000000
     61         -0.576400   1.000000
     62         -0.536365   1.000000
     63         -0.524339   1.000000
     64         -0.499504   1.000000
     65         -0.434111   1.000000
     66         -0.413470   1.000000
     67         -0.389975   1.000000
     68         -0.316338   1.000000
     69          0.485948   1.000000
     70          0.505383   1.000000
     71          0.524745   1.000000
     72          0.557124   1.000000
     73          0.563910   1.000000
     74          0.576528   1.000000
     75          0.596564   1.000000
     76          0.608318   1.000000
     77          0.613286   1.000000
     78          0.627633   1.000000
     79          0.651128   1.000000
     80          0.661031   1.000000
     81          0.661791   1.000000
     82          0.691147   1.000000
     83          0.708948   1.000000
     84          0.710163   1.000000
     85          0.816192   1.000000
     86          0.945012   1.000000
     87          0.983173   1.000000
     88          1.040408   1.000000
     89          1.114389   1.000000
     90          1.124736   1.000000
     91          1.197506   1.000000
     92          1.210930   1.000000
     93          1.303090   1.000000
     94          1.373844   1.000000
     95          1.466037   1.000000
     96          1.619263   1.000000
     97          1.773312   1.000000
     98          1.878591   1.000000
     99          2.049379   1.000000
    100          2.109965   1.000000
    101          2.212097   1.000000
    102          2.322827   1.000000
    103          2.409170   1.000000
    104          2.450062   1.000000
    105          2.765426   1.000000
    106          2.908567   1.000000
    107          2.997618   1.000000
    108          3.087585   1.000000
    109          4.987401   0.000000
    110          5.012167   0.000000
    111          5.427244   0.000000
    112          5.687351   0.000000
    113          6.578363   0.000000
    114          6.851372   0.000000
    115          6.858113   0.000000
    116          7.060134   0.000000
    117          7.295119   0.000000
    118          7.366215   0.000000
    119          7.748936   0.000000
    120          7.897790   0.000000
    121          7.940021   0.000000
    122          8.045863   0.000000
    123          8.299253   0.000000
    124          8.524028   0.000000
    125          8.681618   0.000000
    126          8.920854   0.000000
    127          9.244073   0.000000
    128          9.245728   0.000000
    129          9.525790   0.000000
    130          9.700975   0.000000
    131          9.796088   0.000000
    132          9.877159   0.000000
    133         10.036443   0.000000
    134         10.131140   0.000000
    135         10.173482   0.000000
    136         10.344488   0.000000
    137         10.435347   0.000000
    138         10.507796   0.000000
    139         10.616413   0.000000
    140         10.802208   0.000000
    141         10.978789   0.000000

  0.2857143E+00  0.2500000E+00  0.1428571E+00  0.2040816E-01
      1        -25.455956   1.000000
      2        -25.455932   1.000000
      3        -25.451336   1.000000
      4        -25.451320   1.000000
      5        -25.441355   1.000000
      6        -25.441347   1.000000
      7        -25.440925   1.000000
      8        -25.440914   1.000000
      9        -25.412051   1.000000
     10        -25.412045   1.000000
     11        -25.411741   1.000000
     12        -25.411733   1.000000
     13        -25.389486   1.000000
     14        -25.389480   1.000000
     15        -25.388929   1.000000
     16        -25.388922   1.000000
     17        -25.384168   1.000000
     18        -25.384162   1.000000
     19        -25.383556   1.000000
     20        -25.383546   1.000000
     21        -12.657185   1.000000
     22        -12.548490   1.000000
     23        -11.718351   1.000000
     24        -11.717925   1.000000
     25        -11.446813   1.000000
     26        -11.379493   1.000000
     27        -11.274347   1.000000
     28        -11.220458   1.000000
     29        -11.011977   1.000000
     30        -10.954536   1.000000
     31        -10.856042   1.000000
     32        -10.844254   1.000000
     33         -6.328986   1.000000
     34         -6.325394   1.000000
     35         -5.374809   1.000000
     36         -5.260735   1.000000
     37         -2.629458   1.000000
     38         -2.522071   1.000000
     39         -2.399613   1.000000
     40         -2.351133   1.000000
     41         -2.113759   1.000000
     42         -2.088785   1.000000
     43         -1.833682   1.000000
     44         -1.802708   1.000000
     45         -1.605064   1.000000
     46         -1.554257   1.000000
     47         -1.482061   1.000000
     48         -1.459635   1.000000
     49         -1.338986   1.000000
     50         -1.159950   1.000000
     51         -1.033350   1.000000
     52         -1.005409   1.000000
     53         -0.948097   1.000000
     54         -0.935694   1.000000
     55         -0.831023   1.000000
     56         -0.718543   1.000000
     57         -0.686090   1.000000
     58         -0.659589   1.000000
     59         -0.620362   1.000000
     60         -0.610388   1.000000
     61         -0.584726   1.000000
     62         -0.538280   1.000000
     63         -0.531597   1.000000
     64         -0.503780   1.000000
     65         -0.454271   1.000000
     66         -0.417469   1.000000
     67         -0.369345   1.000000
     68         -0.349623   1.000000
     69          0.489514   1.000000
     70          0.509074   1.000000
     71          0.539657   1.000000
     72          0.544672   1.000000
     73          0.572314   1.000000
     74          0.592131   1.000000
     75          0.605960   1.000000
     76          0.607140   1.000000
     77          0.626633   1.000000
     78          0.636592   1.000000
     79          0.640805   1.000000
     80          0.659615   1.000000
     81          0.686979   1.000000
     82          0.689456   1.000000
     83          0.711060   1.000000
     84          0.741463   1.000000
     85          0.830797   1.000000
     86          0.850716   1.000000
     87          0.953011   1.000000
     88          1.038968   1.000000
     89          1.098284   1.000000
     90          1.197444   1.000000
     91          1.241977   1.000000
     92          1.274745   1.000000
     93          1.348483   1.000000
     94          1.355882   1.000000
     95          1.503666   1.000000
     96          1.554498   1.000000
     97          1.677212   1.000000
     98          1.730874   1.000000
     99          1.942045   1.000000
    100          1.971560   1.000000
    101          2.163852   1.000000
    102          2.248240   1.000000
    103          2.264229   1.000000
    104          2.353442   1.000000
    105          2.547212   1.000000
    106          2.875354   1.000000
    107          2.987167   1.000000
    108          2.994342   1.000000
    109          5.056551   0.000000
    110          5.158707   0.000000
    111          5.616089   0.000000
    112          5.727447   0.000000
    113          6.545892   0.000000
    114          6.958982   0.000000
    115          7.028790   0.000000
    116          7.160972   0.000000
    117          7.183431   0.000000
    118          7.516172   0.000000
    119          7.667661   0.000000
    120          7.832933   0.000000
    121          7.952132   0.000000
    122          8.074140   0.000000
    123          8.191448   0.000000
    124          8.419446   0.000000
    125          8.973935   0.000000
    126          9.066886   0.000000
    127          9.206368   0.000000
    128          9.242715   0.000000
    129          9.635259   0.000000
    130          9.810684   0.000000
    131          9.963065   0.000000
    132         10.054011   0.000000
    133         10.140584   0.000000
    134         10.286743   0.000000
    135         10.393738   0.000000
    136         10.445434   0.000000
    137         10.526383   0.000000
    138         10.653691   0.000000
    139         10.742426   0.000000
    140         10.910797   0.000000
    141         11.012334   0.000000

  0.4285714E+00  0.2500000E+00  0.1428571E+00  0.2040816E-01
      1        -25.455944   1.000000
      2        -25.455938   1.000000
      3        -25.451338   1.000000
      4        -25.451320   1.000000
      5        -25.441355   1.000000
      6        -25.441349   1.000000
      7        -25.440922   1.000000
      8        -25.440911   1.000000
      9        -25.412045   1.000000
     10        -25.412039   1.000000
     11        -25.411736   1.000000
     12        -25.411731   1.000000
     13        -25.389483   1.000000
     14        -25.389476   1.000000
     15        -25.388931   1.000000
     16        -25.388925   1.000000
     17        -25.384168   1.000000
     18        -25.384162   1.000000
     19        -25.383549   1.000000
     20        -25.383543   1.000000
     21        -12.576095   1.000000
     22        -12.555174   1.000000
     23        -11.723722   1.000000
     24        -11.669348   1.000000
     25        -11.435780   1.000000
     26        -11.419244   1.000000
     27        -11.274741   1.000000
     28        -11.258007   1.000000
     29        -11.019534   1.000000
     30        -10.988178   1.000000
     31        -10.918274   1.000000
     32        -10.874737   1.000000
     33         -6.312256   1.000000
     34         -6.307272   1.000000
     35         -5.297654   1.000000
     36         -5.250897   1.000000
     37         -2.588715   1.000000
     38         -2.555343   1.000000
     39         -2.390226   1.000000
     40         -2.310982   1.000000
     41         -2.070614   1.000000
     42         -2.067394   1.000000
     43         -1.847150   1.000000
     44         -1.790605   1.000000
     45         -1.642753   1.000000
     46         -1.513608   1.000000
     47         -1.429094   1.000000
     48         -1.414582   1.000000
     49         -1.349934   1.000000
     50         -1.240507   1.000000
     51         -1.063163   1.000000
     52         -1.006264   1.000000
     53         -0.928967   1.000000
     54         -0.865056   1.000000
     55         -0.773697   1.000000
     56         -0.703948   1.000000
     57         -0.702750   1.000000
     58         -0.665361   1.000000
     59         -0.617620   1.000000
     60         -0.595262   1.000000
     61         -0.578824   1.000000
     62         -0.547489   1.000000
     63         -0.531366   1.000000
     64         -0.505834   1.000000
     65         -0.451789   1.000000
     66         -0.445815   1.000000
     67         -0.379097   1.000000
     68         -0.351870   1.000000
     69          0.500155   1.000000
     70          0.507741   1.000000
     71          0.528744   1.000000
     72          0.532041   1.000000
     73          0.569303   1.000000
     74          0.575734   1.000000
     75          0.616723   1.000000
     76          0.618881   1.000000
     77          0.639484   1.000000
     78          0.641665   1.000000
     79          0.651311   1.000000
     80          0.662279   1.000000
     81          0.674913   1.000000
     82          0.678343   1.000000
     83          0.732530   1.000000
     84          0.771815   1.000000
     85          0.840930   1.000000
     86          0.859920   1.000000
     87          0.949541   1.000000
     88          1.030489   1.000000
     89          1.118413   1.000000
     90          1.166989   1.000000
     91          1.253973   1.000000
     92          1.307114   1.000000
     93          1.364846   1.000000
     94          1.500055   1.000000
     95          1.542666   1.000000
     96          1.574163   1.000000
     97          1.641042   1.000000
     98          1.681442   1.000000
     99          1.730537   1.000000
    100          1.872355   1.000000
    101          2.043494   1.000000
    102          2.139248   1.000000
    103          2.245698   1.000000
    104          2.383073   1.000000
    105          2.539623   1.000000
    106          2.801412   1.000000
    107          2.977823   1.000000
    108          3.127817   1.000000
    109          5.100136   0.000000
    110          5.103058   0.000000
    111          5.609878   0.000000
    112          5.743237   0.000000
    113          6.444363   0.000000
    114          6.835710   0.000000
    115          6.838656   0.000000
    116          7.115466   0.000000
    117          7.371570   0.000000
    118          7.455182   0.000000
    119          7.538038   0.000000
    120          7.651078   0.000000
    121          8.063995   0.000000
    122          8.067721   0.000000
    123          8.158649   0.000000
    124          8.328097   0.000000
    125          9.038235   0.000000
    126          9.112244   0.000000
    127          9.229819   0.000000
    128          9.407929   0.000000
    129          9.486786   0.000000
    130          9.828788   0.000000
    131          9.862041   0.000000
    132         10.027775   0.000000
    133         10.069815   0.000000
    134         10.220491   0.000000
    135         10.287973   0.000000
    136         10.373028   0.000000
    137         10.424722   0.000000
    138         10.565360   0.000000
    139         10.723498   0.000000
    140         10.848601   0.000000
    141         10.867748   0.000000

 -0.4285714E+00  0.2500000E+00  0.1428571E+00  0.2040816E-01
      1        -25.455949   1.000000
      2        -25.455937   1.000000
      3        -25.451333   1.000000
      4        -25.451316   1.000000
      5        -25.441355   1.000000
      6        -25.441348   1.000000
      7        -25.440922   1.000000
      8        -25.440915   1.000000
      9        -25.412053   1.000000
     10        -25.412047   1.000000
     11        -25.411742   1.000000
     12        -25.411733   1.000000
     13        -25.389483   1.000000
     14        -25.389475   1.000000
     15        -25.388937   1.000000
     16        -25.388928   1.000000
     17        -25.384170   1.000000
     18        -25.384161   1.000000
     19        -25.383552   1.000000
     20        -25.383542   1.000000
     21        -12.624305   1.000000
     22        -12.549299   1.000000
     23        -11.739741   1.000000
     24        -11.625299   1.000000
     25        -11.411065   1.000000
     26        -11.410574   1.000000
     27        -11.277210   1.000000
     28        -11.227057   1.000000
     29        -11.003638   1.000000
     30        -10.983206   1.000000
     31        -10.936168   1.000000
     32        -10.892791   1.000000
     33         -6.330278   1.000000
     34         -6.320100   1.000000
     35         -5.345009   1.000000
     36         -5.301598   1.000000
     37         -2.698617   1.000000
     38         -2.541763   1.000000
     39         -2.474573   1.000000
     40         -2.294115   1.000000
     41         -2.221970   1.000000
     42         -2.099613   1.000000
     43         -1.887400   1.000000
     44         -1.740887   1.000000
     45         -1.601619   1.000000
     46         -1.583250   1.000000
     47         -1.469379   1.000000
     48         -1.264146   1.000000
     49         -1.244167   1.000000
     50         -1.210945   1.000000
     51         -0.967304   1.000000
     52         -0.946014   1.000000
     53         -0.830555   1.000000
     54         -0.808439   1.000000
     55         -0.779692   1.000000
     56         -0.706710   1.000000
     57         -0.667232   1.000000
     58         -0.656677   1.000000
     59         -0.614097   1.000000
     60         -0.604985   1.000000
     61         -0.580432   1.000000
     62         -0.568032   1.000000
     63         -0.528272   1.000000
     64         -0.523819   1.000000
     65         -0.473743   1.000000
     66         -0.428045   1.000000
     67         -0.395572   1.000000
     68         -0.341868   1.000000
     69          0.477311   1.000000
     70          0.486638   1.000000
     71          0.513100   1.000000
     72          0.519418   1.000000
     73          0.564865   1.000000
     74          0.580788   1.000000
     75          0.599455   1.000000
     76          0.627903   1.000000
     77          0.630871   1.000000
     78          0.641573   1.000000
     79          0.646532   1.000000
     80          0.656742   1.000000
     81          0.661445   1.000000
     82          0.692371   1.000000
     83          0.727281   1.000000
     84          0.762448   1.000000
     85          0.896016   1.000000
     86          0.941582   1.000000
     87          0.965837   1.000000
     88          1.086737   1.000000
     89          1.129230   1.000000
     90          1.175567   1.000000
     91          1.225962   1.000000
     92          1.296004   1.000000
     93          1.420529   1.000000
     94          1.483772   1.000000
     95          1.512735   1.000000
     96          1.545890   1.000000
     97          1.654547   1.000000
     98          1.678950   1.000000
     99          1.826111   1.000000
    100          1.973780   1.000000
    101          2.072080   1.000000
    102          2.124895   1.000000
    103          2.325639   1.000000
    104          2.416637   1.000000
    105          2.603240   1.000000
    106          2.806584   1.000000
    107          3.021992   1.000000
    108          3.262085   1.000000
    109          4.916935   0.000000
    110          5.076210   0.000000
    111          5.564357   0.000000
    112          5.631413   0.000000
    113          6.577168   0.000000
    114          6.603341   0.000000
    115          6.854526   0.000000
    116          6.871203   0.000000
    117          7.120799   0.000000
    118          7.336184   0.000000
    119          7.400589   0.000000
    120          7.652393   0.000000
    121          7.895003   0.000000
    122          8.005901   0.000000
    123          8.077261   0.000000
    124          8.368018   0.000000
    125          8.719729   0.000000
    126          8.976772   0.000000
    127          8.995394   0.000000
    128          9.298108   0.000000
    129          9.548972   0.000000
    130          9.624271   0.000000
    131          9.807202   0.000000
    132          9.840541   0.000000
    133          9.907845   0.000000
    134         10.132077   0.000000
    135         10.185739   0.000000
    136         10.316834   0.000000
    137         10.359632   0.000000
    138         10.707755   0.000000
    139         10.764798   0.000000
    140         10.892582   0.000000
    141         11.083063   0.000000

 -0.2857143E+00  0.2500000E+00  0.1428571E+00  0.2040816E-01
      1        -25.455958   1.000000
      2        -25.455933   1.000000
      3        -25.451333   1.000000
      4        -25.451316   1.000000
      5        -25.441354   1.000000
      6        -25.441346   1.000000
      7        -25.440924   1.000000
      8        -25.440918   1.000000
      9        -25.412066   1.000000
     10        -25.412057   1.000000
     11        -25.411737   1.000000
     12        -25.411724   1.000000
     13        -25.389488   1.000000
     14        -25.389480   1.000000
     15        -25.388935   1.000000
     16        -25.388926   1.000000
     17        -25.384171   1.000000
     18        -25.384159   1.000000
     19        -25.383560   1.000000
     20        -25.383546   1.000000
     21        -12.715596   1.000000
     22        -12.575843   1.000000
     23        -11.767351   1.000000
     24        -11.614348   1.000000
     25        -11.401516   1.000000
     26        -11.394282   1.000000
     27        -11.224835   1.000000
     28        -11.168366   1.000000
     29        -10.963630   1.000000
     30        -10.961693   1.000000
     31        -10.884126   1.000000
     32        -10.883478   1.000000
     33         -6.367204   1.000000
     34         -6.355251   1.000000
     35         -5.480824   1.000000
     36         -5.377845   1.000000
     37         -2.791655   1.000000
     38         -2.596951   1.000000
     39         -2.552329   1.000000
     40         -2.395061   1.000000
     41         -2.252212   1.000000
     42         -2.103055   1.000000
     43         -1.875549   1.000000
     44         -1.758100   1.000000
     45         -1.732813   1.000000
     46         -1.596474   1.000000
     47         -1.409414   1.000000
     48         -1.252366   1.000000
     49         -1.203319   1.000000
     50         -1.055740   1.000000
     51         -1.000544   1.000000
     52         -0.872337   1.000000
     53         -0.820050   1.000000
     54         -0.759145   1.000000
     55         -0.739056   1.000000
     56         -0.702944   1.000000
     57         -0.658742   1.000000
     58         -0.644412   1.000000
     59         -0.639733   1.000000
     60         -0.607025   1.000000
     61         -0.606642   1.000000
     62         -0.550042   1.000000
     63         -0.539442   1.000000
     64         -0.497833   1.000000
     65         -0.451708   1.000000
     66         -0.415698   1.000000
     67         -0.402780   1.000000
     68         -0.316796   1.000000
     69          0.445762   1.000000
     70          0.501205   1.000000
     71          0.514300   1.000000
     72          0.530620   1.000000
     73          0.577632   1.000000
     74          0.580651   1.000000
     75          0.593446   1.000000
     76          0.616101   1.000000
     77          0.627746   1.000000
     78          0.627992   1.000000
     79          0.644079   1.000000
     80          0.651409   1.000000
     81          0.658637   1.000000
     82          0.705759   1.000000
     83          0.719407   1.000000
     84          0.759666   1.000000
     85          0.892965   1.000000
     86          0.903722   1.000000
     87          0.975132   1.000000
     88          1.104596   1.000000
     89          1.108100   1.000000
     90          1.163163   1.000000
     91          1.298731   1.000000
     92          1.329786   1.000000
     93          1.448401   1.000000
     94          1.479166   1.000000
     95          1.548892   1.000000
     96          1.623467   1.000000
     97          1.694206   1.000000
     98          1.753390   1.000000
     99          1.876993   1.000000
    100          1.960512   1.000000
    101          2.093952   1.000000
    102          2.268951   1.000000
    103          2.419222   1.000000
    104          2.613485   1.000000
    105          2.855637   1.000000
    106          2.953945   1.000000
    107          3.048164   1.000000
    108          3.340193   1.000000
    109          4.705500   0.000000
    110          4.907406   0.000000
    111          5.409164   0.000000
    112          5.481558   0.000000
    113          6.354273   0.000000
    114          6.699288   0.000000
    115          6.814987   0.000000
    116          6.847989   0.000000
    117          6.941519   0.000000
    118          7.197681   0.000000
    119          7.414903   0.000000
    120          7.561269   0.000000
    121          7.710844   0.000000
    122          7.914009   0.000000
    123          8.122234   0.000000
    124          8.291502   0.000000
    125          8.664411   0.000000
    126          8.869751   0.000000
    127          9.051006   0.000000
    128          9.068894   0.000000
    129          9.387996   0.000000
    130          9.501886   0.000000
    131          9.693481   0.000000
    132          9.834309   0.000000
    133          9.850932   0.000000
    134          9.949492   0.000000
    135         10.205657   0.000000
    136         10.319421   0.000000
    137         10.448597   0.000000
    138         10.766178   0.000000
    139         10.830104   0.000000
    140         10.919437   0.000000
    141         11.192205   0.000000

 -0.1428571E+00  0.2500000E+00  0.1428571E+00  0.2040816E-01
      1        -25.455968   1.000000
      2        -25.455938   1.000000
      3        -25.451335   1.000000
      4        -25.451320   1.000000
      5        -25.441355   1.000000
      6        -25.441348   1.000000
      7        -25.440925   1.000000
      8        -25.440917   1.000000
      9        -25.412078   1.000000
     10        -25.412057   1.000000
     11        -25.411739   1.000000
     12        -25.411716   1.000000
     13        -25.389489   1.000000
     14        -25.389482   1.000000
     15        -25.388930   1.000000
     16        -25.388922   1.000000
     17        -25.384167   1.000000
     18        -25.384159   1.000000
     19        -25.383559   1.000000
     20        -25.383548   1.000000
     21        -12.779558   1.000000
     22        -12.608646   1.000000
     23        -11.791455   1.000000
     24        -11.643012   1.000000
     25        -11.422763   1.000000
     26        -11.385249   1.000000
     27        -11.144701   1.000000
     28        -11.121594   1.000000
     29        -10.965118   1.000000
     30        -10.906839   1.000000
     31        -10.838057   1.000000
     32        -10.821332   1.000000
     33         -6.394430   1.000000
     34         -6.388229   1.000000
     35         -5.578233   1.000000
     36         -5.457730   1.000000
     37         -2.829349   1.000000
     38         -2.645661   1.000000
     39         -2.552028   1.000000
     40         -2.481988   1.000000
     41         -2.162540   1.000000
     42         -2.072975   1.000000
     43         -1.937892   1.000000
     44         -1.866669   1.000000
     45         -1.630000   1.000000
     46         -1.591592   1.000000
     47         -1.489366   1.000000
     48         -1.307927   1.000000
     49         -1.164043   1.000000
     50         -1.133596   1.000000
     51         -1.021522   1.000000
     52         -0.891005   1.000000
     53         -0.839178   1.000000
     54         -0.800133   1.000000
     55         -0.744834   1.000000
     56         -0.719643   1.000000
     57         -0.642184   1.000000
     58         -0.618529   1.000000
     59         -0.614818   1.000000
     60         -0.590436   1.000000
     61         -0.589407   1.000000
     62         -0.553271   1.000000
     63         -0.526786   1.000000
     64         -0.445050   1.000000
     65         -0.423543   1.000000
     66         -0.423199   1.000000
     67         -0.404038   1.000000
     68         -0.288138   1.000000
     69          0.441430   1.000000
     70          0.526868   1.000000
     71          0.537567   1.000000
     72          0.548102   1.000000
     73          0.565760   1.000000
     74          0.568006   1.000000
     75          0.604192   1.000000
     76          0.619194   1.000000
     77          0.624104   1.000000
     78          0.626188   1.000000
     79          0.636375   1.000000
     80          0.652868   1.000000
     81          0.659903   1.000000
     82          0.685232   1.000000
     83          0.715030   1.000000
     84          0.752780   1.000000
     85          0.844618   1.000000
     86          0.899365   1.000000
     87          1.010334   1.000000
     88          1.029671   1.000000
     89          1.098820   1.000000
     90          1.148957   1.000000
     91          1.253994   1.000000
     92          1.372433   1.000000
     93          1.421126   1.000000
     94          1.426125   1.000000
     95          1.572818   1.000000
     96          1.684554   1.000000
     97          1.705339   1.000000
     98          1.824297   1.000000
     99          1.919338   1.000000
    100          2.118310   1.000000
    101          2.243167   1.000000
    102          2.303520   1.000000
    103          2.578258   1.000000
    104          2.652000   1.000000
    105          2.885422   1.000000
    106          3.186238   1.000000
    107          3.241420   1.000000
    108          3.309289   1.000000
    109          4.640690   0.000000
    110          4.685629   0.000000
    111          5.257655   0.000000
    112          5.394889   0.000000
    113          6.163258   0.000000
    114          6.493050   0.000000
    115          6.780565   0.000000
    116          6.944523   0.000000
    117          7.253375   0.000000
    118          7.298800   0.000000
    119          7.430914   0.000000
    120          7.484031   0.000000
    121          7.798381   0.000000
    122          8.001466   0.000000
    123          8.196478   0.000000
    124          8.418380   0.000000
    125          8.660366   0.000000
    126          8.885671   0.000000
    127          9.062853   0.000000
    128          9.257705   0.000000
    129          9.318498   0.000000
    130          9.347137   0.000000
    131          9.532561   0.000000
    132          9.788320   0.000000
    133          9.835414   0.000000
    134         10.018537   0.000000
    135         10.159036   0.000000
    136         10.190117   0.000000
    137         10.392183   0.000000
    138         10.521045   0.000000
    139         10.781908   0.000000
    140         10.896340   0.000000
    141         11.136107   0.000000

  0.1262379E-14  0.5000000E+00  0.1428571E+00  0.1020408E-01
      1        -25.455956   1.000000
      2        -25.455950   1.000000
      3        -25.451336   1.000000
      4        -25.451330   1.000000
      5        -25.441358   1.000000
      6        -25.441352   1.000000
      7        -25.440925   1.000000
      8        -25.440920   1.000000
      9        -25.412069   1.000000
     10        -25.412064   1.000000
     11        -25.411729   1.000000
     12        -25.411723   1.000000
     13        -25.389490   1.000000
     14        -25.389485   1.000000
     15        -25.388929   1.000000
     16        -25.388923   1.000000
     17        -25.384169   1.000000
     18        -25.384163   1.000000
     19        -25.383561   1.000000
     20        -25.383556   1.000000
     21        -12.711016   1.000000
     22        -12.711015   1.000000
     23        -11.702220   1.000000
     24        -11.702220   1.000000
     25        -11.445724   1.000000
     26        -11.445723   1.000000
     27        -11.113493   1.000000
     28        -11.113493   1.000000
     29        -10.937665   1.000000
     30        -10.937664   1.000000
     31        -10.789044   1.000000
     32        -10.789043   1.000000
     33         -6.394644   1.000000
     34         -6.394644   1.000000
     35         -5.519391   1.000000
     36         -5.519391   1.000000
     37         -2.737885   1.000000
     38         -2.737884   1.000000
     39         -2.526417   1.000000
     40         -2.526416   1.000000
     41         -2.089211   1.000000
     42         -2.089211   1.000000
     43         -1.820463   1.000000
     44         -1.820463   1.000000
     45         -1.691681   1.000000
     46         -1.691681   1.000000
     47         -1.386083   1.000000
     48         -1.386083   1.000000
     49         -1.099098   1.000000
     50         -1.099098   1.000000
     51         -1.006524   1.000000
     52         -1.006524   1.000000
     53         -0.853289   1.000000
     54         -0.853288   1.000000
     55         -0.772417   1.000000
     56         -0.772416   1.000000
     57         -0.638976   1.000000
     58         -0.638975   1.000000
     59         -0.598324   1.000000
     60         -0.598323   1.000000
     61         -0.584352   1.000000
     62         -0.584352   1.000000
     63         -0.475823   1.000000
     64         -0.475822   1.000000
     65         -0.443029   1.000000
     66         -0.443029   1.000000
     67         -0.345746   1.000000
     68         -0.345745   1.000000
     69          0.495395   1.000000
     70          0.495396   1.000000
     71          0.523063   1.000000
     72          0.523064   1.000000
     73          0.554324   1.000000
     74          0.554325   1.000000
     75          0.615385   1.000000
     76          0.615385   1.000000
     77          0.620172   1.000000
     78          0.620173   1.000000
     79          0.646408   1.000000
     80          0.646408   1.000000
     81          0.668955   1.000000
     82          0.668956   1.000000
     83          0.709808   1.000000
     84          0.709809   1.000000
     85          0.900275   1.000000
     86          0.900276   1.000000
     87          1.008318   1.000000
     88          1.008319   1.000000
     89          1.159700   1.000000
     90          1.159701   1.000000
     91          1.255472   1.000000
     92          1.255473   1.000000
     93          1.534895   1.000000
     94          1.534896   1.000000
     95          1.577673   1.000000
     96          1.577675   1.000000
     97          1.712215   1.000000
     98          1.712216   1.000000
     99          2.027912   1.000000
    100          2.027913   1.000000
    101          2.231675   1.000000
    102          2.231675   1.000000
    103          2.505934   1.000000
    104          2.505935   1.000000
    105          2.992331   1.000000
    106          2.992332   1.000000
    107          3.151947   1.000000
    108          3.151948   1.000000
    109          4.881496   0.000000
    110          4.881496   0.000000
    111          5.460979   0.000000
    112          5.460979   0.000000
    113          6.544633   0.000000
    114          6.544634   0.000000
    115          6.960128   0.000000
    116          6.960128   0.000000
    117          7.291478   0.000000
    118          7.291478   0.000000
    119          7.699785   0.000000
    120          7.699786   0.000000
    121          8.104823   0.000000
    122          8.104823   0.000000
    123          8.401066   0.000000
    124          8.401066   0.000000
    125          8.719009   0.000000
    126          8.719009   0.000000
    127          9.150894   0.000000
    128          9.150895   0.000000
    129          9.350245   0.000000
    130          9.350246   0.000000
    131          9.653316   0.000000
    132          9.653316   0.000000
    133          9.808987   0.000000
    134          9.808988   0.000000
    135         10.139067   0.000000
    136         10.139067   0.000000
    137         10.408636   0.000000
    138         10.408636   0.000000
    139         10.728038   0.000000
    140         10.728165   0.000000
    141         11.044143   0.000000

  0.1428571E+00  0.5000000E+00  0.1428571E+00  0.1020408E-01
      1        -25.455952   1.000000
      2        -25.455947   1.000000
      3        -25.451337   1.000000
      4        -25.451332   1.000000
      5        -25.441363   1.000000
      6        -25.441357   1.000000
      7        -25.440928   1.000000
      8        -25.440922   1.000000
      9        -25.412071   1.000000
     10        -25.412066   1.000000
     11        -25.411734   1.000000
     12        -25.411729   1.000000
     13        -25.389490   1.000000
     14        -25.389484   1.000000
     15        -25.388932   1.000000
     16        -25.388927   1.000000
     17        -25.384172   1.000000
     18        -25.384166   1.000000
     19        -25.383563   1.000000
     20        -25.383557   1.000000
     21        -12.670926   1.000000
     22        -12.670926   1.000000
     23        -11.711188   1.000000
     24        -11.711188   1.000000
     25        -11.438209   1.000000
     26        -11.438209   1.000000
     27        -11.164567   1.000000
     28        -11.164567   1.000000
     29        -10.958215   1.000000
     30        -10.958214   1.000000
     31        -10.801730   1.000000
     32        -10.801729   1.000000
     33         -6.366047   1.000000
     34         -6.366047   1.000000
     35         -5.429292   1.000000
     36         -5.429291   1.000000
     37         -2.660236   1.000000
     38         -2.660235   1.000000
     39         -2.466181   1.000000
     40         -2.466181   1.000000
     41         -2.180537   1.000000
     42         -2.180537   1.000000
     43         -1.741866   1.000000
     44         -1.741866   1.000000
     45         -1.602029   1.000000
     46         -1.602029   1.000000
     47         -1.351332   1.000000
     48         -1.351332   1.000000
     49         -1.224132   1.000000
     50         -1.224131   1.000000
     51         -1.011193   1.000000
     52         -1.011192   1.000000
     53         -0.904745   1.000000
     54         -0.904745   1.000000
     55         -0.800472   1.000000
     56         -0.800472   1.000000
     57         -0.684753   1.000000
     58         -0.684752   1.000000
     59         -0.582223   1.000000
     60         -0.582222   1.000000
     61         -0.578770   1.000000
     62         -0.578770   1.000000
     63         -0.520161   1.000000
     64         -0.520161   1.000000
     65         -0.431663   1.000000
     66         -0.431662   1.000000
     67         -0.356112   1.000000
     68         -0.356111   1.000000
     69          0.476828   1.000000
     70          0.476829   1.000000
     71          0.539707   1.000000
     72          0.539708   1.000000
     73          0.574686   1.000000
     74          0.574687   1.000000
     75          0.592422   1.000000
     76          0.592423   1.000000
     77          0.619095   1.000000
     78          0.619096   1.000000
     79          0.650157   1.000000
     80          0.650158   1.000000
     81          0.670532   1.000000
     82          0.670532   1.000000
     83          0.715268   1.000000
     84          0.715268   1.000000
     85          0.871164   1.000000
     86          0.871166   1.000000
     87          1.057454   1.000000
     88          1.057454   1.000000
     89          1.117922   1.000000
     90          1.117922   1.000000
     91          1.305977   1.000000
     92          1.305977   1.000000
     93          1.389062   1.000000
     94          1.389062   1.000000
     95          1.533720   1.000000
     96          1.533720   1.000000
     97          1.670323   1.000000
     98          1.670324   1.000000
     99          2.055563   1.000000
    100          2.055563   1.000000
    101          2.267302   1.000000
    102          2.267303   1.000000
    103          2.408203   1.000000
    104          2.408204   1.000000
    105          2.786798   1.000000
    106          2.786799   1.000000
    107          2.990467   1.000000
    108          2.990468   1.000000
    109          5.097407   0.000000
    110          5.097407   0.000000
    111          5.626200   0.000000
    112          5.626200   0.000000
    113          6.795655   0.000000
    114          6.795655   0.000000
    115          7.006111   0.000000
    116          7.006111   0.000000
    117          7.299423   0.000000
    118          7.299423   0.000000
    119          7.890578   0.000000
    120          7.890579   0.000000
    121          8.199765   0.000000
    122          8.199765   0.000000
    123          8.333734   0.000000
    124          8.333735   0.000000
    125          8.803695   0.000000
    126          8.803695   0.000000
    127          9.233326   0.000000
    128          9.233326   0.000000
    129          9.381295   0.000000
    130          9.381295   0.000000
    131          9.685721   0.000000
    132          9.685721   0.000000
    133         10.042910   0.000000
    134         10.042910   0.000000
    135         10.249456   0.000000
    136         10.249456   0.000000
    137         10.421510   0.000000
    138         10.421513   0.000000
    139         10.660883   0.000000
    140         10.661026   0.000000
    141         10.862441   0.000000

  0.2857143E+00  0.5000000E+00  0.1428571E+00  0.1020408E-01
      1        -25.455943   1.000000
      2        -25.455938   1.000000
      3        -25.451331   1.000000
      4        -25.451326   1.000000
      5        -25.441357   1.000000
      6        -25.441351   1.000000
      7        -25.440921   1.000000
      8        -25.440915   1.000000
      9        -25.412051   1.000000
     10        -25.412046   1.000000
     11        -25.411736   1.000000
     12        -25.411731   1.000000
     13        -25.389481   1.000000
     14        -25.389475   1.000000
     15        -25.388925   1.000000
     16        -25.388920   1.000000
     17        -25.384162   1.000000
     18        -25.384157   1.000000
     19        -25.383549   1.000000
     20        -25.383543   1.000000
     21        -12.605375   1.000000
     22        -12.605375   1.000000
     23        -11.713259   1.000000
     24        -11.713259   1.000000
     25        -11.436814   1.000000
     26        -11.436813   1.000000
     27        -11.215930   1.000000
     28        -11.215930   1.000000
     29        -10.993369   1.000000
     30        -10.993368   1.000000
     31        -10.849701   1.000000
     32        -10.849700   1.000000
     33         -6.327612   1.000000
     34         -6.327612   1.000000
     35         -5.322876   1.000000
     36         -5.322876   1.000000
     37         -2.595430   1.000000
     38         -2.595430   1.000000
     39         -2.415480   1.000000
     40         -2.415479   1.000000
     41         -2.137016   1.000000
     42         -2.137016   1.000000
     43         -1.746549   1.000000
     44         -1.746549   1.000000
     45         -1.474582   1.000000
     46         -1.474582   1.000000
     47         -1.401817   1.000000
     48         -1.401816   1.000000
     49         -1.225607   1.000000
     50         -1.225607   1.000000
     51         -1.054450   1.000000
     52         -1.054450   1.000000
     53         -1.012571   1.000000
     54         -1.012571   1.000000
     55         -0.768261   1.000000
     56         -0.768260   1.000000
     57         -0.719119   1.000000
     58         -0.719118   1.000000
     59         -0.617119   1.000000
     60         -0.617118   1.000000
     61         -0.561119   1.000000
     62         -0.561118   1.000000
     63         -0.526947   1.000000
     64         -0.526946   1.000000
     65         -0.425002   1.000000
     66         -0.425001   1.000000
     67         -0.364092   1.000000
     68         -0.364092   1.000000
     69          0.477826   1.000000
     70          0.477827   1.000000
     71          0.548395   1.000000
     72          0.548395   1.000000
     73          0.568342   1.000000
     74          0.568343   1.000000
     75          0.600500   1.000000
     76          0.600501   1.000000
     77          0.627101   1.000000
     78          0.627102   1.000000
     79          0.647391   1.000000
     80          0.647392   1.000000
     81          0.695162   1.000000
     82          0.695163   1.000000
     83          0.723749   1.000000
     84          0.723750   1.000000
     85          0.850360   1.000000
     86          0.850361   1.000000
     87          1.055832   1.000000
     88          1.055833   1.000000
     89          1.158779   1.000000
     90          1.158780   1.000000
     91          1.248793   1.000000
     92          1.248794   1.000000
     93          1.347396   1.000000
     94          1.347397   1.000000
     95          1.505704   1.000000
     96          1.505704   1.000000
     97          1.728966   1.000000
     98          1.728967   1.000000
     99          1.914465   1.000000
    100          1.914465   1.000000
    101          2.172772   1.000000
    102          2.172772   1.000000
    103          2.321111   1.000000
    104          2.321111   1.000000
    105          2.593966   1.000000
    106          2.593966   1.000000
    107          3.004848   1.000000
    108          3.004849   1.000000
    109          5.186106   0.000000
    110          5.186107   0.000000
    111          5.731974   0.000000
    112          5.731974   0.000000
    113          6.809145   0.000000
    114          6.809145   0.000000
    115          7.006849   0.000000
    116          7.006849   0.000000
    117          7.553879   0.000000
    118          7.553880   0.000000
    119          7.659667   0.000000
    120          7.659667   0.000000
    121          8.196022   0.000000
    122          8.196022   0.000000
    123          8.540145   0.000000
    124          8.540145   0.000000
    125          8.894582   0.000000
    126          8.894583   0.000000
    127          9.208015   0.000000
    128          9.208015   0.000000
    129          9.488677   0.000000
    130          9.488677   0.000000
    131          9.799169   0.000000
    132          9.799170   0.000000
    133         10.013066   0.000000
    134         10.013066   0.000000
    135         10.389188   0.000000
    136         10.389188   0.000000
    137         10.528582   0.000000
    138         10.528582   0.000000
    139         10.868111   0.000000
    140         10.869253   0.000000
    141         11.028972   0.000000

  0.4285714E+00  0.5000000E+00  0.1428571E+00  0.1020408E-01
      1        -25.455943   1.000000
      2        -25.455937   1.000000
      3        -25.451330   1.000000
      4        -25.451325   1.000000
      5        -25.441354   1.000000
      6        -25.441349   1.000000
      7        -25.440918   1.000000
      8        -25.440913   1.000000
      9        -25.412042   1.000000
     10        -25.412036   1.000000
     11        -25.411736   1.000000
     12        -25.411730   1.000000
     13        -25.389480   1.000000
     14        -25.389474   1.000000
     15        -25.388931   1.000000
     16        -25.388925   1.000000
     17        -25.384167   1.000000
     18        -25.384162   1.000000
     19        -25.383544   1.000000
     20        -25.383539   1.000000
     21        -12.563827   1.000000
     22        -12.563827   1.000000
     23        -11.708283   1.000000
     24        -11.708282   1.000000
     25        -11.445886   1.000000
     26        -11.445885   1.000000
     27        -11.218633   1.000000
     28        -11.218633   1.000000
     29        -11.017612   1.000000
     30        -11.017611   1.000000
     31        -10.901575   1.000000
     32        -10.901574   1.000000
     33         -6.308978   1.000000
     34         -6.308978   1.000000
     35         -5.282553   1.000000
     36         -5.282553   1.000000
     37         -2.611726   1.000000
     38         -2.611726   1.000000
     39         -2.360465   1.000000
     40         -2.360465   1.000000
     41         -2.071922   1.000000
     42         -2.071922   1.000000
     43         -1.801410   1.000000
     44         -1.801410   1.000000
     45         -1.458389   1.000000
     46         -1.458389   1.000000
     47         -1.369299   1.000000
     48         -1.369299   1.000000
     49         -1.206193   1.000000
     50         -1.206192   1.000000
     51         -1.129918   1.000000
     52         -1.129918   1.000000
     53         -0.947961   1.000000
     54         -0.947961   1.000000
     55         -0.791608   1.000000
     56         -0.791608   1.000000
     57         -0.699086   1.000000
     58         -0.699085   1.000000
     59         -0.607721   1.000000
     60         -0.607720   1.000000
     61         -0.548045   1.000000
     62         -0.548044   1.000000
     63         -0.528355   1.000000
     64         -0.528355   1.000000
     65         -0.429661   1.000000
     66         -0.429660   1.000000
     67         -0.368473   1.000000
     68         -0.368472   1.000000
     69          0.490296   1.000000
     70          0.490297   1.000000
     71          0.530330   1.000000
     72          0.530330   1.000000
     73          0.543846   1.000000
     74          0.543847   1.000000
     75          0.620289   1.000000
     76          0.620290   1.000000
     77          0.642637   1.000000
     78          0.642638   1.000000
     79          0.650901   1.000000
     80          0.650902   1.000000
     81          0.683357   1.000000
     82          0.683357   1.000000
     83          0.755637   1.000000
     84          0.755638   1.000000
     85          0.869030   1.000000
     86          0.869032   1.000000
     87          1.009591   1.000000
     88          1.009592   1.000000
     89          1.120648   1.000000
     90          1.120650   1.000000
     91          1.271645   1.000000
     92          1.271646   1.000000
     93          1.452147   1.000000
     94          1.452147   1.000000
     95          1.564280   1.000000
     96          1.564280   1.000000
     97          1.624674   1.000000
     98          1.624674   1.000000
     99          1.838961   1.000000
    100          1.838962   1.000000
    101          2.160782   1.000000
    102          2.160783   1.000000
    103          2.185383   1.000000
    104          2.185383   1.000000
    105          2.549889   1.000000
    106          2.549890   1.000000
    107          3.102343   1.000000
    108          3.102344   1.000000
    109          5.176540   0.000000
    110          5.176540   0.000000
    111          5.721729   0.000000
    112          5.721729   0.000000
    113          6.616386   0.000000
    114          6.616386   0.000000
    115          6.953413   0.000000
    116          6.953413   0.000000
    117          7.445266   0.000000
    118          7.445267   0.000000
    119          7.746766   0.000000
    120          7.746766   0.000000
    121          8.266780   0.000000
    122          8.266781   0.000000
    123          8.572442   0.000000
    124          8.572443   0.000000
    125          8.877259   0.000000
    126          8.877260   0.000000
    127          9.216781   0.000000
    128          9.216782   0.000000
    129          9.459742   0.000000
    130          9.459743   0.000000
    131          9.778637   0.000000
    132          9.778638   0.000000
    133         10.064435   0.000000
    134         10.064436   0.000000
    135         10.217311   0.000000
    136         10.217312   0.000000
    137         10.389028   0.000000
    138         10.389035   0.000000
    139         10.697066   0.000000
    140         10.697680   0.000000
    141         10.838459   0.000000

 -0.4285714E+00  0.5000000E+00  0.1428571E+00  0.1020408E-01
      1        -25.455945   1.000000
      2        -25.455940   1.000000
      3        -25.451328   1.000000
      4        -25.451322   1.000000
      5        -25.441351   1.000000
      6        -25.441346   1.000000
      7        -25.440921   1.000000
      8        -25.440915   1.000000
      9        -25.412056   1.000000
     10        -25.412051   1.000000
     11        -25.411738   1.000000
     12        -25.411733   1.000000
     13        -25.389482   1.000000
     14        -25.389476   1.000000
     15        -25.388932   1.000000
     16        -25.388926   1.000000
     17        -25.384167   1.000000
     18        -25.384162   1.000000
     19        -25.383550   1.000000
     20        -25.383545   1.000000
     21        -12.587281   1.000000
     22        -12.587281   1.000000
     23        -11.690337   1.000000
     24        -11.690337   1.000000
     25        -11.427719   1.000000
     26        -11.427718   1.000000
     27        -11.210513   1.000000
     28        -11.210513   1.000000
     29        -11.010338   1.000000
     30        -11.010337   1.000000
     31        -10.913352   1.000000
     32        -10.913351   1.000000
     33         -6.324085   1.000000
     34         -6.324085   1.000000
     35         -5.331691   1.000000
     36         -5.331691   1.000000
     37         -2.675332   1.000000
     38         -2.675331   1.000000
     39         -2.378818   1.000000
     40         -2.378818   1.000000
     41         -2.196660   1.000000
     42         -2.196659   1.000000
     43         -1.652310   1.000000
     44         -1.652310   1.000000
     45         -1.560050   1.000000
     46         -1.560050   1.000000
     47         -1.397937   1.000000
     48         -1.397937   1.000000
     49         -1.152634   1.000000
     50         -1.152633   1.000000
     51         -0.995181   1.000000
     52         -0.995181   1.000000
     53         -0.863193   1.000000
     54         -0.863193   1.000000
     55         -0.783841   1.000000
     56         -0.783840   1.000000
     57         -0.687634   1.000000
     58         -0.687633   1.000000
     59         -0.605406   1.000000
     60         -0.605405   1.000000
     61         -0.557488   1.000000
     62         -0.557488   1.000000
     63         -0.531028   1.000000
     64         -0.531027   1.000000
     65         -0.427454   1.000000
     66         -0.427453   1.000000
     67         -0.377838   1.000000
     68         -0.377838   1.000000
     69          0.470177   1.000000
     70          0.470178   1.000000
     71          0.499212   1.000000
     72          0.499214   1.000000
     73          0.556576   1.000000
     74          0.556577   1.000000
     75          0.622698   1.000000
     76          0.622699   1.000000
     77          0.629982   1.000000
     78          0.629983   1.000000
     79          0.651170   1.000000
     80          0.651170   1.000000
     81          0.684704   1.000000
     82          0.684705   1.000000
     83          0.738676   1.000000
     84          0.738676   1.000000
     85          0.936534   1.000000
     86          0.936535   1.000000
     87          1.046792   1.000000
     88          1.046793   1.000000
     89          1.199152   1.000000
     90          1.199153   1.000000
     91          1.251672   1.000000
     92          1.251673   1.000000
     93          1.391283   1.000000
     94          1.391284   1.000000
     95          1.564188   1.000000
     96          1.564189   1.000000
     97          1.731738   1.000000
     98          1.731739   1.000000
     99          1.777449   1.000000
    100          1.777450   1.000000
    101          2.135365   1.000000
    102          2.135366   1.000000
    103          2.289040   1.000000
    104          2.289040   1.000000
    105          2.596142   1.000000
    106          2.596143   1.000000
    107          3.223711   1.000000
    108          3.223712   1.000000
    109          5.050889   0.000000
    110          5.050889   0.000000
    111          5.634965   0.000000
    112          5.634965   0.000000
    113          6.560801   0.000000
    114          6.560801   0.000000
    115          6.927807   0.000000
    116          6.927807   0.000000
    117          7.325057   0.000000
    118          7.325057   0.000000
    119          7.557742   0.000000
    120          7.557742   0.000000
    121          8.124940   0.000000
    122          8.124940   0.000000
    123          8.323013   0.000000
    124          8.323013   0.000000
    125          8.753802   0.000000
    126          8.753802   0.000000
    127          9.151842   0.000000
    128          9.151843   0.000000
    129          9.459716   0.000000
    130          9.459717   0.000000
    131          9.683794   0.000000
    132          9.683795   0.000000
    133          9.984223   0.000000
    134          9.984223   0.000000
    135         10.184806   0.000000
    136         10.184806   0.000000
    137         10.434923   0.000000
    138         10.434923   0.000000
    139         10.663262   0.000000
    140         10.663263   0.000000
    141         11.175262   0.000000

 -0.2857143E+00  0.5000000E+00  0.1428571E+00  0.1020408E-01
      1        -25.455947   1.000000
      2        -25.455941   1.000000
      3        -25.451325   1.000000
      4        -25.451319   1.000000
      5        -25.441352   1.000000
      6        -25.441347   1.000000
      7        -25.440921   1.000000
      8        -25.440916   1.000000
      9        -25.412063   1.000000
     10        -25.412058   1.000000
     11        -25.411732   1.000000
     12        -25.411727   1.000000
     13        -25.389485   1.000000
     14        -25.389479   1.000000
     15        -25.388931   1.000000
     16        -25.388926   1.000000
     17        -25.384166   1.000000
     18        -25.384160   1.000000
     19        -25.383554   1.000000
     20        -25.383548   1.000000
     21        -12.651458   1.000000
     22        -12.651457   1.000000
     23        -11.679781   1.000000
     24        -11.679781   1.000000
     25        -11.418033   1.000000
     26        -11.418033   1.000000
     27        -11.171871   1.000000
     28        -11.171871   1.000000
     29        -10.984062   1.000000
     30        -10.984061   1.000000
     31        -10.871795   1.000000
     32        -10.871795   1.000000
     33         -6.360920   1.000000
     34         -6.360920   1.000000
     35         -5.434699   1.000000
     36         -5.434699   1.000000
     37         -2.737080   1.000000
     38         -2.737080   1.000000
     39         -2.494109   1.000000
     40         -2.494109   1.000000
     41         -2.210943   1.000000
     42         -2.210943   1.000000
     43         -1.733323   1.000000
     44         -1.733323   1.000000
     45         -1.518603   1.000000
     46         -1.518603   1.000000
     47         -1.333041   1.000000
     48         -1.333040   1.000000
     49         -1.199072   1.000000
     50         -1.199072   1.000000
     51         -0.927947   1.000000
     52         -0.927946   1.000000
     53         -0.806596   1.000000
     54         -0.806596   1.000000
     55         -0.724908   1.000000
     56         -0.724907   1.000000
     57         -0.659807   1.000000
     58         -0.659806   1.000000
     59         -0.634778   1.000000
     60         -0.634778   1.000000
     61         -0.576831   1.000000
     62         -0.576830   1.000000
     63         -0.525292   1.000000
     64         -0.525291   1.000000
     65         -0.411914   1.000000
     66         -0.411914   1.000000
     67         -0.377207   1.000000
     68         -0.377207   1.000000
     69          0.451810   1.000000
     70          0.451811   1.000000
     71          0.512690   1.000000
     72          0.512691   1.000000
     73          0.567853   1.000000
     74          0.567854   1.000000
     75          0.622882   1.000000
     76          0.622883   1.000000
     77          0.627760   1.000000
     78          0.627761   1.000000
     79          0.644546   1.000000
     80          0.644547   1.000000
     81          0.662478   1.000000
     82          0.662479   1.000000
     83          0.727410   1.000000
     84          0.727411   1.000000
     85          0.950911   1.000000
     86          0.950912   1.000000
     87          1.085811   1.000000
     88          1.085812   1.000000
     89          1.196039   1.000000
     90          1.196039   1.000000
     91          1.296147   1.000000
     92          1.296148   1.000000
     93          1.438862   1.000000
     94          1.438862   1.000000
     95          1.582983   1.000000
     96          1.582984   1.000000
     97          1.713500   1.000000
     98          1.713500   1.000000
     99          1.849821   1.000000
    100          1.849821   1.000000
    101          2.108067   1.000000
    102          2.108068   1.000000
    103          2.443231   1.000000
    104          2.443232   1.000000
    105          2.873512   1.000000
    106          2.873514   1.000000
    107          3.286207   1.000000
    108          3.286208   1.000000
    109          4.825117   0.000000
    110          4.825117   0.000000
    111          5.475413   0.000000
    112          5.475413   0.000000
    113          6.611799   0.000000
    114          6.611800   0.000000
    115          6.916595   0.000000
    116          6.916595   0.000000
    117          7.041791   0.000000
    118          7.041791   0.000000
    119          7.723267   0.000000
    120          7.723267   0.000000
    121          7.800839   0.000000
    122          7.800839   0.000000
    123          8.194678   0.000000
    124          8.194678   0.000000
    125          8.652742   0.000000
    126          8.652743   0.000000
    127          9.061809   0.000000
    128          9.061810   0.000000
    129          9.376933   0.000000
    130          9.376933   0.000000
    131          9.571944   0.000000
    132          9.571944   0.000000
    133         10.009756   0.000000
    134         10.009756   0.000000
    135         10.095492   0.000000
    136         10.095493   0.000000
    137         10.650659   0.000000
    138         10.650660   0.000000
    139         10.915564   0.000000
    140         10.915610   0.000000
    141         11.186407   0.000000

 -0.1428571E+00  0.5000000E+00  0.1428571E+00  0.1020408E-01
      1        -25.455953   1.000000
      2        -25.455948   1.000000
      3        -25.451329   1.000000
      4        -25.451323   1.000000
      5        -25.441356   1.000000
      6        -25.441350   1.000000
      7        -25.440922   1.000000
      8        -25.440917   1.000000
      9        -25.412068   1.000000
     10        -25.412063   1.000000
     11        -25.411727   1.000000
     12        -25.411722   1.000000
     13        -25.389491   1.000000
     14        -25.389486   1.000000
     15        -25.388933   1.000000
     16        -25.388927   1.000000
     17        -25.384169   1.000000
     18        -25.384163   1.000000
     19        -25.383557   1.000000
     20        -25.383551   1.000000
     21        -12.703149   1.000000
     22        -12.703149   1.000000
     23        -11.687973   1.000000
     24        -11.687973   1.000000
     25        -11.436222   1.000000
     26        -11.436222   1.000000
     27        -11.116943   1.000000
     28        -11.116943   1.000000
     29        -10.951413   1.000000
     30        -10.951413   1.000000
     31        -10.818125   1.000000
     32        -10.818125   1.000000
     33         -6.392110   1.000000
     34         -6.392110   1.000000
     35         -5.519955   1.000000
     36         -5.519955   1.000000
     37         -2.759671   1.000000
     38         -2.759671   1.000000
     39         -2.562881   1.000000
     40         -2.562880   1.000000
     41         -2.101323   1.000000
     42         -2.101323   1.000000
     43         -1.857661   1.000000
     44         -1.857661   1.000000
     45         -1.576393   1.000000
     46         -1.576392   1.000000
     47         -1.392157   1.000000
     48         -1.392156   1.000000
     49         -1.107712   1.000000
     50         -1.107712   1.000000
     51         -0.937139   1.000000
     52         -0.937139   1.000000
     53         -0.828394   1.000000
     54         -0.828393   1.000000
     55         -0.770522   1.000000
     56         -0.770522   1.000000
     57         -0.633207   1.000000
     58         -0.633205   1.000000
     59         -0.600033   1.000000
     60         -0.600033   1.000000
     61         -0.584715   1.000000
     62         -0.584714   1.000000
     63         -0.487766   1.000000
     64         -0.487766   1.000000
     65         -0.423700   1.000000
     66         -0.423700   1.000000
     67         -0.354784   1.000000
     68         -0.354783   1.000000
     69          0.467809   1.000000
     70          0.467810   1.000000
     71          0.535802   1.000000
     72          0.535803   1.000000
     73          0.553783   1.000000
     74          0.553785   1.000000
     75          0.607647   1.000000
     76          0.607648   1.000000
     77          0.625708   1.000000
     78          0.625708   1.000000
     79          0.648115   1.000000
     80          0.648115   1.000000
     81          0.672782   1.000000
     82          0.672783   1.000000
     83          0.730471   1.000000
     84          0.730472   1.000000
     85          0.907350   1.000000
     86          0.907351   1.000000
     87          1.036188   1.000000
     88          1.036189   1.000000
     89          1.194509   1.000000
     90          1.194510   1.000000
     91          1.275321   1.000000
     92          1.275321   1.000000
     93          1.513696   1.000000
     94          1.513697   1.000000
     95          1.621970   1.000000
     96          1.621970   1.000000
     97          1.776720   1.000000
     98          1.776721   1.000000
     99          1.903595   1.000000
    100          1.903595   1.000000
    101          2.099216   1.000000
    102          2.099217   1.000000
    103          2.567710   1.000000
    104          2.567711   1.000000
    105          3.095953   1.000000
    106          3.095954   1.000000
    107          3.279835   1.000000
    108          3.279836   1.000000
    109          4.694599   0.000000
    110          4.694599   0.000000
    111          5.364381   0.000000
    112          5.364382   0.000000
    113          6.439448   0.000000
    114          6.439448   0.000000
    115          6.925158   0.000000
    116          6.925158   0.000000
    117          7.301379   0.000000
    118          7.301379   0.000000
    119          7.573411   0.000000
    120          7.573411   0.000000
    121          7.942673   0.000000
    122          7.942673   0.000000
    123          8.311119   0.000000
    124          8.311119   0.000000
    125          8.637787   0.000000
    126          8.637787   0.000000
    127          9.060692   0.000000
    128          9.060693   0.000000
    129          9.333139   0.000000
    130          9.333140   0.000000
    131          9.557256   0.000000
    132          9.557256   0.000000
    133          9.941699   0.000000
    134          9.941700   0.000000
    135         10.063588   0.000000
    136         10.063588   0.000000
    137         10.397959   0.000000
    138         10.397960   0.000000
    139         10.808410   0.000000
    140         10.808410   0.000000
    141         11.398795   0.000000

  0.1262379E-14  0.1262379E-14  0.2857143E+00  0.1020408E-01
      1        -25.455363   1.000000
      2        -25.455312   1.000000
      3        -25.452186   1.000000
      4        -25.452160   1.000000
      5        -25.441195   1.000000
      6        -25.441185   1.000000
      7        -25.440872   1.000000
      8        -25.440858   1.000000
      9        -25.412019   1.000000
     10        -25.412009   1.000000
     11        -25.411784   1.000000
     12        -25.411769   1.000000
     13        -25.389388   1.000000
     14        -25.389382   1.000000
     15        -25.388994   1.000000
     16        -25.388988   1.000000
     17        -25.384085   1.000000
     18        -25.384076   1.000000
     19        -25.383670   1.000000
     20        -25.383646   1.000000
     21        -12.686423   1.000000
     22        -12.446437   1.000000
     23        -11.939751   1.000000
     24        -11.902010   1.000000
     25        -11.470591   1.000000
     26        -11.235562   1.000000
     27        -11.178948   1.000000
     28        -11.148346   1.000000
     29        -11.018515   1.000000
     30        -10.855373   1.000000
     31        -10.830105   1.000000
     32        -10.826802   1.000000
     33         -6.217711   1.000000
     34         -6.164113   1.000000
     35         -5.690495   1.000000
     36         -5.498494   1.000000
     37         -2.649143   1.000000
     38         -2.571125   1.000000
     39         -2.488702   1.000000
     40         -2.348769   1.000000
     41         -2.168123   1.000000
     42         -1.975066   1.000000
     43         -1.886821   1.000000
     44         -1.881120   1.000000
     45         -1.654951   1.000000
     46         -1.482784   1.000000
     47         -1.459863   1.000000
     48         -1.413759   1.000000
     49         -1.332197   1.000000
     50         -1.215377   1.000000
     51         -1.145223   1.000000
     52         -1.081040   1.000000
     53         -1.041211   1.000000
     54         -0.828790   1.000000
     55         -0.802396   1.000000
     56         -0.704656   1.000000
     57         -0.626906   1.000000
     58         -0.623194   1.000000
     59         -0.618439   1.000000
     60         -0.579529   1.000000
     61         -0.545291   1.000000
     62         -0.536292   1.000000
     63         -0.495657   1.000000
     64         -0.450494   1.000000
     65         -0.447523   1.000000
     66         -0.420816   1.000000
     67         -0.418782   1.000000
     68         -0.332851   1.000000
     69          0.467392   1.000000
     70          0.523715   1.000000
     71          0.528416   1.000000
     72          0.562074   1.000000
     73          0.580707   1.000000
     74          0.584828   1.000000
     75          0.590912   1.000000
     76          0.592596   1.000000
     77          0.650258   1.000000
     78          0.650637   1.000000
     79          0.653656   1.000000
     80          0.665774   1.000000
     81          0.671645   1.000000
     82          0.695231   1.000000
     83          0.703866   1.000000
     84          0.742429   1.000000
     85          0.837685   1.000000
     86          0.892651   1.000000
     87          0.916672   1.000000
     88          0.974939   1.000000
     89          1.004958   1.000000
     90          1.140794   1.000000
     91          1.213397   1.000000
     92          1.260691   1.000000
     93          1.355608   1.000000
     94          1.442088   1.000000
     95          1.500906   1.000000
     96          1.769602   1.000000
     97          1.838777   1.000000
     98          1.938796   1.000000
     99          2.020579   1.000000
    100          2.039958   1.000000
    101          2.273467   1.000000
    102          2.483903   1.000000
    103          2.486680   1.000000
    104          2.554170   1.000000
    105          2.558455   1.000000
    106          2.648510   1.000000
    107          3.106581   1.000000
    108          3.151177   1.000000
    109          4.911650   0.000000
    110          5.068853   0.000000
    111          5.114696   0.000000
    112          5.614491   0.000000
    113          6.492275   0.000000
    114          6.547820   0.000000
    115          6.636115   0.000000
    116          6.991719   0.000000
    117          7.172457   0.000000
    118          7.471213   0.000000
    119          7.489062   0.000000
    120          7.818255   0.000000
    121          8.151381   0.000000
    122          8.224537   0.000000
    123          8.537496   0.000000
    124          8.610046   0.000000
    125          9.042794   0.000000
    126          9.075509   0.000000
    127          9.088876   0.000000
    128          9.374923   0.000000
    129          9.423269   0.000000
    130          9.562630   0.000000
    131          9.603030   0.000000
    132          9.713461   0.000000
    133          9.868807   0.000000
    134          9.919368   0.000000
    135         10.053539   0.000000
    136         10.272889   0.000000
    137         10.346491   0.000000
    138         10.466808   0.000000
    139         10.562765   0.000000
    140         10.925255   0.000000
    141         11.052829   0.000000

  0.1428571E+00  0.1262379E-14  0.2857143E+00  0.1020408E-01
      1        -25.455347   1.000000
      2        -25.455319   1.000000
      3        -25.452183   1.000000
      4        -25.452157   1.000000
      5        -25.441194   1.000000
      6        -25.441185   1.000000
      7        -25.440871   1.000000
      8        -25.440853   1.000000
      9        -25.412015   1.000000
     10        -25.411998   1.000000
     11        -25.411787   1.000000
     12        -25.411781   1.000000
     13        -25.389380   1.000000
     14        -25.389373   1.000000
     15        -25.388990   1.000000
     16        -25.388983   1.000000
     17        -25.384085   1.000000
     18        -25.384074   1.000000
     19        -25.383666   1.000000
     20        -25.383646   1.000000
     21        -12.623122   1.000000
     22        -12.421217   1.000000
     23        -11.977377   1.000000
     24        -11.881805   1.000000
     25        -11.452956   1.000000
     26        -11.244431   1.000000
     27        -11.217728   1.000000
     28        -11.209913   1.000000
     29        -11.065289   1.000000
     30        -10.873768   1.000000
     31        -10.837766   1.000000
     32        -10.813910   1.000000
     33         -6.196986   1.000000
     34         -6.155062   1.000000
     35         -5.608196   1.000000
     36         -5.407295   1.000000
     37         -2.565297   1.000000
     38         -2.483110   1.000000
     39         -2.359991   1.000000
     40         -2.345588   1.000000
     41         -2.109678   1.000000
     42         -1.976456   1.000000
     43         -1.888511   1.000000
     44         -1.884234   1.000000
     45         -1.829779   1.000000
     46         -1.534992   1.000000
     47         -1.453352   1.000000
     48         -1.398264   1.000000
     49         -1.271486   1.000000
     50         -1.237706   1.000000
     51         -1.200201   1.000000
     52         -1.082963   1.000000
     53         -1.004478   1.000000
     54         -0.994054   1.000000
     55         -0.743711   1.000000
     56         -0.743468   1.000000
     57         -0.634595   1.000000
     58         -0.630510   1.000000
     59         -0.607013   1.000000
     60         -0.602957   1.000000
     61         -0.556630   1.000000
     62         -0.534454   1.000000
     63         -0.484996   1.000000
     64         -0.450266   1.000000
     65         -0.449745   1.000000
     66         -0.433067   1.000000
     67         -0.400495   1.000000
     68         -0.373513   1.000000
     69          0.517272   1.000000
     70          0.536958   1.000000
     71          0.540880   1.000000
     72          0.568340   1.000000
     73          0.570264   1.000000
     74          0.571233   1.000000
     75          0.602949   1.000000
     76          0.605867   1.000000
     77          0.624210   1.000000
     78          0.651997   1.000000
     79          0.652622   1.000000
     80          0.679309   1.000000
     81          0.682318   1.000000
     82          0.700691   1.000000
     83          0.715142   1.000000
     84          0.724434   1.000000
     85          0.833884   1.000000
     86          0.903101   1.000000
     87          0.903829   1.000000
     88          0.939794   1.000000
     89          1.058887   1.000000
     90          1.082641   1.000000
     91          1.107670   1.000000
     92          1.263906   1.000000
     93          1.366831   1.000000
     94          1.460064   1.000000
     95          1.540269   1.000000
     96          1.665210   1.000000
     97          1.731740   1.000000
     98          1.991336   1.000000
     99          2.009192   1.000000
    100          2.110841   1.000000
    101          2.312079   1.000000
    102          2.326829   1.000000
    103          2.392998   1.000000
    104          2.463863   1.000000
    105          2.472958   1.000000
    106          2.480315   1.000000
    107          2.828688   1.000000
    108          3.154265   1.000000
    109          5.071923   0.000000
    110          5.239114   0.000000
    111          5.315829   0.000000
    112          5.544401   0.000000
    113          6.593772   0.000000
    114          6.788540   0.000000
    115          6.792497   0.000000
    116          6.826096   0.000000
    117          7.027223   0.000000
    118          7.686628   0.000000
    119          7.798506   0.000000
    120          8.047646   0.000000
    121          8.135570   0.000000
    122          8.218400   0.000000
    123          8.497213   0.000000
    124          8.508510   0.000000
    125          9.108898   0.000000
    126          9.126582   0.000000
    127          9.129649   0.000000
    128          9.259463   0.000000
    129          9.525156   0.000000
    130          9.737681   0.000000
    131          9.750983   0.000000
    132          9.775559   0.000000
    133         10.143458   0.000000
    134         10.225977   0.000000
    135         10.313816   0.000000
    136         10.414149   0.000000
    137         10.610696   0.000000
    138         10.672302   0.000000
    139         10.730729   0.000000
    140         10.831713   0.000000
    141         11.105956   0.000000

  0.2857143E+00  0.1262379E-14  0.2857143E+00  0.1020408E-01
      1        -25.455339   1.000000
      2        -25.455333   1.000000
      3        -25.452182   1.000000
      4        -25.452158   1.000000
      5        -25.441195   1.000000
      6        -25.441189   1.000000
      7        -25.440873   1.000000
      8        -25.440859   1.000000
      9        -25.412001   1.000000
     10        -25.411995   1.000000
     11        -25.411795   1.000000
     12        -25.411787   1.000000
     13        -25.389384   1.000000
     14        -25.389377   1.000000
     15        -25.388993   1.000000
     16        -25.388987   1.000000
     17        -25.384087   1.000000
     18        -25.384081   1.000000
     19        -25.383660   1.000000
     20        -25.383654   1.000000
     21        -12.528861   1.000000
     22        -12.413966   1.000000
     23        -11.979936   1.000000
     24        -11.855376   1.000000
     25        -11.388881   1.000000
     26        -11.304612   1.000000
     27        -11.288844   1.000000
     28        -11.226157   1.000000
     29        -11.107780   1.000000
     30        -10.933985   1.000000
     31        -10.874958   1.000000
     32        -10.819331   1.000000
     33         -6.179140   1.000000
     34         -6.147627   1.000000
     35         -5.524483   1.000000
     36         -5.358439   1.000000
     37         -2.496474   1.000000
     38         -2.427189   1.000000
     39         -2.285898   1.000000
     40         -2.254662   1.000000
     41         -2.175931   1.000000
     42         -2.114418   1.000000
     43         -1.985190   1.000000
     44         -1.911767   1.000000
     45         -1.740708   1.000000
     46         -1.627843   1.000000
     47         -1.473459   1.000000
     48         -1.349858   1.000000
     49         -1.272508   1.000000
     50         -1.170293   1.000000
     51         -1.132668   1.000000
     52         -0.983456   1.000000
     53         -0.982148   1.000000
     54         -0.918836   1.000000
     55         -0.818544   1.000000
     56         -0.672496   1.000000
     57         -0.630173   1.000000
     58         -0.626886   1.000000
     59         -0.612963   1.000000
     60         -0.594901   1.000000
     61         -0.555192   1.000000
     62         -0.555144   1.000000
     63         -0.485099   1.000000
     64         -0.480130   1.000000
     65         -0.463423   1.000000
     66         -0.422639   1.000000
     67         -0.417118   1.000000
     68         -0.373171   1.000000
     69          0.525258   1.000000
     70          0.529512   1.000000
     71          0.533685   1.000000
     72          0.565369   1.000000
     73          0.566589   1.000000
     74          0.603917   1.000000
     75          0.615848   1.000000
     76          0.620754   1.000000
     77          0.638683   1.000000
     78          0.644123   1.000000
     79          0.661510   1.000000
     80          0.672658   1.000000
     81          0.681754   1.000000
     82          0.702867   1.000000
     83          0.715979   1.000000
     84          0.730478   1.000000
     85          0.800599   1.000000
     86          0.879436   1.000000
     87          0.901900   1.000000
     88          0.930675   1.000000
     89          1.149180   1.000000
     90          1.174248   1.000000
     91          1.188659   1.000000
     92          1.345046   1.000000
     93          1.466484   1.000000
     94          1.551608   1.000000
     95          1.582284   1.000000
     96          1.618029   1.000000
     97          1.666534   1.000000
     98          1.683966   1.000000
     99          1.710951   1.000000
    100          2.066331   1.000000
    101          2.162878   1.000000
    102          2.198636   1.000000
    103          2.380340   1.000000
    104          2.520668   1.000000
    105          2.549931   1.000000
    106          2.607739   1.000000
    107          2.676602   1.000000
    108          3.110071   1.000000
    109          5.155288   0.000000
    110          5.203461   0.000000
    111          5.335309   0.000000
    112          5.587221   0.000000
    113          6.271230   0.000000
    114          6.614158   0.000000
    115          6.854255   0.000000
    116          7.064328   0.000000
    117          7.184403   0.000000
    118          7.643884   0.000000
    119          7.652070   0.000000
    120          7.783427   0.000000
    121          7.919530   0.000000
    122          8.082336   0.000000
    123          8.332732   0.000000
    124          8.429258   0.000000
    125          8.937172   0.000000
    126          8.988904   0.000000
    127          9.096342   0.000000
    128          9.282203   0.000000
    129          9.488516   0.000000
    130          9.775212   0.000000
    131         10.101027   0.000000
    132         10.101305   0.000000
    133         10.111961   0.000000
    134         10.313809   0.000000
    135         10.443854   0.000000
    136         10.462519   0.000000
    137         10.515701   0.000000
    138         10.599320   0.000000
    139         10.629146   0.000000
    140         10.967281   0.000000
    141         11.131759   0.000000

  0.4285714E+00  0.1262379E-14  0.2857143E+00  0.1020408E-01
      1        -25.455343   1.000000
      2        -25.455329   1.000000
      3        -25.452179   1.000000
      4        -25.452157   1.000000
      5        -25.441193   1.000000
      6        -25.441186   1.000000
      7        -25.440875   1.000000
      8        -25.440857   1.000000
      9        -25.412005   1.000000
     10        -25.411993   1.000000
     11        -25.411796   1.000000
     12        -25.411785   1.000000
     13        -25.389380   1.000000
     14        -25.389373   1.000000
     15        -25.388998   1.000000
     16        -25.388991   1.000000
     17        -25.384087   1.000000
     18        -25.384079   1.000000
     19        -25.383657   1.000000
     20        -25.383647   1.000000
     21        -12.461865   1.000000
     22        -12.449358   1.000000
     23        -11.955468   1.000000
     24        -11.827327   1.000000
     25        -11.343981   1.000000
     26        -11.307193   1.000000
     27        -11.286378   1.000000
     28        -11.269542   1.000000
     29        -11.113513   1.000000
     30        -10.976068   1.000000
     31        -10.935126   1.000000
     32        -10.846997   1.000000
     33         -6.167883   1.000000
     34         -6.158706   1.000000
     35         -5.476374   1.000000
     36         -5.412689   1.000000
     37         -2.582612   1.000000
     38         -2.418618   1.000000
     39         -2.415670   1.000000
     40         -2.306091   1.000000
     41         -2.183197   1.000000
     42         -2.129608   1.000000
     43         -2.047614   1.000000
     44         -1.742915   1.000000
     45         -1.690930   1.000000
     46         -1.559170   1.000000
     47         -1.514179   1.000000
     48         -1.290688   1.000000
     49         -1.270323   1.000000
     50         -1.061468   1.000000
     51         -1.035602   1.000000
     52         -0.977686   1.000000
     53         -0.907541   1.000000
     54         -0.814693   1.000000
     55         -0.755388   1.000000
     56         -0.634706   1.000000
     57         -0.633189   1.000000
     58         -0.619105   1.000000
     59         -0.617519   1.000000
     60         -0.591518   1.000000
     61         -0.558694   1.000000
     62         -0.543164   1.000000
     63         -0.515360   1.000000
     64         -0.514806   1.000000
     65         -0.496883   1.000000
     66         -0.428665   1.000000
     67         -0.421804   1.000000
     68         -0.356649   1.000000
     69          0.448196   1.000000
     70          0.490134   1.000000
     71          0.556200   1.000000
     72          0.568445   1.000000
     73          0.584184   1.000000
     74          0.615320   1.000000
     75          0.615617   1.000000
     76          0.616087   1.000000
     77          0.632308   1.000000
     78          0.646470   1.000000
     79          0.657580   1.000000
     80          0.665663   1.000000
     81          0.669427   1.000000
     82          0.673460   1.000000
     83          0.703703   1.000000
     84          0.762473   1.000000
     85          0.846976   1.000000
     86          0.856158   1.000000
     87          0.938594   1.000000
     88          0.970147   1.000000
     89          1.268755   1.000000
     90          1.271436   1.000000
     91          1.316876   1.000000
     92          1.356601   1.000000
     93          1.425727   1.000000
     94          1.446565   1.000000
     95          1.574954   1.000000
     96          1.580213   1.000000
     97          1.597193   1.000000
     98          1.701579   1.000000
     99          1.869705   1.000000
    100          1.991342   1.000000
    101          2.051768   1.000000
    102          2.130949   1.000000
    103          2.523703   1.000000
    104          2.549705   1.000000
    105          2.623975   1.000000
    106          2.632387   1.000000
    107          2.781395   1.000000
    108          3.077160   1.000000
    109          4.985183   0.000000
    110          5.174891   0.000000
    111          5.259016   0.000000
    112          5.494059   0.000000
    113          6.205603   0.000000
    114          6.497692   0.000000
    115          6.599283   0.000000
    116          6.961239   0.000000
    117          7.231242   0.000000
    118          7.249422   0.000000
    119          7.514310   0.000000
    120          7.567555   0.000000
    121          7.808910   0.000000
    122          8.133265   0.000000
    123          8.159685   0.000000
    124          8.168972   0.000000
    125          8.610567   0.000000
    126          8.687496   0.000000
    127          9.081943   0.000000
    128          9.161143   0.000000
    129          9.321497   0.000000
    130          9.536352   0.000000
    131          9.850386   0.000000
    132          9.996190   0.000000
    133         10.170383   0.000000
    134         10.285251   0.000000
    135         10.344200   0.000000
    136         10.437857   0.000000
    137         10.605560   0.000000
    138         10.607570   0.000000
    139         10.966907   0.000000
    140         11.034362   0.000000
    141         11.201637   0.000000

 -0.4285714E+00  0.1262379E-14  0.2857143E+00  0.1020408E-01
      1        -25.455350   1.000000
      2        -25.455328   1.000000
      3        -25.452180   1.000000
      4        -25.452158   1.000000
      5        -25.441192   1.000000
      6        -25.441185   1.000000
      7        -25.440874   1.000000
      8        -25.440863   1.000000
      9        -25.412017   1.000000
     10        -25.412004   1.000000
     11        -25.411795   1.000000
     12        -25.411783   1.000000
     13        -25.389378   1.000000
     14        -25.389373   1.000000
     15        -25.389002   1.000000
     16        -25.388987   1.000000
     17        -25.384092   1.000000
     18        -25.384070   1.000000
     19        -25.383655   1.000000
     20        -25.383646   1.000000
     21        -12.554744   1.000000
     22        -12.424193   1.000000
     23        -11.926997   1.000000
     24        -11.809331   1.000000
     25        -11.354170   1.000000
     26        -11.292636   1.000000
     27        -11.274552   1.000000
     28        -11.200825   1.000000
     29        -11.067266   1.000000
     30        -10.992459   1.000000
     31        -10.939730   1.000000
     32        -10.896542   1.000000
     33         -6.188214   1.000000
     34         -6.161850   1.000000
     35         -5.539905   1.000000
     36         -5.479096   1.000000
     37         -2.677029   1.000000
     38         -2.609479   1.000000
     39         -2.447038   1.000000
     40         -2.380297   1.000000
     41         -2.256139   1.000000
     42         -2.077220   1.000000
     43         -2.038430   1.000000
     44         -1.737824   1.000000
     45         -1.579927   1.000000
     46         -1.466474   1.000000
     47         -1.464937   1.000000
     48         -1.272223   1.000000
     49         -1.134769   1.000000
     50         -1.080659   1.000000
     51         -1.054204   1.000000
     52         -0.966499   1.000000
     53         -0.805902   1.000000
     54         -0.742081   1.000000
     55         -0.681225   1.000000
     56         -0.658191   1.000000
     57         -0.656527   1.000000
     58         -0.627891   1.000000
     59         -0.621428   1.000000
     60         -0.612163   1.000000
     61         -0.582667   1.000000
     62         -0.559754   1.000000
     63         -0.534428   1.000000
     64         -0.489214   1.000000
     65         -0.457611   1.000000
     66         -0.441873   1.000000
     67         -0.408534   1.000000
     68         -0.347762   1.000000
     69          0.433099   1.000000
     70          0.446815   1.000000
     71          0.557665   1.000000
     72          0.568649   1.000000
     73          0.602737   1.000000
     74          0.602861   1.000000
     75          0.607214   1.000000
     76          0.612504   1.000000
     77          0.627891   1.000000
     78          0.632594   1.000000
     79          0.645856   1.000000
     80          0.668831   1.000000
     81          0.672974   1.000000
     82          0.689853   1.000000
     83          0.717745   1.000000
     84          0.743163   1.000000
     85          0.848531   1.000000
     86          0.930711   1.000000
     87          0.947433   1.000000
     88          0.951647   1.000000
     89          1.139026   1.000000
     90          1.272643   1.000000
     91          1.299463   1.000000
     92          1.334298   1.000000
     93          1.392913   1.000000
     94          1.566675   1.000000
     95          1.575830   1.000000
     96          1.694242   1.000000
     97          1.734246   1.000000
     98          1.788502   1.000000
     99          1.974848   1.000000
    100          2.133855   1.000000
    101          2.138124   1.000000
    102          2.144624   1.000000
    103          2.528370   1.000000
    104          2.565678   1.000000
    105          2.681591   1.000000
    106          2.825338   1.000000
    107          2.853204   1.000000
    108          3.083273   1.000000
    109          4.667214   0.000000
    110          5.147090   0.000000
    111          5.221887   0.000000
    112          5.273855   0.000000
    113          6.271589   0.000000
    114          6.410146   0.000000
    115          6.593786   0.000000
    116          6.630907   0.000000
    117          6.830140   0.000000
    118          7.070143   0.000000
    119          7.338929   0.000000
    120          7.377324   0.000000
    121          7.879694   0.000000
    122          7.942293   0.000000
    123          8.084717   0.000000
    124          8.389564   0.000000
    125          8.446422   0.000000
    126          8.681988   0.000000
    127          8.717183   0.000000
    128          9.076966   0.000000
    129          9.285463   0.000000
    130          9.301739   0.000000
    131          9.712879   0.000000
    132          9.837303   0.000000
    133         10.104731   0.000000
    134         10.170181   0.000000
    135         10.288162   0.000000
    136         10.348193   0.000000
    137         10.448000   0.000000
    138         10.958273   0.000000
    139         10.983563   0.000000
    140         11.094918   0.000000
    141         11.361418   0.000000

 -0.2857143E+00  0.1262379E-14  0.2857143E+00  0.1020408E-01
      1        -25.455360   1.000000
      2        -25.455325   1.000000
      3        -25.452177   1.000000
      4        -25.452164   1.000000
      5        -25.441195   1.000000
      6        -25.441185   1.000000
      7        -25.440870   1.000000
      8        -25.440860   1.000000
      9        -25.412022   1.000000
     10        -25.412007   1.000000
     11        -25.411794   1.000000
     12        -25.411773   1.000000
     13        -25.389382   1.000000
     14        -25.389374   1.000000
     15        -25.388996   1.000000
     16        -25.388988   1.000000
     17        -25.384088   1.000000
     18        -25.384074   1.000000
     19        -25.383664   1.000000
     20        -25.383643   1.000000
     21        -12.645206   1.000000
     22        -12.439957   1.000000
     23        -11.914249   1.000000
     24        -11.824522   1.000000
     25        -11.406950   1.000000
     26        -11.286547   1.000000
     27        -11.189804   1.000000
     28        -11.148967   1.000000
     29        -10.971784   1.000000
     30        -10.969110   1.000000
     31        -10.957751   1.000000
     32        -10.877243   1.000000
     33         -6.217588   1.000000
     34         -6.161122   1.000000
     35         -5.663449   1.000000
     36         -5.518826   1.000000
     37         -2.700420   1.000000
     38         -2.678847   1.000000
     39         -2.589225   1.000000
     40         -2.294819   1.000000
     41         -2.265285   1.000000
     42         -2.090310   1.000000
     43         -2.053456   1.000000
     44         -1.704643   1.000000
     45         -1.667285   1.000000
     46         -1.546097   1.000000
     47         -1.377066   1.000000
     48         -1.180908   1.000000
     49         -1.177132   1.000000
     50         -1.090650   1.000000
     51         -0.989268   1.000000
     52         -0.977149   1.000000
     53         -0.875764   1.000000
     54         -0.780852   1.000000
     55         -0.721130   1.000000
     56         -0.714604   1.000000
     57         -0.670806   1.000000
     58         -0.597300   1.000000
     59         -0.593514   1.000000
     60         -0.578436   1.000000
     61         -0.570653   1.000000
     62         -0.567110   1.000000
     63         -0.525355   1.000000
     64         -0.462513   1.000000
     65         -0.448599   1.000000
     66         -0.419039   1.000000
     67         -0.402855   1.000000
     68         -0.325950   1.000000
     69          0.411829   1.000000
     70          0.489920   1.000000
     71          0.527911   1.000000
     72          0.584237   1.000000
     73          0.589475   1.000000
     74          0.602538   1.000000
     75          0.607847   1.000000
     76          0.608223   1.000000
     77          0.627401   1.000000
     78          0.653480   1.000000
     79          0.654707   1.000000
     80          0.673040   1.000000
     81          0.688451   1.000000
     82          0.702078   1.000000
     83          0.706202   1.000000
     84          0.730136   1.000000
     85          0.810530   1.000000
     86          0.893491   1.000000
     87          0.905411   1.000000
     88          0.954130   1.000000
     89          1.161056   1.000000
     90          1.263358   1.000000
     91          1.327357   1.000000
     92          1.363321   1.000000
     93          1.450392   1.000000
     94          1.587360   1.000000
     95          1.604646   1.000000
     96          1.643736   1.000000
     97          1.659119   1.000000
     98          1.912045   1.000000
     99          2.047557   1.000000
    100          2.054474   1.000000
    101          2.365522   1.000000
    102          2.367950   1.000000
    103          2.485902   1.000000
    104          2.654488   1.000000
    105          2.735467   1.000000
    106          2.900797   1.000000
    107          2.950261   1.000000
    108          3.092913   1.000000
    109          4.505943   0.000000
    110          5.101542   0.000000
    111          5.123940   0.000000
    112          5.250314   0.000000
    113          6.140206   0.000000
    114          6.565194   0.000000
    115          6.635695   0.000000
    116          6.640354   0.000000
    117          6.708520   0.000000
    118          7.048997   0.000000
    119          7.169010   0.000000
    120          7.256901   0.000000
    121          7.782284   0.000000
    122          7.855811   0.000000
    123          8.425756   0.000000
    124          8.497153   0.000000
    125          8.586048   0.000000
    126          8.647051   0.000000
    127          8.921273   0.000000
    128          9.095746   0.000000
    129          9.190486   0.000000
    130          9.383916   0.000000
    131          9.616378   0.000000
    132          9.668295   0.000000
    133          9.770514   0.000000
    134         10.143349   0.000000
    135         10.163490   0.000000
    136         10.199801   0.000000
    137         10.603239   0.000000
    138         10.628322   0.000000
    139         10.924057   0.000000
    140         11.106232   0.000000
    141         11.600553   0.000000

 -0.1428571E+00  0.1262379E-14  0.2857143E+00  0.1020408E-01
      1        -25.455362   1.000000
      2        -25.455316   1.000000
      3        -25.452176   1.000000
      4        -25.452165   1.000000
      5        -25.441195   1.000000
      6        -25.441180   1.000000
      7        -25.440865   1.000000
      8        -25.440858   1.000000
      9        -25.412024   1.000000
     10        -25.412009   1.000000
     11        -25.411796   1.000000
     12        -25.411763   1.000000
     13        -25.389384   1.000000
     14        -25.389379   1.000000
     15        -25.388994   1.000000
     16        -25.388988   1.000000
     17        -25.384084   1.000000
     18        -25.384078   1.000000
     19        -25.383675   1.000000
     20        -25.383645   1.000000
     21        -12.694745   1.000000
     22        -12.454980   1.000000
     23        -11.911413   1.000000
     24        -11.878373   1.000000
     25        -11.448451   1.000000
     26        -11.272573   1.000000
     27        -11.137111   1.000000
     28        -11.128063   1.000000
     29        -10.999207   1.000000
     30        -10.914079   1.000000
     31        -10.878741   1.000000
     32        -10.826548   1.000000
     33         -6.228476   1.000000
     34         -6.164380   1.000000
     35         -5.719658   1.000000
     36         -5.542498   1.000000
     37         -2.675230   1.000000
     38         -2.662329   1.000000
     39         -2.596076   1.000000
     40         -2.309001   1.000000
     41         -2.204837   1.000000
     42         -2.046244   1.000000
     43         -1.975656   1.000000
     44         -1.862747   1.000000
     45         -1.582288   1.000000
     46         -1.553843   1.000000
     47         -1.419694   1.000000
     48         -1.356929   1.000000
     49         -1.263617   1.000000
     50         -1.099925   1.000000
     51         -1.089153   1.000000
     52         -0.998339   1.000000
     53         -0.853445   1.000000
     54         -0.813722   1.000000
     55         -0.780143   1.000000
     56         -0.752481   1.000000
     57         -0.641926   1.000000
     58         -0.609555   1.000000
     59         -0.599914   1.000000
     60         -0.560819   1.000000
     61         -0.557559   1.000000
     62         -0.543849   1.000000
     63         -0.519090   1.000000
     64         -0.450426   1.000000
     65         -0.430370   1.000000
     66         -0.429656   1.000000
     67         -0.412704   1.000000
     68         -0.310978   1.000000
     69          0.414677   1.000000
     70          0.534900   1.000000
     71          0.551345   1.000000
     72          0.557360   1.000000
     73          0.587807   1.000000
     74          0.594442   1.000000
     75          0.601802   1.000000
     76          0.605204   1.000000
     77          0.615406   1.000000
     78          0.630826   1.000000
     79          0.659283   1.000000
     80          0.673081   1.000000
     81          0.674855   1.000000
     82          0.693888   1.000000
     83          0.710290   1.000000
     84          0.752727   1.000000
     85          0.807711   1.000000
     86          0.875482   1.000000
     87          0.902574   1.000000
     88          0.999353   1.000000
     89          1.070312   1.000000
     90          1.278308   1.000000
     91          1.300960   1.000000
     92          1.343525   1.000000
     93          1.366529   1.000000
     94          1.487735   1.000000
     95          1.529235   1.000000
     96          1.664432   1.000000
     97          1.783473   1.000000
     98          1.951811   1.000000
     99          1.993769   1.000000
    100          2.170348   1.000000
    101          2.287110   1.000000
    102          2.434278   1.000000
    103          2.572634   1.000000
    104          2.595822   1.000000
    105          2.752279   1.000000
    106          2.945768   1.000000
    107          2.949271   1.000000
    108          3.059066   1.000000
    109          4.761562   0.000000
    110          4.999693   0.000000
    111          5.162701   0.000000
    112          5.366756   0.000000
    113          6.206202   0.000000
    114          6.491454   0.000000
    115          6.536914   0.000000
    116          6.967525   0.000000
    117          6.976134   0.000000
    118          7.186735   0.000000
    119          7.255149   0.000000
    120          7.388936   0.000000
    121          7.867217   0.000000
    122          8.031260   0.000000
    123          8.580768   0.000000
    124          8.596623   0.000000
    125          8.782819   0.000000
    126          8.796494   0.000000
    127          9.173929   0.000000
    128          9.304559   0.000000
    129          9.371129   0.000000
    130          9.435580   0.000000
    131          9.507103   0.000000
    132          9.604231   0.000000
    133          9.614514   0.000000
    134          9.984068   0.000000
    135         10.213813   0.000000
    136         10.316743   0.000000
    137         10.431126   0.000000
    138         10.638803   0.000000
    139         10.662053   0.000000
    140         10.669569   0.000000
    141         11.167262   0.000000

  0.1262379E-14  0.2500000E+00  0.2857143E+00  0.2040816E-01
      1        -25.455356   1.000000
      2        -25.455320   1.000000
      3        -25.452183   1.000000
      4        -25.452163   1.000000
      5        -25.441193   1.000000
      6        -25.441184   1.000000
      7        -25.440867   1.000000
      8        -25.440859   1.000000
      9        -25.412022   1.000000
     10        -25.412011   1.000000
     11        -25.411787   1.000000
     12        -25.411771   1.000000
     13        -25.389386   1.000000
     14        -25.389379   1.000000
     15        -25.388993   1.000000
     16        -25.388986   1.000000
     17        -25.384086   1.000000
     18        -25.384078   1.000000
     19        -25.383670   1.000000
     20        -25.383652   1.000000
     21        -12.658921   1.000000
     22        -12.492953   1.000000
     23        -11.926044   1.000000
     24        -11.891218   1.000000
     25        -11.453612   1.000000
     26        -11.290091   1.000000
     27        -11.165099   1.000000
     28        -11.135932   1.000000
     29        -10.994546   1.000000
     30        -10.873897   1.000000
     31        -10.844207   1.000000
     32        -10.811875   1.000000
     33         -6.211546   1.000000
     34         -6.173678   1.000000
     35         -5.663734   1.000000
     36         -5.527694   1.000000
     37         -2.660154   1.000000
     38         -2.607916   1.000000
     39         -2.473137   1.000000
     40         -2.355750   1.000000
     41         -2.153898   1.000000
     42         -2.151623   1.000000
     43         -1.896842   1.000000
     44         -1.691807   1.000000
     45         -1.598953   1.000000
     46         -1.481389   1.000000
     47         -1.476353   1.000000
     48         -1.395880   1.000000
     49         -1.248846   1.000000
     50         -1.192094   1.000000
     51         -1.134443   1.000000
     52         -1.082306   1.000000
     53         -0.992751   1.000000
     54         -0.883988   1.000000
     55         -0.820370   1.000000
     56         -0.742980   1.000000
     57         -0.627903   1.000000
     58         -0.608204   1.000000
     59         -0.603221   1.000000
     60         -0.600728   1.000000
     61         -0.558008   1.000000
     62         -0.527055   1.000000
     63         -0.523044   1.000000
     64         -0.473882   1.000000
     65         -0.436275   1.000000
     66         -0.428378   1.000000
     67         -0.407432   1.000000
     68         -0.350033   1.000000
     69          0.480499   1.000000
     70          0.520736   1.000000
     71          0.527950   1.000000
     72          0.563799   1.000000
     73          0.567289   1.000000
     74          0.576544   1.000000
     75          0.585567   1.000000
     76          0.605528   1.000000
     77          0.625485   1.000000
     78          0.631201   1.000000
     79          0.645364   1.000000
     80          0.649496   1.000000
     81          0.676426   1.000000
     82          0.688463   1.000000
     83          0.705505   1.000000
     84          0.775224   1.000000
     85          0.834351   1.000000
     86          0.934972   1.000000
     87          0.983676   1.000000
     88          1.012094   1.000000
     89          1.077971   1.000000
     90          1.177469   1.000000
     91          1.221446   1.000000
     92          1.278105   1.000000
     93          1.284845   1.000000
     94          1.411634   1.000000
     95          1.540776   1.000000
     96          1.717313   1.000000
     97          1.752579   1.000000
     98          1.930313   1.000000
     99          1.936587   1.000000
    100          2.163760   1.000000
    101          2.221313   1.000000
    102          2.344989   1.000000
    103          2.413738   1.000000
    104          2.549377   1.000000
    105          2.611655   1.000000
    106          2.687427   1.000000
    107          2.857015   1.000000
    108          3.141417   1.000000
    109          5.049802   0.000000
    110          5.148786   0.000000
    111          5.245951   0.000000
    112          5.618512   0.000000
    113          6.634429   0.000000
    114          6.648536   0.000000
    115          6.744978   0.000000
    116          7.017962   0.000000
    117          7.156060   0.000000
    118          7.427273   0.000000
    119          7.633553   0.000000
    120          7.842621   0.000000
    121          8.088212   0.000000
    122          8.288455   0.000000
    123          8.320835   0.000000
    124          8.606834   0.000000
    125          8.850619   0.000000
    126          9.023398   0.000000
    127          9.185942   0.000000
    128          9.365543   0.000000
    129          9.365683   0.000000
    130          9.573590   0.000000
    131          9.680933   0.000000
    132          9.774580   0.000000
    133          9.840579   0.000000
    134          9.932720   0.000000
    135         10.140079   0.000000
    136         10.175475   0.000000
    137         10.296516   0.000000
    138         10.515742   0.000000
    139         10.577555   0.000000
    140         10.811965   0.000000
    141         11.019807   0.000000

  0.1428571E+00  0.2500000E+00  0.2857143E+00  0.2040816E-01
      1        -25.455347   1.000000
      2        -25.455325   1.000000
      3        -25.452181   1.000000
      4        -25.452157   1.000000
      5        -25.441195   1.000000
      6        -25.441184   1.000000
      7        -25.440869   1.000000
      8        -25.440858   1.000000
      9        -25.412011   1.000000
     10        -25.412000   1.000000
     11        -25.411787   1.000000
     12        -25.411777   1.000000
     13        -25.389382   1.000000
     14        -25.389375   1.000000
     15        -25.388991   1.000000
     16        -25.388984   1.000000
     17        -25.384086   1.000000
     18        -25.384079   1.000000
     19        -25.383662   1.000000
     20        -25.383647   1.000000
     21        -12.598649   1.000000
     22        -12.457662   1.000000
     23        -11.961523   1.000000
     24        -11.891127   1.000000
     25        -11.433304   1.000000
     26        -11.288211   1.000000
     27        -11.224180   1.000000
     28        -11.176794   1.000000
     29        -11.038224   1.000000
     30        -10.905617   1.000000
     31        -10.831103   1.000000
     32        -10.812115   1.000000
     33         -6.192967   1.000000
     34         -6.163376   1.000000
     35         -5.580885   1.000000
     36         -5.438623   1.000000
     37         -2.573040   1.000000
     38         -2.507940   1.000000
     39         -2.390327   1.000000
     40         -2.354630   1.000000
     41         -2.119300   1.000000
     42         -2.114769   1.000000
     43         -1.878961   1.000000
     44         -1.756631   1.000000
     45         -1.691307   1.000000
     46         -1.501980   1.000000
     47         -1.446980   1.000000
     48         -1.351937   1.000000
     49         -1.304416   1.000000
     50         -1.224740   1.000000
     51         -1.154348   1.000000
     52         -1.091977   1.000000
     53         -1.006350   1.000000
     54         -0.984006   1.000000
     55         -0.797964   1.000000
     56         -0.746287   1.000000
     57         -0.642961   1.000000
     58         -0.639220   1.000000
     59         -0.617657   1.000000
     60         -0.607276   1.000000
     61         -0.545614   1.000000
     62         -0.524263   1.000000
     63         -0.516982   1.000000
     64         -0.472484   1.000000
     65         -0.453319   1.000000
     66         -0.433414   1.000000
     67         -0.400084   1.000000
     68         -0.375269   1.000000
     69          0.510624   1.000000
     70          0.523986   1.000000
     71          0.524168   1.000000
     72          0.559772   1.000000
     73          0.567486   1.000000
     74          0.575889   1.000000
     75          0.601886   1.000000
     76          0.606672   1.000000
     77          0.624133   1.000000
     78          0.638871   1.000000
     79          0.655669   1.000000
     80          0.670815   1.000000
     81          0.671239   1.000000
     82          0.696564   1.000000
     83          0.717088   1.000000
     84          0.751759   1.000000
     85          0.834555   1.000000
     86          0.970818   1.000000
     87          0.983879   1.000000
     88          1.027413   1.000000
     89          1.068422   1.000000
     90          1.080667   1.000000
     91          1.154832   1.000000
     92          1.277809   1.000000
     93          1.293482   1.000000
     94          1.406490   1.000000
     95          1.571717   1.000000
     96          1.672105   1.000000
     97          1.731427   1.000000
     98          1.879392   1.000000
     99          1.973721   1.000000
    100          2.002850   1.000000
    101          2.169666   1.000000
    102          2.215396   1.000000
    103          2.377258   1.000000
    104          2.444231   1.000000
    105          2.611415   1.000000
    106          2.658940   1.000000
    107          2.783171   1.000000
    108          2.954123   1.000000
    109          5.196137   0.000000
    110          5.270464   0.000000
    111          5.424033   0.000000
    112          5.586343   0.000000
    113          6.671351   0.000000
    114          6.795870   0.000000
    115          6.865899   0.000000
    116          6.874151   0.000000
    117          7.191896   0.000000
    118          7.753845   0.000000
    119          7.871163   0.000000
    120          8.042434   0.000000
    121          8.058390   0.000000
    122          8.275953   0.000000
    123          8.374154   0.000000
    124          8.642978   0.000000
    125          8.930516   0.000000
    126          9.103042   0.000000
    127          9.157120   0.000000
    128          9.306899   0.000000
    129          9.401763   0.000000
    130          9.502463   0.000000
    131          9.804848   0.000000
    132          9.929756   0.000000
    133         10.107735   0.000000
    134         10.219468   0.000000
    135         10.338870   0.000000
    136         10.408658   0.000000
    137         10.534411   0.000000
    138         10.568554   0.000000
    139         10.643172   0.000000
    140         10.820761   0.000000
    141         11.068457   0.000000

  0.2857143E+00  0.2500000E+00  0.2857143E+00  0.2040816E-01
      1        -25.455333   1.000000
      2        -25.455326   1.000000
      3        -25.452176   1.000000
      4        -25.452153   1.000000
      5        -25.441188   1.000000
      6        -25.441182   1.000000
      7        -25.440862   1.000000
      8        -25.440853   1.000000
      9        -25.411995   1.000000
     10        -25.411989   1.000000
     11        -25.411789   1.000000
     12        -25.411784   1.000000
     13        -25.389381   1.000000
     14        -25.389371   1.000000
     15        -25.388990   1.000000
     16        -25.388985   1.000000
     17        -25.384084   1.000000
     18        -25.384074   1.000000
     19        -25.383657   1.000000
     20        -25.383647   1.000000
     21        -12.512653   1.000000
     22        -12.431280   1.000000
     23        -11.964481   1.000000
     24        -11.877739   1.000000
     25        -11.402221   1.000000
     26        -11.345962   1.000000
     27        -11.246547   1.000000
     28        -11.201986   1.000000
     29        -11.082840   1.000000
     30        -10.955804   1.000000
     31        -10.868418   1.000000
     32        -10.831308   1.000000
     33         -6.176179   1.000000
     34         -6.154177   1.000000
     35         -5.505146   1.000000
     36         -5.387425   1.000000
     37         -2.546478   1.000000
     38         -2.498368   1.000000
     39         -2.297569   1.000000
     40         -2.270696   1.000000
     41         -2.079290   1.000000
     42         -2.036844   1.000000
     43         -1.985105   1.000000
     44         -1.956374   1.000000
     45         -1.626672   1.000000
     46         -1.612988   1.000000
     47         -1.439655   1.000000
     48         -1.353237   1.000000
     49         -1.262831   1.000000
     50         -1.177684   1.000000
     51         -1.089490   1.000000
     52         -1.053187   1.000000
     53         -0.960358   1.000000
     54         -0.901232   1.000000
     55         -0.840300   1.000000
     56         -0.687108   1.000000
     57         -0.665449   1.000000
     58         -0.655544   1.000000
     59         -0.625968   1.000000
     60         -0.599273   1.000000
     61         -0.539545   1.000000
     62         -0.522919   1.000000
     63         -0.522858   1.000000
     64         -0.473727   1.000000
     65         -0.465948   1.000000
     66         -0.429128   1.000000
     67         -0.405595   1.000000
     68         -0.382921   1.000000
     69          0.511612   1.000000
     70          0.522264   1.000000
     71          0.533855   1.000000
     72          0.538510   1.000000
     73          0.571995   1.000000
     74          0.603249   1.000000
     75          0.609403   1.000000
     76          0.615872   1.000000
     77          0.621640   1.000000
     78          0.642500   1.000000
     79          0.645315   1.000000
     80          0.668566   1.000000
     81          0.682913   1.000000
     82          0.683417   1.000000
     83          0.739354   1.000000
     84          0.748313   1.000000
     85          0.868189   1.000000
     86          0.911736   1.000000
     87          0.948938   1.000000
     88          1.027889   1.000000
     89          1.132294   1.000000
     90          1.152351   1.000000
     91          1.228198   1.000000
     92          1.315504   1.000000
     93          1.455745   1.000000
     94          1.564085   1.000000
     95          1.587673   1.000000
     96          1.602868   1.000000
     97          1.656417   1.000000
     98          1.683623   1.000000
     99          1.715596   1.000000
    100          1.781693   1.000000
    101          2.151803   1.000000
    102          2.192126   1.000000
    103          2.332168   1.000000
    104          2.412751   1.000000
    105          2.617677   1.000000
    106          2.658773   1.000000
    107          2.772874   1.000000
    108          2.958477   1.000000
    109          5.230729   0.000000
    110          5.235078   0.000000
    111          5.429162   0.000000
    112          5.607086   0.000000
    113          6.372806   0.000000
    114          6.669218   0.000000
    115          6.806711   0.000000
    116          7.022987   0.000000
    117          7.406764   0.000000
    118          7.633855   0.000000
    119          7.733868   0.000000
    120          7.931593   0.000000
    121          7.955708   0.000000
    122          8.171215   0.000000
    123          8.282587   0.000000
    124          8.510034   0.000000
    125          8.956827   0.000000
    126          9.007197   0.000000
    127          9.051496   0.000000
    128          9.268766   0.000000
    129          9.397194   0.000000
    130          9.758482   0.000000
    131          9.805301   0.000000
    132         10.092277   0.000000
    133         10.111553   0.000000
    134         10.253041   0.000000
    135         10.331962   0.000000
    136         10.465774   0.000000
    137         10.508435   0.000000
    138         10.564837   0.000000
    139         10.646410   0.000000
    140         10.880191   0.000000
    141         10.919554   0.000000

  0.4285714E+00  0.2500000E+00  0.2857143E+00  0.2040816E-01
      1        -25.455334   1.000000
      2        -25.455325   1.000000
      3        -25.452172   1.000000
      4        -25.452159   1.000000
      5        -25.441187   1.000000
      6        -25.441181   1.000000
      7        -25.440869   1.000000
      8        -25.440855   1.000000
      9        -25.412003   1.000000
     10        -25.411994   1.000000
     11        -25.411791   1.000000
     12        -25.411784   1.000000
     13        -25.389377   1.000000
     14        -25.389370   1.000000
     15        -25.388995   1.000000
     16        -25.388988   1.000000
     17        -25.384084   1.000000
     18        -25.384075   1.000000
     19        -25.383656   1.000000
     20        -25.383646   1.000000
     21        -12.458538   1.000000
     22        -12.449596   1.000000
     23        -11.939986   1.000000
     24        -11.849803   1.000000
     25        -11.383536   1.000000
     26        -11.369417   1.000000
     27        -11.236436   1.000000
     28        -11.203354   1.000000
     29        -11.099178   1.000000
     30        -10.994132   1.000000
     31        -10.924963   1.000000
     32        -10.861746   1.000000
     33         -6.167329   1.000000
     34         -6.161156   1.000000
     35         -5.474757   1.000000
     36         -5.429355   1.000000
     37         -2.646461   1.000000
     38         -2.562267   1.000000
     39         -2.301603   1.000000
     40         -2.208651   1.000000
     41         -2.177419   1.000000
     42         -2.082474   1.000000
     43         -2.007867   1.000000
     44         -1.821315   1.000000
     45         -1.654690   1.000000
     46         -1.583469   1.000000
     47         -1.368054   1.000000
     48         -1.296836   1.000000
     49         -1.254500   1.000000
     50         -1.134136   1.000000
     51         -1.004959   1.000000
     52         -0.966461   1.000000
     53         -0.921984   1.000000
     54         -0.848686   1.000000
     55         -0.749125   1.000000
     56         -0.701816   1.000000
     57         -0.679961   1.000000
     58         -0.655881   1.000000
     59         -0.582804   1.000000
     60         -0.571277   1.000000
     61         -0.542253   1.000000
     62         -0.537111   1.000000
     63         -0.524328   1.000000
     64         -0.490338   1.000000
     65         -0.469281   1.000000
     66         -0.453911   1.000000
     67         -0.406066   1.000000
     68         -0.370574   1.000000
     69          0.446804   1.000000
     70          0.499599   1.000000
     71          0.541483   1.000000
     72          0.547022   1.000000
     73          0.561812   1.000000
     74          0.586501   1.000000
     75          0.603194   1.000000
     76          0.620110   1.000000
     77          0.628474   1.000000
     78          0.638048   1.000000
     79          0.652766   1.000000
     80          0.659832   1.000000
     81          0.668027   1.000000
     82          0.672113   1.000000
     83          0.721916   1.000000
     84          0.769154   1.000000
     85          0.859052   1.000000
     86          0.963044   1.000000
     87          0.994732   1.000000
     88          1.079809   1.000000
     89          1.217506   1.000000
     90          1.229958   1.000000
     91          1.288882   1.000000
     92          1.357951   1.000000
     93          1.409645   1.000000
     94          1.439463   1.000000
     95          1.558758   1.000000
     96          1.568340   1.000000
     97          1.625753   1.000000
     98          1.673463   1.000000
     99          1.856138   1.000000
    100          1.887538   1.000000
    101          2.121889   1.000000
    102          2.154145   1.000000
    103          2.320497   1.000000
    104          2.347744   1.000000
    105          2.644457   1.000000
    106          2.726894   1.000000
    107          2.891815   1.000000
    108          2.999428   1.000000
    109          5.058970   0.000000
    110          5.170292   0.000000
    111          5.357386   0.000000
    112          5.510620   0.000000
    113          6.232429   0.000000
    114          6.488600   0.000000
    115          6.600334   0.000000
    116          6.995865   0.000000
    117          7.329301   0.000000
    118          7.358136   0.000000
    119          7.604349   0.000000
    120          7.711674   0.000000
    121          7.893540   0.000000
    122          8.096148   0.000000
    123          8.210830   0.000000
    124          8.256736   0.000000
    125          8.652674   0.000000
    126          8.820676   0.000000
    127          8.891612   0.000000
    128          9.206808   0.000000
    129          9.522719   0.000000
    130          9.623356   0.000000
    131          9.683237   0.000000
    132          9.854966   0.000000
    133          9.988732   0.000000
    134         10.204652   0.000000
    135         10.210357   0.000000
    136         10.388392   0.000000
    137         10.424786   0.000000
    138         10.557320   0.000000
    139         10.777619   0.000000
    140         10.784906   0.000000
    141         10.968873   0.000000

 -0.4285714E+00  0.2500000E+00  0.2857143E+00  0.2040816E-01
      1        -25.455344   1.000000
      2        -25.455330   1.000000
      3        -25.452173   1.000000
      4        -25.452160   1.000000
      5        -25.441187   1.000000
      6        -25.441180   1.000000
      7        -25.440864   1.000000
      8        -25.440857   1.000000
      9        -25.412013   1.000000
     10        -25.412002   1.000000
     11        -25.411789   1.000000
     12        -25.411781   1.000000
     13        -25.389375   1.000000
     14        -25.389369   1.000000
     15        -25.388997   1.000000
     16        -25.388989   1.000000
     17        -25.384087   1.000000
     18        -25.384074   1.000000
     19        -25.383657   1.000000
     20        -25.383644   1.000000
     21        -12.537670   1.000000
     22        -12.445853   1.000000
     23        -11.907221   1.000000
     24        -11.823945   1.000000
     25        -11.375868   1.000000
     26        -11.323894   1.000000
     27        -11.241842   1.000000
     28        -11.166014   1.000000
     29        -11.075163   1.000000
     30        -11.019428   1.000000
     31        -10.924596   1.000000
     32        -10.889745   1.000000
     33         -6.184821   1.000000
     34         -6.166172   1.000000
     35         -5.538751   1.000000
     36         -5.495883   1.000000
     37         -2.754707   1.000000
     38         -2.639433   1.000000
     39         -2.466470   1.000000
     40         -2.249765   1.000000
     41         -2.222808   1.000000
     42         -2.112735   1.000000
     43         -2.012127   1.000000
     44         -1.662676   1.000000
     45         -1.561554   1.000000
     46         -1.459927   1.000000
     47         -1.396518   1.000000
     48         -1.294572   1.000000
     49         -1.178852   1.000000
     50         -1.146381   1.000000
     51         -0.984455   1.000000
     52         -0.958454   1.000000
     53         -0.857819   1.000000
     54         -0.735476   1.000000
     55         -0.728685   1.000000
     56         -0.684552   1.000000
     57         -0.671082   1.000000
     58         -0.658647   1.000000
     59         -0.602440   1.000000
     60         -0.581280   1.000000
     61         -0.573575   1.000000
     62         -0.527146   1.000000
     63         -0.523919   1.000000
     64         -0.515300   1.000000
     65         -0.447938   1.000000
     66         -0.433260   1.000000
     67         -0.398015   1.000000
     68         -0.364969   1.000000
     69          0.430696   1.000000
     70          0.444682   1.000000
     71          0.539932   1.000000
     72          0.541558   1.000000
     73          0.588315   1.000000
     74          0.589711   1.000000
     75          0.604467   1.000000
     76          0.609088   1.000000
     77          0.617760   1.000000
     78          0.630367   1.000000
     79          0.652763   1.000000
     80          0.663186   1.000000
     81          0.665100   1.000000
     82          0.686451   1.000000
     83          0.708540   1.000000
     84          0.766186   1.000000
     85          0.856846   1.000000
     86          0.938997   1.000000
     87          1.082072   1.000000
     88          1.099859   1.000000
     89          1.117388   1.000000
     90          1.177666   1.000000
     91          1.334615   1.000000
     92          1.343630   1.000000
     93          1.419201   1.000000
     94          1.539841   1.000000
     95          1.566326   1.000000
     96          1.639900   1.000000
     97          1.717593   1.000000
     98          1.788366   1.000000
     99          1.929251   1.000000
    100          1.933085   1.000000
    101          2.171382   1.000000
    102          2.178744   1.000000
    103          2.325091   1.000000
    104          2.567833   1.000000
    105          2.639150   1.000000
    106          2.867568   1.000000
    107          2.962830   1.000000
    108          3.042267   1.000000
    109          4.763141   0.000000
    110          5.094246   0.000000
    111          5.275775   0.000000
    112          5.328924   0.000000
    113          6.268638   0.000000
    114          6.382034   0.000000
    115          6.663586   0.000000
    116          6.664888   0.000000
    117          7.023496   0.000000
    118          7.144005   0.000000
    119          7.416090   0.000000
    120          7.496966   0.000000
    121          7.845508   0.000000
    122          7.995148   0.000000
    123          8.021550   0.000000
    124          8.284124   0.000000
    125          8.590561   0.000000
    126          8.640686   0.000000
    127          8.863321   0.000000
    128          9.141679   0.000000
    129          9.294856   0.000000
    130          9.446013   0.000000
    131          9.630902   0.000000
    132          9.811374   0.000000
    133         10.125088   0.000000
    134         10.127317   0.000000
    135         10.223248   0.000000
    136         10.300652   0.000000
    137         10.370136   0.000000
    138         10.645086   0.000000
    139         10.724923   0.000000
    140         10.745144   0.000000
    141         11.150058   0.000000

 -0.2857143E+00  0.2500000E+00  0.2857143E+00  0.2040816E-01
      1        -25.455349   1.000000
      2        -25.455322   1.000000
      3        -25.452172   1.000000
      4        -25.452157   1.000000
      5        -25.441185   1.000000
      6        -25.441179   1.000000
      7        -25.440860   1.000000
      8        -25.440855   1.000000
      9        -25.412020   1.000000
     10        -25.412003   1.000000
     11        -25.411783   1.000000
     12        -25.411769   1.000000
     13        -25.389379   1.000000
     14        -25.389372   1.000000
     15        -25.388997   1.000000
     16        -25.388985   1.000000
     17        -25.384085   1.000000
     18        -25.384072   1.000000
     19        -25.383657   1.000000
     20        -25.383648   1.000000
     21        -12.621009   1.000000
     22        -12.478471   1.000000
     23        -11.888309   1.000000
     24        -11.827848   1.000000
     25        -11.401609   1.000000
     26        -11.320150   1.000000
     27        -11.168402   1.000000
     28        -11.139477   1.000000
     29        -11.017355   1.000000
     30        -10.990795   1.000000
     31        -10.906642   1.000000
     32        -10.870342   1.000000
     33         -6.209780   1.000000
     34         -6.170078   1.000000
     35         -5.647921   1.000000
     36         -5.545405   1.000000
     37         -2.778770   1.000000
     38         -2.688134   1.000000
     39         -2.565437   1.000000
     40         -2.337826   1.000000
     41         -2.240239   1.000000
     42         -2.119322   1.000000
     43         -1.938144   1.000000
     44         -1.683632   1.000000
     45         -1.585482   1.000000
     46         -1.468147   1.000000
     47         -1.338039   1.000000
     48         -1.240159   1.000000
     49         -1.189147   1.000000
     50         -1.133322   1.000000
     51         -1.003379   1.000000
     52         -0.995421   1.000000
     53         -0.877012   1.000000
     54         -0.753985   1.000000
     55         -0.745615   1.000000
     56         -0.711085   1.000000
     57         -0.651418   1.000000
     58         -0.610016   1.000000
     59         -0.609955   1.000000
     60         -0.595169   1.000000
     61         -0.578351   1.000000
     62         -0.540553   1.000000
     63         -0.535656   1.000000
     64         -0.475722   1.000000
     65         -0.439261   1.000000
     66         -0.402161   1.000000
     67         -0.395187   1.000000
     68         -0.352448   1.000000
     69          0.414417   1.000000
     70          0.484480   1.000000
     71          0.517099   1.000000
     72          0.571353   1.000000
     73          0.588652   1.000000
     74          0.589419   1.000000
     75          0.602710   1.000000
     76          0.610017   1.000000
     77          0.618444   1.000000
     78          0.631503   1.000000
     79          0.633226   1.000000
     80          0.659504   1.000000
     81          0.667794   1.000000
     82          0.684628   1.000000
     83          0.729859   1.000000
     84          0.736466   1.000000
     85          0.887027   1.000000
     86          0.894477   1.000000
     87          1.024460   1.000000
     88          1.080487   1.000000
     89          1.146687   1.000000
     90          1.218428   1.000000
     91          1.341118   1.000000
     92          1.369467   1.000000
     93          1.431029   1.000000
     94          1.491720   1.000000
     95          1.594744   1.000000
     96          1.713259   1.000000
     97          1.715539   1.000000
     98          1.863952   1.000000
     99          1.887222   1.000000
    100          1.990983   1.000000
    101          2.233467   1.000000
    102          2.324747   1.000000
    103          2.388205   1.000000
    104          2.610453   1.000000
    105          2.866791   1.000000
    106          2.945367   1.000000
    107          2.985358   1.000000
    108          3.047087   1.000000
    109          4.601671   0.000000
    110          5.027771   0.000000
    111          5.180178   0.000000
    112          5.287160   0.000000
    113          6.267948   0.000000
    114          6.569866   0.000000
    115          6.634944   0.000000
    116          6.731685   0.000000
    117          6.848883   0.000000
    118          6.996555   0.000000
    119          7.292272   0.000000
    120          7.414509   0.000000
    121          7.752725   0.000000
    122          7.989220   0.000000
    123          8.103896   0.000000
    124          8.379321   0.000000
    125          8.494747   0.000000
    126          8.762951   0.000000
    127          9.019801   0.000000
    128          9.225919   0.000000
    129          9.299260   0.000000
    130          9.339127   0.000000
    131          9.665144   0.000000
    132          9.738668   0.000000
    133          9.798434   0.000000
    134         10.081527   0.000000
    135         10.119066   0.000000
    136         10.295131   0.000000
    137         10.326135   0.000000
    138         10.546933   0.000000
    139         10.716592   0.000000
    140         11.034916   0.000000
    141         11.268806   0.000000

 -0.1428571E+00  0.2500000E+00  0.2857143E+00  0.2040816E-01
      1        -25.455352   1.000000
      2        -25.455321   1.000000
      3        -25.452174   1.000000
      4        -25.452167   1.000000
      5        -25.441193   1.000000
      6        -25.441182   1.000000
      7        -25.440867   1.000000
      8        -25.440861   1.000000
      9        -25.412020   1.000000
     10        -25.412008   1.000000
     11        -25.411787   1.000000
     12        -25.411765   1.000000
     13        -25.389385   1.000000
     14        -25.389377   1.000000
     15        -25.388996   1.000000
     16        -25.388990   1.000000
     17        -25.384086   1.000000
     18        -25.384080   1.000000
     19        -25.383667   1.000000
     20        -25.383649   1.000000
     21        -12.667454   1.000000
     22        -12.501904   1.000000
     23        -11.886673   1.000000
     24        -11.870964   1.000000
     25        -11.439198   1.000000
     26        -11.314806   1.000000
     27        -11.129672   1.000000
     28        -11.120646   1.000000
     29        -10.992023   1.000000
     30        -10.904882   1.000000
     31        -10.888111   1.000000
     32        -10.827153   1.000000
     33         -6.220024   1.000000
     34         -6.174891   1.000000
     35         -5.696594   1.000000
     36         -5.570937   1.000000
     37         -2.710954   1.000000
     38         -2.699806   1.000000
     39         -2.570739   1.000000
     40         -2.368063   1.000000
     41         -2.155677   1.000000
     42         -2.119000   1.000000
     43         -1.934239   1.000000
     44         -1.775692   1.000000
     45         -1.539784   1.000000
     46         -1.492331   1.000000
     47         -1.453548   1.000000
     48         -1.341493   1.000000
     49         -1.189166   1.000000
     50         -1.085722   1.000000
     51         -1.076497   1.000000
     52         -1.015053   1.000000
     53         -0.869771   1.000000
     54         -0.866422   1.000000
     55         -0.806720   1.000000
     56         -0.732574   1.000000
     57         -0.631243   1.000000
     58         -0.605856   1.000000
     59         -0.601828   1.000000
     60         -0.580554   1.000000
     61         -0.576220   1.000000
     62         -0.539015   1.000000
     63         -0.525356   1.000000
     64         -0.468343   1.000000
     65         -0.420185   1.000000
     66         -0.415278   1.000000
     67         -0.407826   1.000000
     68         -0.337912   1.000000
     69          0.429416   1.000000
     70          0.519991   1.000000
     71          0.545363   1.000000
     72          0.547031   1.000000
     73          0.578507   1.000000
     74          0.583579   1.000000
     75          0.601545   1.000000
     76          0.603908   1.000000
     77          0.621457   1.000000
     78          0.627717   1.000000
     79          0.632902   1.000000
     80          0.655663   1.000000
     81          0.659070   1.000000
     82          0.688413   1.000000
     83          0.740590   1.000000
     84          0.777388   1.000000
     85          0.862478   1.000000
     86          0.882488   1.000000
     87          0.994223   1.000000
     88          1.053096   1.000000
     89          1.060865   1.000000
     90          1.253363   1.000000
     91          1.277560   1.000000
     92          1.326746   1.000000
     93          1.428693   1.000000
     94          1.457043   1.000000
     95          1.616904   1.000000
     96          1.669419   1.000000
     97          1.717655   1.000000
     98          1.885179   1.000000
     99          1.925067   1.000000
    100          2.168762   1.000000
    101          2.213849   1.000000
    102          2.303570   1.000000
    103          2.423966   1.000000
    104          2.557327   1.000000
    105          2.838728   1.000000
    106          2.861752   1.000000
    107          2.951240   1.000000
    108          3.169266   1.000000
    109          4.811638   0.000000
    110          4.986721   0.000000
    111          5.260102   0.000000
    112          5.380368   0.000000
    113          6.361955   0.000000
    114          6.528845   0.000000
    115          6.704255   0.000000
    116          6.964135   0.000000
    117          7.008511   0.000000
    118          7.137438   0.000000
    119          7.431305   0.000000
    120          7.473427   0.000000
    121          7.824952   0.000000
    122          8.181909   0.000000
    123          8.201178   0.000000
    124          8.605821   0.000000
    125          8.684652   0.000000
    126          8.879074   0.000000
    127          9.193421   0.000000
    128          9.268437   0.000000
    129          9.317589   0.000000
    130          9.407311   0.000000
    131          9.579659   0.000000
    132          9.675740   0.000000
    133          9.807094   0.000000
    134          9.953301   0.000000
    135         10.063014   0.000000
    136         10.172394   0.000000
    137         10.235221   0.000000
    138         10.465008   0.000000
    139         10.755689   0.000000
    140         10.802555   0.000000
    141         11.271205   0.000000

  0.1262379E-14  0.5000000E+00  0.2857143E+00  0.1020408E-01
      1        -25.455341   1.000000
      2        -25.455335   1.000000
      3        -25.452182   1.000000
      4        -25.452176   1.000000
      5        -25.441188   1.000000
      6        -25.441182   1.000000
      7        -25.440867   1.000000
      8        -25.440861   1.000000
      9        -25.412023   1.000000
     10        -25.412018   1.000000
     11        -25.411779   1.000000
     12        -25.411774   1.000000
     13        -25.389386   1.000000
     14        -25.389380   1.000000
     15        -25.388995   1.000000
     16        -25.388989   1.000000
     17        -25.384088   1.000000
     18        -25.384082   1.000000
     19        -25.383665   1.000000
     20        -25.383659   1.000000
     21        -12.584550   1.000000
     22        -12.584549   1.000000
     23        -11.898352   1.000000
     24        -11.898352   1.000000
     25        -11.385414   1.000000
     26        -11.385414   1.000000
     27        -11.141435   1.000000
     28        -11.141435   1.000000
     29        -10.937157   1.000000
     30        -10.937156   1.000000
     31        -10.822059   1.000000
     32        -10.822058   1.000000
     33         -6.194329   1.000000
     34         -6.194329   1.000000
     35         -5.596931   1.000000
     36         -5.596931   1.000000
     37         -2.652228   1.000000
     38         -2.652228   1.000000
     39         -2.427893   1.000000
     40         -2.427892   1.000000
     41         -2.185470   1.000000
     42         -2.185470   1.000000
     43         -1.755432   1.000000
     44         -1.755432   1.000000
     45         -1.550127   1.000000
     46         -1.550126   1.000000
     47         -1.369566   1.000000
     48         -1.369565   1.000000
     49         -1.191561   1.000000
     50         -1.191561   1.000000
     51         -1.076105   1.000000
     52         -1.076105   1.000000
     53         -0.921620   1.000000
     54         -0.921619   1.000000
     55         -0.844738   1.000000
     56         -0.844738   1.000000
     57         -0.621703   1.000000
     58         -0.621702   1.000000
     59         -0.593163   1.000000
     60         -0.593163   1.000000
     61         -0.556476   1.000000
     62         -0.556475   1.000000
     63         -0.510621   1.000000
     64         -0.510620   1.000000
     65         -0.434426   1.000000
     66         -0.434425   1.000000
     67         -0.381124   1.000000
     68         -0.381124   1.000000
     69          0.506433   1.000000
     70          0.506434   1.000000
     71          0.535242   1.000000
     72          0.535243   1.000000
     73          0.565400   1.000000
     74          0.565401   1.000000
     75          0.604804   1.000000
     76          0.604805   1.000000
     77          0.627264   1.000000
     78          0.627265   1.000000
     79          0.640270   1.000000
     80          0.640270   1.000000
     81          0.664327   1.000000
     82          0.664327   1.000000
     83          0.736405   1.000000
     84          0.736406   1.000000
     85          0.943235   1.000000
     86          0.943237   1.000000
     87          1.031087   1.000000
     88          1.031087   1.000000
     89          1.150736   1.000000
     90          1.150736   1.000000
     91          1.206524   1.000000
     92          1.206525   1.000000
     93          1.456336   1.000000
     94          1.456336   1.000000
     95          1.607040   1.000000
     96          1.607041   1.000000
     97          1.756579   1.000000
     98          1.756580   1.000000
     99          1.915265   1.000000
    100          1.915266   1.000000
    101          2.327582   1.000000
    102          2.327583   1.000000
    103          2.417759   1.000000
    104          2.417759   1.000000
    105          2.660283   1.000000
    106          2.660284   1.000000
    107          2.938404   1.000000
    108          2.938404   1.000000
    109          5.170364   0.000000
    110          5.170364   0.000000
    111          5.509914   0.000000
    112          5.509915   0.000000
    113          6.811019   0.000000
    114          6.811019   0.000000
    115          6.923237   0.000000
    116          6.923237   0.000000
    117          7.261023   0.000000
    118          7.261023   0.000000
    119          7.832972   0.000000
    120          7.832972   0.000000
    121          8.061331   0.000000
    122          8.061332   0.000000
    123          8.518449   0.000000
    124          8.518449   0.000000
    125          8.909432   0.000000
    126          8.909432   0.000000
    127          9.129389   0.000000
    128          9.129389   0.000000
    129          9.448230   0.000000
    130          9.448230   0.000000
    131          9.783605   0.000000
    132          9.783605   0.000000
    133          9.916817   0.000000
    134          9.916818   0.000000
    135         10.104122   0.000000
    136         10.104122   0.000000
    137         10.371368   0.000000
    138         10.371368   0.000000
    139         10.726300   0.000000
    140         10.726350   0.000000
    141         11.084651   0.000000

  0.1428571E+00  0.5000000E+00  0.2857143E+00  0.1020408E-01
      1        -25.455335   1.000000
      2        -25.455329   1.000000
      3        -25.452171   1.000000
      4        -25.452165   1.000000
      5        -25.441186   1.000000
      6        -25.441180   1.000000
      7        -25.440860   1.000000
      8        -25.440854   1.000000
      9        -25.412003   1.000000
     10        -25.411998   1.000000
     11        -25.411780   1.000000
     12        -25.411775   1.000000
     13        -25.389378   1.000000
     14        -25.389373   1.000000
     15        -25.388989   1.000000
     16        -25.388983   1.000000
     17        -25.384081   1.000000
     18        -25.384076   1.000000
     19        -25.383655   1.000000
     20        -25.383650   1.000000
     21        -12.533817   1.000000
     22        -12.533817   1.000000
     23        -11.923825   1.000000
     24        -11.923825   1.000000
     25        -11.372039   1.000000
     26        -11.372039   1.000000
     27        -11.187280   1.000000
     28        -11.187279   1.000000
     29        -10.973660   1.000000
     30        -10.973659   1.000000
     31        -10.818256   1.000000
     32        -10.818255   1.000000
     33         -6.180329   1.000000
     34         -6.180329   1.000000
     35         -5.511749   1.000000
     36         -5.511749   1.000000
     37         -2.558505   1.000000
     38         -2.558504   1.000000
     39         -2.381580   1.000000
     40         -2.381580   1.000000
     41         -2.179059   1.000000
     42         -2.179059   1.000000
     43         -1.701722   1.000000
     44         -1.701722   1.000000
     45         -1.604267   1.000000
     46         -1.604267   1.000000
     47         -1.360716   1.000000
     48         -1.360716   1.000000
     49         -1.261911   1.000000
     50         -1.261911   1.000000
     51         -1.129226   1.000000
     52         -1.129225   1.000000
     53         -0.939728   1.000000
     54         -0.939728   1.000000
     55         -0.829525   1.000000
     56         -0.829524   1.000000
     57         -0.643758   1.000000
     58         -0.643757   1.000000
     59         -0.619787   1.000000
     60         -0.619786   1.000000
     61         -0.550616   1.000000
     62         -0.550615   1.000000
     63         -0.495342   1.000000
     64         -0.495342   1.000000
     65         -0.449803   1.000000
     66         -0.449802   1.000000
     67         -0.387697   1.000000
     68         -0.387696   1.000000
     69          0.508177   1.000000
     70          0.508178   1.000000
     71          0.533932   1.000000
     72          0.533933   1.000000
     73          0.570529   1.000000
     74          0.570530   1.000000
     75          0.598932   1.000000
     76          0.598933   1.000000
     77          0.630566   1.000000
     78          0.630567   1.000000
     79          0.661631   1.000000
     80          0.661632   1.000000
     81          0.680191   1.000000
     82          0.680192   1.000000
     83          0.747688   1.000000
     84          0.747688   1.000000
     85          0.906920   1.000000
     86          0.906921   1.000000
     87          1.081361   1.000000
     88          1.081362   1.000000
     89          1.094815   1.000000
     90          1.094816   1.000000
     91          1.292471   1.000000
     92          1.292472   1.000000
     93          1.345332   1.000000
     94          1.345332   1.000000
     95          1.579272   1.000000
     96          1.579273   1.000000
     97          1.709251   1.000000
     98          1.709251   1.000000
     99          1.841545   1.000000
    100          1.841545   1.000000
    101          2.222996   1.000000
    102          2.222996   1.000000
    103          2.489575   1.000000
    104          2.489576   1.000000
    105          2.589045   1.000000
    106          2.589046   1.000000
    107          2.796236   1.000000
    108          2.796236   1.000000
    109          5.296636   0.000000
    110          5.296637   0.000000
    111          5.577427   0.000000
    112          5.577427   0.000000
    113          6.803075   0.000000
    114          6.803075   0.000000
    115          6.884194   0.000000
    116          6.884194   0.000000
    117          7.594609   0.000000
    118          7.594610   0.000000
    119          7.954678   0.000000
    120          7.954678   0.000000
    121          8.246288   0.000000
    122          8.246288   0.000000
    123          8.513778   0.000000
    124          8.513778   0.000000
    125          8.955531   0.000000
    126          8.955532   0.000000
    127          9.166198   0.000000
    128          9.166198   0.000000
    129          9.447228   0.000000
    130          9.447228   0.000000
    131          9.780000   0.000000
    132          9.780000   0.000000
    133         10.066352   0.000000
    134         10.066352   0.000000
    135         10.357082   0.000000
    136         10.357083   0.000000
    137         10.452028   0.000000
    138         10.452028   0.000000
    139         10.694138   0.000000
    140         10.694141   0.000000
    141         11.086719   0.000000

  0.2857143E+00  0.5000000E+00  0.2857143E+00  0.1020408E-01
      1        -25.455328   1.000000
      2        -25.455322   1.000000
      3        -25.452168   1.000000
      4        -25.452162   1.000000
      5        -25.441185   1.000000
      6        -25.441180   1.000000
      7        -25.440857   1.000000
      8        -25.440852   1.000000
      9        -25.411994   1.000000
     10        -25.411989   1.000000
     11        -25.411788   1.000000
     12        -25.411782   1.000000
     13        -25.389381   1.000000
     14        -25.389375   1.000000
     15        -25.388990   1.000000
     16        -25.388985   1.000000
     17        -25.384080   1.000000
     18        -25.384075   1.000000
     19        -25.383654   1.000000
     20        -25.383649   1.000000
     21        -12.472535   1.000000
     22        -12.472535   1.000000
     23        -11.924281   1.000000
     24        -11.924281   1.000000
     25        -11.392833   1.000000
     26        -11.392833   1.000000
     27        -11.200167   1.000000
     28        -11.200166   1.000000
     29        -11.017752   1.000000
     30        -11.017751   1.000000
     31        -10.852293   1.000000
     32        -10.852291   1.000000
     33         -6.166995   1.000000
     34         -6.166995   1.000000
     35         -5.451075   1.000000
     36         -5.451075   1.000000
     37         -2.565781   1.000000
     38         -2.565781   1.000000
     39         -2.287917   1.000000
     40         -2.287917   1.000000
     41         -2.072945   1.000000
     42         -2.072945   1.000000
     43         -1.892544   1.000000
     44         -1.892544   1.000000
     45         -1.576548   1.000000
     46         -1.576548   1.000000
     47         -1.356812   1.000000
     48         -1.356812   1.000000
     49         -1.260951   1.000000
     50         -1.260951   1.000000
     51         -1.027648   1.000000
     52         -1.027648   1.000000
     53         -0.983747   1.000000
     54         -0.983747   1.000000
     55         -0.755955   1.000000
     56         -0.755955   1.000000
     57         -0.683967   1.000000
     58         -0.683967   1.000000
     59         -0.622690   1.000000
     60         -0.622689   1.000000
     61         -0.536594   1.000000
     62         -0.536593   1.000000
     63         -0.491631   1.000000
     64         -0.491630   1.000000
     65         -0.444266   1.000000
     66         -0.444266   1.000000
     67         -0.398500   1.000000
     68         -0.398499   1.000000
     69          0.510148   1.000000
     70          0.510148   1.000000
     71          0.531103   1.000000
     72          0.531104   1.000000
     73          0.572432   1.000000
     74          0.572432   1.000000
     75          0.607979   1.000000
     76          0.607980   1.000000
     77          0.635312   1.000000
     78          0.635313   1.000000
     79          0.650162   1.000000
     80          0.650164   1.000000
     81          0.688612   1.000000
     82          0.688613   1.000000
     83          0.752056   1.000000
     84          0.752056   1.000000
     85          0.922348   1.000000
     86          0.922349   1.000000
     87          1.058080   1.000000
     88          1.058081   1.000000
     89          1.155375   1.000000
     90          1.155376   1.000000
     91          1.306786   1.000000
     92          1.306787   1.000000
     93          1.421517   1.000000
     94          1.421518   1.000000
     95          1.597692   1.000000
     96          1.597693   1.000000
     97          1.630992   1.000000
     98          1.630993   1.000000
     99          1.735077   1.000000
    100          1.735078   1.000000
    101          2.069607   1.000000
    102          2.069608   1.000000
    103          2.411984   1.000000
    104          2.411984   1.000000
    105          2.590841   1.000000
    106          2.590842   1.000000
    107          2.861439   1.000000
    108          2.861439   1.000000
    109          5.281503   0.000000
    110          5.281503   0.000000
    111          5.570288   0.000000
    112          5.570289   0.000000
    113          6.623005   0.000000
    114          6.623006   0.000000
    115          6.815356   0.000000
    116          6.815356   0.000000
    117          7.679421   0.000000
    118          7.679421   0.000000
    119          7.881745   0.000000
    120          7.881745   0.000000
    121          8.244355   0.000000
    122          8.244355   0.000000
    123          8.454272   0.000000
    124          8.454273   0.000000
    125          8.964253   0.000000
    126          8.964253   0.000000
    127          9.079925   0.000000
    128          9.079925   0.000000
    129          9.466878   0.000000
    130          9.466878   0.000000
    131          9.801058   0.000000
    132          9.801058   0.000000
    133         10.014695   0.000000
    134         10.014695   0.000000
    135         10.315469   0.000000
    136         10.315469   0.000000
    137         10.523002   0.000000
    138         10.523009   0.000000
    139         10.617919   0.000000
    140         10.618034   0.000000
    141         10.977539   0.000000

  0.4285714E+00  0.5000000E+00  0.2857143E+00  0.1020408E-01
      1        -25.455330   1.000000
      2        -25.455325   1.000000
      3        -25.452166   1.000000
      4        -25.452160   1.000000
      5        -25.441185   1.000000
      6        -25.441179   1.000000
      7        -25.440856   1.000000
      8        -25.440850   1.000000
      9        -25.411999   1.000000
     10        -25.411994   1.000000
     11        -25.411786   1.000000
     12        -25.411781   1.000000
     13        -25.389371   1.000000
     14        -25.389366   1.000000
     15        -25.388991   1.000000
     16        -25.388985   1.000000
     17        -25.384079   1.000000
     18        -25.384074   1.000000
     19        -25.383649   1.000000
     20        -25.383643   1.000000
     21        -12.452515   1.000000
     22        -12.452515   1.000000
     23        -11.898384   1.000000
     24        -11.898384   1.000000
     25        -11.402444   1.000000
     26        -11.402443   1.000000
     27        -11.191171   1.000000
     28        -11.191170   1.000000
     29        -11.043621   1.000000
     30        -11.043620   1.000000
     31        -10.896148   1.000000
     32        -10.896147   1.000000
     33         -6.165177   1.000000
     34         -6.165177   1.000000
     35         -5.459552   1.000000
     36         -5.459552   1.000000
     37         -2.656522   1.000000
     38         -2.656522   1.000000
     39         -2.238389   1.000000
     40         -2.238389   1.000000
     41         -2.089643   1.000000
     42         -2.089643   1.000000
     43         -1.880800   1.000000
     44         -1.880800   1.000000
     45         -1.622971   1.000000
     46         -1.622971   1.000000
     47         -1.270778   1.000000
     48         -1.270778   1.000000
     49         -1.187124   1.000000
     50         -1.187124   1.000000
     51         -1.037335   1.000000
     52         -1.037334   1.000000
     53         -0.886485   1.000000
     54         -0.886485   1.000000
     55         -0.740863   1.000000
     56         -0.740862   1.000000
     57         -0.699525   1.000000
     58         -0.699525   1.000000
     59         -0.572450   1.000000
     60         -0.572449   1.000000
     61         -0.526387   1.000000
     62         -0.526386   1.000000
     63         -0.495153   1.000000
     64         -0.495152   1.000000
     65         -0.459099   1.000000
     66         -0.459098   1.000000
     67         -0.395071   1.000000
     68         -0.395071   1.000000
     69          0.474916   1.000000
     70          0.474917   1.000000
     71          0.520773   1.000000
     72          0.520774   1.000000
     73          0.559223   1.000000
     74          0.559224   1.000000
     75          0.610399   1.000000
     76          0.610400   1.000000
     77          0.635121   1.000000
     78          0.635122   1.000000
     79          0.647921   1.000000
     80          0.647921   1.000000
     81          0.670997   1.000000
     82          0.670998   1.000000
     83          0.760404   1.000000
     84          0.760404   1.000000
     85          0.958778   1.000000
     86          0.958779   1.000000
     87          1.122113   1.000000
     88          1.122113   1.000000
     89          1.184406   1.000000
     90          1.184407   1.000000
     91          1.320334   1.000000
     92          1.320335   1.000000
     93          1.390449   1.000000
     94          1.390450   1.000000
     95          1.538335   1.000000
     96          1.538336   1.000000
     97          1.685837   1.000000
     98          1.685838   1.000000
     99          1.803617   1.000000
    100          1.803618   1.000000
    101          2.133291   1.000000
    102          2.133292   1.000000
    103          2.269719   1.000000
    104          2.269719   1.000000
    105          2.629601   1.000000
    106          2.629602   1.000000
    107          2.978648   1.000000
    108          2.978649   1.000000
    109          5.152891   0.000000
    110          5.152891   0.000000
    111          5.478130   0.000000
    112          5.478130   0.000000
    113          6.317947   0.000000
    114          6.317947   0.000000
    115          6.873600   0.000000
    116          6.873601   0.000000
    117          7.458783   0.000000
    118          7.458783   0.000000
    119          7.724853   0.000000
    120          7.724854   0.000000
    121          8.065519   0.000000
    122          8.065520   0.000000
    123          8.337667   0.000000
    124          8.337667   0.000000
    125          8.857830   0.000000
    126          8.857830   0.000000
    127          9.042324   0.000000
    128          9.042324   0.000000
    129          9.496800   0.000000
    130          9.496800   0.000000
    131          9.723126   0.000000
    132          9.723126   0.000000
    133          9.873126   0.000000
    134          9.873126   0.000000
    135         10.196992   0.000000
    136         10.196992   0.000000
    137         10.345311   0.000000
    138         10.345312   0.000000
    139         10.608792   0.000000
    140         10.608881   0.000000
    141         10.897138   0.000000

 -0.4285714E+00  0.5000000E+00  0.2857143E+00  0.1020408E-01
      1        -25.455340   1.000000
      2        -25.455334   1.000000
      3        -25.452171   1.000000
      4        -25.452166   1.000000
      5        -25.441189   1.000000
      6        -25.441184   1.000000
      7        -25.440866   1.000000
      8        -25.440860   1.000000
      9        -25.412015   1.000000
     10        -25.412010   1.000000
     11        -25.411789   1.000000
     12        -25.411784   1.000000
     13        -25.389379   1.000000
     14        -25.389373   1.000000
     15        -25.388995   1.000000
     16        -25.388990   1.000000
     17        -25.384082   1.000000
     18        -25.384077   1.000000
     19        -25.383655   1.000000
     20        -25.383649   1.000000
     21        -12.493975   1.000000
     22        -12.493974   1.000000
     23        -11.863102   1.000000
     24        -11.863102   1.000000
     25        -11.371301   1.000000
     26        -11.371301   1.000000
     27        -11.176186   1.000000
     28        -11.176186   1.000000
     29        -11.062168   1.000000
     30        -11.062168   1.000000
     31        -10.897754   1.000000
     32        -10.897753   1.000000
     33         -6.175932   1.000000
     34         -6.175931   1.000000
     35         -5.525136   1.000000
     36         -5.525136   1.000000
     37         -2.753370   1.000000
     38         -2.753370   1.000000
     39         -2.321195   1.000000
     40         -2.321194   1.000000
     41         -2.189600   1.000000
     42         -2.189600   1.000000
     43         -1.748703   1.000000
     44         -1.748702   1.000000
     45         -1.502057   1.000000
     46         -1.502057   1.000000
     47         -1.327092   1.000000
     48         -1.327092   1.000000
     49         -1.141730   1.000000
     50         -1.141729   1.000000
     51         -1.022737   1.000000
     52         -1.022737   1.000000
     53         -0.822797   1.000000
     54         -0.822796   1.000000
     55         -0.699060   1.000000
     56         -0.699059   1.000000
     57         -0.688099   1.000000
     58         -0.688098   1.000000
     59         -0.571546   1.000000
     60         -0.571545   1.000000
     61         -0.545879   1.000000
     62         -0.545877   1.000000
     63         -0.512814   1.000000
     64         -0.512813   1.000000
     65         -0.436847   1.000000
     66         -0.436846   1.000000
     67         -0.386917   1.000000
     68         -0.386916   1.000000
     69          0.436324   1.000000
     70          0.436325   1.000000
     71          0.505543   1.000000
     72          0.505544   1.000000
     73          0.590480   1.000000
     74          0.590482   1.000000
     75          0.599730   1.000000
     76          0.599732   1.000000
     77          0.619817   1.000000
     78          0.619817   1.000000
     79          0.655227   1.000000
     80          0.655227   1.000000
     81          0.691896   1.000000
     82          0.691897   1.000000
     83          0.726347   1.000000
     84          0.726347   1.000000
     85          0.979400   1.000000
     86          0.979401   1.000000
     87          1.042027   1.000000
     88          1.042028   1.000000
     89          1.298049   1.000000
     90          1.298050   1.000000
     91          1.343720   1.000000
     92          1.343722   1.000000
     93          1.416478   1.000000
     94          1.416478   1.000000
     95          1.568072   1.000000
     96          1.568072   1.000000
     97          1.727394   1.000000
     98          1.727395   1.000000
     99          1.824305   1.000000
    100          1.824306   1.000000
    101          2.178748   1.000000
    102          2.178749   1.000000
    103          2.374189   1.000000
    104          2.374189   1.000000
    105          2.733535   1.000000
    106          2.733536   1.000000
    107          3.053759   1.000000
    108          3.053760   1.000000
    109          4.953950   0.000000
    110          4.953950   0.000000
    111          5.346518   0.000000
    112          5.346519   0.000000
    113          6.284310   0.000000
    114          6.284310   0.000000
    115          6.798381   0.000000
    116          6.798382   0.000000
    117          7.183156   0.000000
    118          7.183157   0.000000
    119          7.523928   0.000000
    120          7.523928   0.000000
    121          7.853287   0.000000
    122          7.853287   0.000000
    123          8.218582   0.000000
    124          8.218582   0.000000
    125          8.713794   0.000000
    126          8.713795   0.000000
    127          9.028109   0.000000
    128          9.028109   0.000000
    129          9.419218   0.000000
    130          9.419219   0.000000
    131          9.729374   0.000000
    132          9.729375   0.000000
    133         10.023045   0.000000
    134         10.023045   0.000000
    135         10.187943   0.000000
    136         10.187944   0.000000
    137         10.342577   0.000000
    138         10.342579   0.000000
    139         10.666077   0.000000
    140         10.667142   0.000000
    141         10.812465   0.000000

 -0.2857143E+00  0.5000000E+00  0.2857143E+00  0.1020408E-01
      1        -25.455346   1.000000
      2        -25.455341   1.000000
      3        -25.452176   1.000000
      4        -25.452170   1.000000
      5        -25.441193   1.000000
      6        -25.441187   1.000000
      7        -25.440873   1.000000
      8        -25.440868   1.000000
      9        -25.412024   1.000000
     10        -25.412019   1.000000
     11        -25.411788   1.000000
     12        -25.411782   1.000000
     13        -25.389386   1.000000
     14        -25.389381   1.000000
     15        -25.389002   1.000000
     16        -25.388996   1.000000
     17        -25.384090   1.000000
     18        -25.384085   1.000000
     19        -25.383662   1.000000
     20        -25.383657   1.000000
     21        -12.556325   1.000000
     22        -12.556325   1.000000
     23        -11.847194   1.000000
     24        -11.847194   1.000000
     25        -11.373521   1.000000
     26        -11.373521   1.000000
     27        -11.138111   1.000000
     28        -11.138111   1.000000
     29        -11.026371   1.000000
     30        -11.026371   1.000000
     31        -10.872890   1.000000
     32        -10.872889   1.000000
     33         -6.190498   1.000000
     34         -6.190498   1.000000
     35         -5.602187   1.000000
     36         -5.602187   1.000000
     37         -2.780574   1.000000
     38         -2.780574   1.000000
     39         -2.457445   1.000000
     40         -2.457444   1.000000
     41         -2.176379   1.000000
     42         -2.176379   1.000000
     43         -1.736693   1.000000
     44         -1.736693   1.000000
     45         -1.439742   1.000000
     46         -1.439742   1.000000
     47         -1.326272   1.000000
     48         -1.326271   1.000000
     49         -1.124108   1.000000
     50         -1.124108   1.000000
     51         -1.086777   1.000000
     52         -1.086776   1.000000
     53         -0.805230   1.000000
     54         -0.805229   1.000000
     55         -0.727626   1.000000
     56         -0.727625   1.000000
     57         -0.629510   1.000000
     58         -0.629510   1.000000
     59         -0.590550   1.000000
     60         -0.590550   1.000000
     61         -0.574828   1.000000
     62         -0.574827   1.000000
     63         -0.508548   1.000000
     64         -0.508548   1.000000
     65         -0.411937   1.000000
     66         -0.411936   1.000000
     67         -0.383641   1.000000
     68         -0.383640   1.000000
     69          0.443805   1.000000
     70          0.443806   1.000000
     71          0.515750   1.000000
     72          0.515751   1.000000
     73          0.593983   1.000000
     74          0.593985   1.000000
     75          0.605066   1.000000
     76          0.605067   1.000000
     77          0.616879   1.000000
     78          0.616880   1.000000
     79          0.650352   1.000000
     80          0.650353   1.000000
     81          0.660081   1.000000
     82          0.660082   1.000000
     83          0.746532   1.000000
     84          0.746533   1.000000
     85          0.945395   1.000000
     86          0.945396   1.000000
     87          1.119800   1.000000
     88          1.119801   1.000000
     89          1.218796   1.000000
     90          1.218798   1.000000
     91          1.341433   1.000000
     92          1.341434   1.000000
     93          1.429839   1.000000
     94          1.429839   1.000000
     95          1.621170   1.000000
     96          1.621170   1.000000
     97          1.761414   1.000000
     98          1.761414   1.000000
     99          1.872792   1.000000
    100          1.872792   1.000000
    101          2.190178   1.000000
    102          2.190178   1.000000
    103          2.453818   1.000000
    104          2.453818   1.000000
    105          2.958907   1.000000
    106          2.958909   1.000000
    107          3.025629   1.000000
    108          3.025630   1.000000
    109          4.829199   0.000000
    110          4.829200   0.000000
    111          5.271295   0.000000
    112          5.271295   0.000000
    113          6.481196   0.000000
    114          6.481197   0.000000
    115          6.728507   0.000000
    116          6.728507   0.000000
    117          6.995849   0.000000
    118          6.995849   0.000000
    119          7.450531   0.000000
    120          7.450531   0.000000
    121          7.824190   0.000000
    122          7.824190   0.000000
    123          8.246940   0.000000
    124          8.246940   0.000000
    125          8.686205   0.000000
    126          8.686206   0.000000
    127          9.077921   0.000000
    128          9.077922   0.000000
    129          9.378120   0.000000
    130          9.378120   0.000000
    131          9.658776   0.000000
    132          9.658776   0.000000
    133          9.882385   0.000000
    134          9.882385   0.000000
    135         10.207895   0.000000
    136         10.207895   0.000000
    137         10.416334   0.000000
    138         10.416334   0.000000
    139         10.709311   0.000000
    140         10.709315   0.000000
    141         11.063056   0.000000

 -0.1428571E+00  0.5000000E+00  0.2857143E+00  0.1020408E-01
      1        -25.455337   1.000000
      2        -25.455331   1.000000
      3        -25.452176   1.000000
      4        -25.452170   1.000000
      5        -25.441187   1.000000
      6        -25.441182   1.000000
      7        -25.440866   1.000000
      8        -25.440860   1.000000
      9        -25.412016   1.000000
     10        -25.412011   1.000000
     11        -25.411775   1.000000
     12        -25.411770   1.000000
     13        -25.389381   1.000000
     14        -25.389375   1.000000
     15        -25.388995   1.000000
     16        -25.388989   1.000000
     17        -25.384084   1.000000
     18        -25.384078   1.000000
     19        -25.383659   1.000000
     20        -25.383653   1.000000
     21        -12.593496   1.000000
     22        -12.593495   1.000000
     23        -11.863950   1.000000
     24        -11.863950   1.000000
     25        -11.391729   1.000000
     26        -11.391729   1.000000
     27        -11.119498   1.000000
     28        -11.119498   1.000000
     29        -10.955472   1.000000
     30        -10.955472   1.000000
     31        -10.847185   1.000000
     32        -10.847185   1.000000
     33         -6.198503   1.000000
     34         -6.198502   1.000000
     35         -5.636440   1.000000
     36         -5.636440   1.000000
     37         -2.733266   1.000000
     38         -2.733266   1.000000
     39         -2.501787   1.000000
     40         -2.501786   1.000000
     41         -2.111009   1.000000
     42         -2.111009   1.000000
     43         -1.834190   1.000000
     44         -1.834190   1.000000
     45         -1.497717   1.000000
     46         -1.497716   1.000000
     47         -1.344903   1.000000
     48         -1.344903   1.000000
     49         -1.121405   1.000000
     50         -1.121405   1.000000
     51         -1.028921   1.000000
     52         -1.028921   1.000000
     53         -0.874649   1.000000
     54         -0.874649   1.000000
     55         -0.819802   1.000000
     56         -0.819801   1.000000
     57         -0.610373   1.000000
     58         -0.610373   1.000000
     59         -0.582555   1.000000
     60         -0.582554   1.000000
     61         -0.567663   1.000000
     62         -0.567663   1.000000
     63         -0.510450   1.000000
     64         -0.510449   1.000000
     65         -0.410263   1.000000
     66         -0.410262   1.000000
     67         -0.382810   1.000000
     68         -0.382810   1.000000
     69          0.475921   1.000000
     70          0.475922   1.000000
     71          0.526888   1.000000
     72          0.526888   1.000000
     73          0.580652   1.000000
     74          0.580653   1.000000
     75          0.594592   1.000000
     76          0.594593   1.000000
     77          0.623888   1.000000
     78          0.623889   1.000000
     79          0.643274   1.000000
     80          0.643275   1.000000
     81          0.668209   1.000000
     82          0.668209   1.000000
     83          0.774998   1.000000
     84          0.774999   1.000000
     85          0.932023   1.000000
     86          0.932024   1.000000
     87          1.032125   1.000000
     88          1.032126   1.000000
     89          1.176706   1.000000
     90          1.176707   1.000000
     91          1.259503   1.000000
     92          1.259504   1.000000
     93          1.545589   1.000000
     94          1.545589   1.000000
     95          1.638790   1.000000
     96          1.638791   1.000000
     97          1.771038   1.000000
     98          1.771039   1.000000
     99          1.933164   1.000000
    100          1.933164   1.000000
    101          2.119658   1.000000
    102          2.119658   1.000000
    103          2.453815   1.000000
    104          2.453815   1.000000
    105          2.871230   1.000000
    106          2.871231   1.000000
    107          3.109057   1.000000
    108          3.109058   1.000000
    109          4.915114   0.000000
    110          4.915114   0.000000
    111          5.364602   0.000000
    112          5.364602   0.000000
    113          6.573687   0.000000
    114          6.573687   0.000000
    115          6.917178   0.000000
    116          6.917178   0.000000
    117          7.059274   0.000000
    118          7.059274   0.000000
    119          7.557082   0.000000
    120          7.557082   0.000000
    121          7.906373   0.000000
    122          7.906374   0.000000
    123          8.478566   0.000000
    124          8.478566   0.000000
    125          8.853150   0.000000
    126          8.853151   0.000000
    127          9.033021   0.000000
    128          9.033022   0.000000
    129          9.320895   0.000000
    130          9.320896   0.000000
    131          9.669271   0.000000
    132          9.669271   0.000000
    133          9.805349   0.000000
    134          9.805350   0.000000
    135         10.073643   0.000000
    136         10.073643   0.000000
    137         10.333758   0.000000
    138         10.333758   0.000000
    139         10.882313   0.000000
    140         10.882332   0.000000
    141         11.167196   0.000000

  0.1262379E-14  0.1262379E-14  0.4285714E+00  0.1020408E-01
      1        -25.454411   1.000000
      2        -25.454380   1.000000
      3        -25.453289   1.000000
      4        -25.453260   1.000000
      5        -25.441010   1.000000
      6        -25.440999   1.000000
      7        -25.440882   1.000000
      8        -25.440876   1.000000
      9        -25.411942   1.000000
     10        -25.411937   1.000000
     11        -25.411860   1.000000
     12        -25.411849   1.000000
     13        -25.389246   1.000000
     14        -25.389238   1.000000
     15        -25.389104   1.000000
     16        -25.389096   1.000000
     17        -25.383958   1.000000
     18        -25.383949   1.000000
     19        -25.383811   1.000000
     20        -25.383795   1.000000
     21        -12.478995   1.000000
     22        -12.270082   1.000000
     23        -12.218689   1.000000
     24        -12.066226   1.000000
     25        -11.409821   1.000000
     26        -11.288537   1.000000
     27        -11.190782   1.000000
     28        -11.163885   1.000000
     29        -10.983256   1.000000
     30        -10.919206   1.000000
     31        -10.829267   1.000000
     32        -10.828113   1.000000
     33         -6.012605   1.000000
     34         -5.886246   1.000000
     35         -5.828854   1.000000
     36         -5.648722   1.000000
     37         -2.568871   1.000000
     38         -2.411446   1.000000
     39         -2.403786   1.000000
     40         -2.269396   1.000000
     41         -2.181089   1.000000
     42         -1.893471   1.000000
     43         -1.860454   1.000000
     44         -1.799419   1.000000
     45         -1.739276   1.000000
     46         -1.596482   1.000000
     47         -1.572232   1.000000
     48         -1.440034   1.000000
     49         -1.393917   1.000000
     50         -1.359104   1.000000
     51         -1.096648   1.000000
     52         -1.065301   1.000000
     53         -1.014200   1.000000
     54         -0.911250   1.000000
     55         -0.820147   1.000000
     56         -0.743891   1.000000
     57         -0.626965   1.000000
     58         -0.616148   1.000000
     59         -0.600699   1.000000
     60         -0.583529   1.000000
     61         -0.529112   1.000000
     62         -0.511771   1.000000
     63         -0.494555   1.000000
     64         -0.489007   1.000000
     65         -0.449011   1.000000
     66         -0.440933   1.000000
     67         -0.417853   1.000000
     68         -0.382042   1.000000
     69          0.506545   1.000000
     70          0.527972   1.000000
     71          0.540539   1.000000
     72          0.562591   1.000000
     73          0.567726   1.000000
     74          0.586186   1.000000
     75          0.588056   1.000000
     76          0.591745   1.000000
     77          0.641123   1.000000
     78          0.654742   1.000000
     79          0.655317   1.000000
     80          0.667415   1.000000
     81          0.677932   1.000000
     82          0.693642   1.000000
     83          0.703720   1.000000
     84          0.746168   1.000000
     85          0.875197   1.000000
     86          0.882923   1.000000
     87          0.974455   1.000000
     88          1.018765   1.000000
     89          1.045165   1.000000
     90          1.051383   1.000000
     91          1.256498   1.000000
     92          1.276503   1.000000
     93          1.466767   1.000000
     94          1.558450   1.000000
     95          1.588801   1.000000
     96          1.722538   1.000000
     97          1.753285   1.000000
     98          1.921275   1.000000
     99          1.936116   1.000000
    100          1.985282   1.000000
    101          2.098691   1.000000
    102          2.108402   1.000000
    103          2.284829   1.000000
    104          2.410097   1.000000
    105          2.718345   1.000000
    106          2.742063   1.000000
    107          2.956740   1.000000
    108          2.961785   1.000000
    109          5.027649   0.000000
    110          5.067069   0.000000
    111          5.373112   0.000000
    112          5.525005   0.000000
    113          6.531202   0.000000
    114          6.557063   0.000000
    115          6.822914   0.000000
    116          6.876265   0.000000
    117          7.193065   0.000000
    118          7.463578   0.000000
    119          7.930400   0.000000
    120          7.997258   0.000000
    121          8.260886   0.000000
    122          8.262872   0.000000
    123          8.508656   0.000000
    124          8.621992   0.000000
    125          9.094930   0.000000
    126          9.232437   0.000000
    127          9.335183   0.000000
    128          9.361872   0.000000
    129          9.560447   0.000000
    130          9.587524   0.000000
    131          9.650068   0.000000
    132          9.659543   0.000000
    133          9.967505   0.000000
    134          9.972041   0.000000
    135         10.031447   0.000000
    136         10.194307   0.000000
    137         10.524402   0.000000
    138         10.556513   0.000000
    139         10.574588   0.000000
    140         10.815464   0.000000
    141         11.044548   0.000000

  0.1428571E+00  0.1262379E-14  0.4285714E+00  0.1020408E-01
      1        -25.454402   1.000000
      2        -25.454382   1.000000
      3        -25.453286   1.000000
      4        -25.453257   1.000000
      5        -25.441007   1.000000
      6        -25.440993   1.000000
      7        -25.440877   1.000000
      8        -25.440871   1.000000
      9        -25.411931   1.000000
     10        -25.411924   1.000000
     11        -25.411860   1.000000
     12        -25.411854   1.000000
     13        -25.389244   1.000000
     14        -25.389238   1.000000
     15        -25.389103   1.000000
     16        -25.389093   1.000000
     17        -25.383961   1.000000
     18        -25.383948   1.000000
     19        -25.383804   1.000000
     20        -25.383795   1.000000
     21        -12.407839   1.000000
     22        -12.254327   1.000000
     23        -12.248411   1.000000
     24        -12.075415   1.000000
     25        -11.352405   1.000000
     26        -11.326141   1.000000
     27        -11.231931   1.000000
     28        -11.161950   1.000000
     29        -11.053751   1.000000
     30        -10.894444   1.000000
     31        -10.877268   1.000000
     32        -10.808863   1.000000
     33         -6.019657   1.000000
     34         -5.909468   1.000000
     35         -5.781257   1.000000
     36         -5.595371   1.000000
     37         -2.462587   1.000000
     38         -2.448591   1.000000
     39         -2.353964   1.000000
     40         -2.305904   1.000000
     41         -2.114648   1.000000
     42         -1.959363   1.000000
     43         -1.912548   1.000000
     44         -1.908759   1.000000
     45         -1.733264   1.000000
     46         -1.613393   1.000000
     47         -1.604940   1.000000
     48         -1.446041   1.000000
     49         -1.349763   1.000000
     50         -1.160382   1.000000
     51         -1.128437   1.000000
     52         -1.012107   1.000000
     53         -0.968475   1.000000
     54         -0.959699   1.000000
     55         -0.856572   1.000000
     56         -0.686393   1.000000
     57         -0.653798   1.000000
     58         -0.614101   1.000000
     59         -0.597818   1.000000
     60         -0.587537   1.000000
     61         -0.545158   1.000000
     62         -0.526504   1.000000
     63         -0.480664   1.000000
     64         -0.476379   1.000000
     65         -0.454998   1.000000
     66         -0.429459   1.000000
     67         -0.424221   1.000000
     68         -0.391134   1.000000
     69          0.504604   1.000000
     70          0.532293   1.000000
     71          0.551052   1.000000
     72          0.565850   1.000000
     73          0.575398   1.000000
     74          0.584293   1.000000
     75          0.591476   1.000000
     76          0.613116   1.000000
     77          0.627391   1.000000
     78          0.646831   1.000000
     79          0.661299   1.000000
     80          0.665108   1.000000
     81          0.665440   1.000000
     82          0.678521   1.000000
     83          0.694376   1.000000
     84          0.797393   1.000000
     85          0.845688   1.000000
     86          0.932732   1.000000
     87          0.985027   1.000000
     88          0.988136   1.000000
     89          1.003945   1.000000
     90          1.093349   1.000000
     91          1.309643   1.000000
     92          1.311742   1.000000
     93          1.503916   1.000000
     94          1.532571   1.000000
     95          1.563099   1.000000
     96          1.663718   1.000000
     97          1.742856   1.000000
     98          1.803199   1.000000
     99          1.889158   1.000000
    100          2.087023   1.000000
    101          2.097374   1.000000
    102          2.169255   1.000000
    103          2.319129   1.000000
    104          2.508482   1.000000
    105          2.596997   1.000000
    106          2.652648   1.000000
    107          2.686242   1.000000
    108          3.006279   1.000000
    109          5.126162   0.000000
    110          5.266526   0.000000
    111          5.339719   0.000000
    112          5.382220   0.000000
    113          6.544503   0.000000
    114          6.620579   0.000000
    115          6.704967   0.000000
    116          6.759533   0.000000
    117          7.249168   0.000000
    118          7.417357   0.000000
    119          7.819080   0.000000
    120          8.018138   0.000000
    121          8.178883   0.000000
    122          8.263615   0.000000
    123          8.481381   0.000000
    124          8.527928   0.000000
    125          8.996094   0.000000
    126          9.086829   0.000000
    127          9.099855   0.000000
    128          9.316027   0.000000
    129          9.560304   0.000000
    130          9.640084   0.000000
    131          9.741577   0.000000
    132          9.808994   0.000000
    133         10.115528   0.000000
    134         10.149316   0.000000
    135         10.271909   0.000000
    136         10.417327   0.000000
    137         10.461855   0.000000
    138         10.537749   0.000000
    139         10.605409   0.000000
    140         10.802770   0.000000
    141         11.101819   0.000000

  0.2857143E+00  0.1262379E-14  0.4285714E+00  0.1020408E-01
      1        -25.454407   1.000000
      2        -25.454400   1.000000
      3        -25.453287   1.000000
      4        -25.453264   1.000000
      5        -25.441007   1.000000
      6        -25.440996   1.000000
      7        -25.440881   1.000000
      8        -25.440871   1.000000
      9        -25.411933   1.000000
     10        -25.411923   1.000000
     11        -25.411868   1.000000
     12        -25.411860   1.000000
     13        -25.389243   1.000000
     14        -25.389237   1.000000
     15        -25.389106   1.000000
     16        -25.389094   1.000000
     17        -25.383965   1.000000
     18        -25.383949   1.000000
     19        -25.383807   1.000000
     20        -25.383797   1.000000
     21        -12.320375   1.000000
     22        -12.255108   1.000000
     23        -12.243052   1.000000
     24        -12.069475   1.000000
     25        -11.312079   1.000000
     26        -11.294618   1.000000
     27        -11.267229   1.000000
     28        -11.184054   1.000000
     29        -11.122948   1.000000
     30        -10.941016   1.000000
     31        -10.930148   1.000000
     32        -10.822947   1.000000
     33         -6.013811   1.000000
     34         -5.927552   1.000000
     35         -5.741612   1.000000
     36         -5.594824   1.000000
     37         -2.498576   1.000000
     38         -2.451879   1.000000
     39         -2.422416   1.000000
     40         -2.348716   1.000000
     41         -2.066662   1.000000
     42         -2.050800   1.000000
     43         -2.005364   1.000000
     44         -1.952904   1.000000
     45         -1.738420   1.000000
     46         -1.514027   1.000000
     47         -1.502827   1.000000
     48         -1.356505   1.000000
     49         -1.196319   1.000000
     50         -1.156362   1.000000
     51         -1.092514   1.000000
     52         -0.963035   1.000000
     53         -0.897881   1.000000
     54         -0.861931   1.000000
     55         -0.747022   1.000000
     56         -0.745753   1.000000
     57         -0.632719   1.000000
     58         -0.610840   1.000000
     59         -0.592454   1.000000
     60         -0.574550   1.000000
     61         -0.570837   1.000000
     62         -0.565071   1.000000
     63         -0.498307   1.000000
     64         -0.458448   1.000000
     65         -0.450319   1.000000
     66         -0.447766   1.000000
     67         -0.398345   1.000000
     68         -0.383028   1.000000
     69          0.436405   1.000000
     70          0.521795   1.000000
     71          0.567629   1.000000
     72          0.574921   1.000000
     73          0.578427   1.000000
     74          0.589422   1.000000
     75          0.599306   1.000000
     76          0.610966   1.000000
     77          0.637027   1.000000
     78          0.641955   1.000000
     79          0.643707   1.000000
     80          0.663410   1.000000
     81          0.671004   1.000000
     82          0.701445   1.000000
     83          0.708139   1.000000
     84          0.746875   1.000000
     85          0.887500   1.000000
     86          0.906721   1.000000
     87          0.908760   1.000000
     88          0.982366   1.000000
     89          1.216619   1.000000
     90          1.310956   1.000000
     91          1.319395   1.000000
     92          1.370333   1.000000
     93          1.382101   1.000000
     94          1.511105   1.000000
     95          1.615845   1.000000
     96          1.634653   1.000000
     97          1.695857   1.000000
     98          1.723578   1.000000
     99          1.997999   1.000000
    100          2.113099   1.000000
    101          2.178264   1.000000
    102          2.255986   1.000000
    103          2.303555   1.000000
    104          2.460853   1.000000
    105          2.482849   1.000000
    106          2.497108   1.000000
    107          2.876063   1.000000
    108          2.964389   1.000000
    109          5.030842   0.000000
    110          5.143583   0.000000
    111          5.233480   0.000000
    112          5.401736   0.000000
    113          6.225940   0.000000
    114          6.454109   0.000000
    115          6.679014   0.000000
    116          6.886499   0.000000
    117          7.263790   0.000000
    118          7.264034   0.000000
    119          7.421453   0.000000
    120          7.615575   0.000000
    121          7.850800   0.000000
    122          8.181776   0.000000
    123          8.264393   0.000000
    124          8.504315   0.000000
    125          8.659662   0.000000
    126          8.685004   0.000000
    127          9.068313   0.000000
    128          9.070860   0.000000
    129          9.382790   0.000000
    130          9.537253   0.000000
    131          9.722044   0.000000
    132          9.917441   0.000000
    133          9.990911   0.000000
    134         10.089189   0.000000
    135         10.393669   0.000000
    136         10.410518   0.000000
    137         10.515033   0.000000
    138         10.539514   0.000000
    139         10.964750   0.000000
    140         10.995112   0.000000
    141         11.047710   0.000000

  0.4285714E+00  0.1262379E-14  0.4285714E+00  0.1020408E-01
      1        -25.454411   1.000000
      2        -25.454395   1.000000
      3        -25.453288   1.000000
      4        -25.453272   1.000000
      5        -25.441004   1.000000
      6        -25.440995   1.000000
      7        -25.440885   1.000000
      8        -25.440868   1.000000
      9        -25.411937   1.000000
     10        -25.411932   1.000000
     11        -25.411867   1.000000
     12        -25.411858   1.000000
     13        -25.389243   1.000000
     14        -25.389231   1.000000
     15        -25.389103   1.000000
     16        -25.389097   1.000000
     17        -25.383960   1.000000
     18        -25.383947   1.000000
     19        -25.383800   1.000000
     20        -25.383793   1.000000
     21        -12.313210   1.000000
     22        -12.263066   1.000000
     23        -12.191898   1.000000
     24        -12.050406   1.000000
     25        -11.294346   1.000000
     26        -11.249965   1.000000
     27        -11.245597   1.000000
     28        -11.214973   1.000000
     29        -11.137322   1.000000
     30        -11.006148   1.000000
     31        -10.966323   1.000000
     32        -10.872616   1.000000
     33         -5.982359   1.000000
     34         -5.946038   1.000000
     35         -5.717848   1.000000
     36         -5.665103   1.000000
     37         -2.596388   1.000000
     38         -2.572726   1.000000
     39         -2.491979   1.000000
     40         -2.462507   1.000000
     41         -2.100084   1.000000
     42         -2.088719   1.000000
     43         -1.834895   1.000000
     44         -1.731062   1.000000
     45         -1.726993   1.000000
     46         -1.492484   1.000000
     47         -1.383223   1.000000
     48         -1.297839   1.000000
     49         -1.191428   1.000000
     50         -1.105969   1.000000
     51         -1.059879   1.000000
     52         -1.043586   1.000000
     53         -0.780953   1.000000
     54         -0.749149   1.000000
     55         -0.724944   1.000000
     56         -0.691961   1.000000
     57         -0.628891   1.000000
     58         -0.628250   1.000000
     59         -0.608296   1.000000
     60         -0.602672   1.000000
     61         -0.553596   1.000000
     62         -0.543610   1.000000
     63         -0.543369   1.000000
     64         -0.481894   1.000000
     65         -0.462262   1.000000
     66         -0.433740   1.000000
     67         -0.381734   1.000000
     68         -0.366933   1.000000
     69          0.393679   1.000000
     70          0.459714   1.000000
     71          0.551150   1.000000
     72          0.585667   1.000000
     73          0.588009   1.000000
     74          0.602082   1.000000
     75          0.606791   1.000000
     76          0.619036   1.000000
     77          0.633566   1.000000
     78          0.641672   1.000000
     79          0.644659   1.000000
     80          0.668859   1.000000
     81          0.678362   1.000000
     82          0.691328   1.000000
     83          0.720700   1.000000
     84          0.734454   1.000000
     85          0.876910   1.000000
     86          0.911690   1.000000
     87          0.912880   1.000000
     88          0.998567   1.000000
     89          1.125321   1.000000
     90          1.179299   1.000000
     91          1.325388   1.000000
     92          1.407707   1.000000
     93          1.475221   1.000000
     94          1.599454   1.000000
     95          1.685231   1.000000
     96          1.710054   1.000000
     97          1.821309   1.000000
     98          1.834587   1.000000
     99          2.128602   1.000000
    100          2.145650   1.000000
    101          2.149596   1.000000
    102          2.187260   1.000000
    103          2.413407   1.000000
    104          2.449196   1.000000
    105          2.499148   1.000000
    106          2.637902   1.000000
    107          2.912019   1.000000
    108          2.930269   1.000000
    109          4.896595   0.000000
    110          4.897004   0.000000
    111          5.132570   0.000000
    112          5.244970   0.000000
    113          6.151758   0.000000
    114          6.366238   0.000000
    115          6.391076   0.000000
    116          6.739036   0.000000
    117          7.141538   0.000000
    118          7.148971   0.000000
    119          7.166919   0.000000
    120          7.290283   0.000000
    121          7.724899   0.000000
    122          7.977671   0.000000
    123          8.155373   0.000000
    124          8.354200   0.000000
    125          8.485521   0.000000
    126          8.680446   0.000000
    127          8.721300   0.000000
    128          8.860176   0.000000
    129          9.259373   0.000000
    130          9.472534   0.000000
    131          9.563503   0.000000
    132          9.856904   0.000000
    133          9.986060   0.000000
    134         10.273521   0.000000
    135         10.362141   0.000000
    136         10.448567   0.000000
    137         10.574065   0.000000
    138         11.028733   0.000000
    139         11.069171   0.000000
    140         11.178901   0.000000
    141         11.277709   0.000000

 -0.4285714E+00  0.1262379E-14  0.4285714E+00  0.1020408E-01
      1        -25.454420   1.000000
      2        -25.454391   1.000000
      3        -25.453292   1.000000
      4        -25.453272   1.000000
      5        -25.441003   1.000000
      6        -25.440997   1.000000
      7        -25.440886   1.000000
      8        -25.440868   1.000000
      9        -25.411944   1.000000
     10        -25.411938   1.000000
     11        -25.411863   1.000000
     12        -25.411847   1.000000
     13        -25.389237   1.000000
     14        -25.389231   1.000000
     15        -25.389101   1.000000
     16        -25.389091   1.000000
     17        -25.383962   1.000000
     18        -25.383939   1.000000
     19        -25.383804   1.000000
     20        -25.383792   1.000000
     21        -12.400467   1.000000
     22        -12.258071   1.000000
     23        -12.124810   1.000000
     24        -12.041856   1.000000
     25        -11.316951   1.000000
     26        -11.251905   1.000000
     27        -11.221505   1.000000
     28        -11.191893   1.000000
     29        -11.066322   1.000000
     30        -11.054042   1.000000
     31        -10.944329   1.000000
     32        -10.916589   1.000000
     33         -5.968843   1.000000
     34         -5.930847   1.000000
     35         -5.766324   1.000000
     36         -5.711213   1.000000
     37         -2.679435   1.000000
     38         -2.562990   1.000000
     39         -2.523383   1.000000
     40         -2.521280   1.000000
     41         -2.162788   1.000000
     42         -2.114515   1.000000
     43         -1.860929   1.000000
     44         -1.536412   1.000000
     45         -1.534529   1.000000
     46         -1.483772   1.000000
     47         -1.433603   1.000000
     48         -1.344271   1.000000
     49         -1.166051   1.000000
     50         -1.148838   1.000000
     51         -1.069912   1.000000
     52         -1.060664   1.000000
     53         -0.763807   1.000000
     54         -0.730569   1.000000
     55         -0.688265   1.000000
     56         -0.686642   1.000000
     57         -0.631168   1.000000
     58         -0.630422   1.000000
     59         -0.617785   1.000000
     60         -0.603030   1.000000
     61         -0.561958   1.000000
     62         -0.560945   1.000000
     63         -0.524362   1.000000
     64         -0.464432   1.000000
     65         -0.461922   1.000000
     66         -0.424408   1.000000
     67         -0.391422   1.000000
     68         -0.357857   1.000000
     69          0.409208   1.000000
     70          0.427384   1.000000
     71          0.537309   1.000000
     72          0.582878   1.000000
     73          0.589344   1.000000
     74          0.599737   1.000000
     75          0.611024   1.000000
     76          0.625528   1.000000
     77          0.626017   1.000000
     78          0.632246   1.000000
     79          0.664241   1.000000
     80          0.672230   1.000000
     81          0.688493   1.000000
     82          0.698384   1.000000
     83          0.720540   1.000000
     84          0.727352   1.000000
     85          0.820712   1.000000
     86          0.942112   1.000000
     87          0.969002   1.000000
     88          0.982604   1.000000
     89          1.063005   1.000000
     90          1.141264   1.000000
     91          1.317908   1.000000
     92          1.354590   1.000000
     93          1.456180   1.000000
     94          1.636604   1.000000
     95          1.820098   1.000000
     96          1.834207   1.000000
     97          1.877191   1.000000
     98          1.895705   1.000000
     99          2.077151   1.000000
    100          2.138033   1.000000
    101          2.226423   1.000000
    102          2.251625   1.000000
    103          2.359591   1.000000
    104          2.532759   1.000000
    105          2.560505   1.000000
    106          2.765820   1.000000
    107          2.782588   1.000000
    108          3.012339   1.000000
    109          4.615158   0.000000
    110          4.986828   0.000000
    111          5.066679   0.000000
    112          5.148921   0.000000
    113          6.150027   0.000000
    114          6.361195   0.000000
    115          6.457136   0.000000
    116          6.562611   0.000000
    117          6.868086   0.000000
    118          7.054786   0.000000
    119          7.145822   0.000000
    120          7.224312   0.000000
    121          7.733004   0.000000
    122          7.922159   0.000000
    123          8.171682   0.000000
    124          8.352939   0.000000
    125          8.445386   0.000000
    126          8.586426   0.000000
    127          8.744806   0.000000
    128          8.841699   0.000000
    129          9.152248   0.000000
    130          9.378145   0.000000
    131          9.639840   0.000000
    132          9.670016   0.000000
    133         10.170706   0.000000
    134         10.228093   0.000000
    135         10.293907   0.000000
    136         10.306006   0.000000
    137         10.762502   0.000000
    138         10.981694   0.000000
    139         11.069644   0.000000
    140         11.156148   0.000000
    141         11.167691   0.000000

 -0.2857143E+00  0.1262379E-14  0.4285714E+00  0.1020408E-01
      1        -25.454429   1.000000
      2        -25.454381   1.000000
      3        -25.453286   1.000000
      4        -25.453277   1.000000
      5        -25.441005   1.000000
      6        -25.440990   1.000000
      7        -25.440886   1.000000
      8        -25.440870   1.000000
      9        -25.411950   1.000000
     10        -25.411943   1.000000
     11        -25.411862   1.000000
     12        -25.411837   1.000000
     13        -25.389243   1.000000
     14        -25.389223   1.000000
     15        -25.389106   1.000000
     16        -25.389097   1.000000
     17        -25.383959   1.000000
     18        -25.383952   1.000000
     19        -25.383813   1.000000
     20        -25.383789   1.000000
     21        -12.474079   1.000000
     22        -12.276976   1.000000
     23        -12.075609   1.000000
     24        -12.074191   1.000000
     25        -11.380602   1.000000
     26        -11.277310   1.000000
     27        -11.168588   1.000000
     28        -11.151797   1.000000
     29        -11.049570   1.000000
     30        -10.985351   1.000000
     31        -10.961910   1.000000
     32        -10.847584   1.000000
     33         -5.989658   1.000000
     34         -5.885328   1.000000
     35         -5.841849   1.000000
     36         -5.713109   1.000000
     37         -2.643871   1.000000
     38         -2.574160   1.000000
     39         -2.531862   1.000000
     40         -2.362792   1.000000
     41         -2.161799   1.000000
     42         -2.073003   1.000000
     43         -2.056160   1.000000
     44         -1.748598   1.000000
     45         -1.499940   1.000000
     46         -1.498656   1.000000
     47         -1.426063   1.000000
     48         -1.306481   1.000000
     49         -1.199859   1.000000
     50         -1.138802   1.000000
     51         -1.120186   1.000000
     52         -1.016614   1.000000
     53         -0.824307   1.000000
     54         -0.768246   1.000000
     55         -0.763594   1.000000
     56         -0.744631   1.000000
     57         -0.626918   1.000000
     58         -0.614810   1.000000
     59         -0.580128   1.000000
     60         -0.579714   1.000000
     61         -0.577511   1.000000
     62         -0.573385   1.000000
     63         -0.511983   1.000000
     64         -0.461044   1.000000
     65         -0.423871   1.000000
     66         -0.417325   1.000000
     67         -0.414057   1.000000
     68         -0.360277   1.000000
     69          0.399283   1.000000
     70          0.500700   1.000000
     71          0.529940   1.000000
     72          0.580898   1.000000
     73          0.591910   1.000000
     74          0.601850   1.000000
     75          0.609632   1.000000
     76          0.614821   1.000000
     77          0.621320   1.000000
     78          0.632267   1.000000
     79          0.652530   1.000000
     80          0.677412   1.000000
     81          0.678518   1.000000
     82          0.695059   1.000000
     83          0.710509   1.000000
     84          0.748303   1.000000
     85          0.834107   1.000000
     86          0.930379   1.000000
     87          0.958658   1.000000
     88          0.974054   1.000000
     89          1.157216   1.000000
     90          1.177441   1.000000
     91          1.350871   1.000000
     92          1.373248   1.000000
     93          1.464073   1.000000
     94          1.570668   1.000000
     95          1.630222   1.000000
     96          1.754773   1.000000
     97          1.841229   1.000000
     98          1.918798   1.000000
     99          1.968912   1.000000
    100          2.179545   1.000000
    101          2.179934   1.000000
    102          2.210285   1.000000
    103          2.543092   1.000000
    104          2.549188   1.000000
    105          2.635942   1.000000
    106          2.637113   1.000000
    107          2.756898   1.000000
    108          3.013558   1.000000
    109          4.673053   0.000000
    110          5.146165   0.000000
    111          5.153524   0.000000
    112          5.230601   0.000000
    113          6.220597   0.000000
    114          6.504138   0.000000
    115          6.623006   0.000000
    116          6.667104   0.000000
    117          6.796645   0.000000
    118          7.190559   0.000000
    119          7.196037   0.000000
    120          7.265070   0.000000
    121          7.782823   0.000000
    122          8.159339   0.000000
    123          8.289914   0.000000
    124          8.412170   0.000000
    125          8.585728   0.000000
    126          8.730036   0.000000
    127          8.825588   0.000000
    128          8.986795   0.000000
    129          9.253079   0.000000
    130          9.482516   0.000000
    131          9.660078   0.000000
    132          9.666645   0.000000
    133          9.744985   0.000000
    134         10.129297   0.000000
    135         10.150988   0.000000
    136         10.263314   0.000000
    137         10.550775   0.000000
    138         10.634142   0.000000
    139         11.143569   0.000000
    140         11.261810   0.000000
    141         11.303803   0.000000

 -0.1428571E+00  0.1262379E-14  0.4285714E+00  0.1020408E-01
      1        -25.454425   1.000000
      2        -25.454380   1.000000
      3        -25.453292   1.000000
      4        -25.453264   1.000000
      5        -25.441006   1.000000
      6        -25.440993   1.000000
      7        -25.440880   1.000000
      8        -25.440873   1.000000
      9        -25.411945   1.000000
     10        -25.411937   1.000000
     11        -25.411860   1.000000
     12        -25.411831   1.000000
     13        -25.389242   1.000000
     14        -25.389234   1.000000
     15        -25.389100   1.000000
     16        -25.389094   1.000000
     17        -25.383955   1.000000
     18        -25.383947   1.000000
     19        -25.383817   1.000000
     20        -25.383791   1.000000
     21        -12.503842   1.000000
     22        -12.284730   1.000000
     23        -12.148059   1.000000
     24        -12.058029   1.000000
     25        -11.418428   1.000000
     26        -11.244860   1.000000
     27        -11.219930   1.000000
     28        -11.135248   1.000000
     29        -10.988842   1.000000
     30        -10.963956   1.000000
     31        -10.879844   1.000000
     32        -10.814387   1.000000
     33         -6.003226   1.000000
     34         -5.870782   1.000000
     35         -5.859847   1.000000
     36         -5.697937   1.000000
     37         -2.609290   1.000000
     38         -2.521697   1.000000
     39         -2.402956   1.000000
     40         -2.306644   1.000000
     41         -2.135271   1.000000
     42         -2.049766   1.000000
     43         -1.926854   1.000000
     44         -1.926732   1.000000
     45         -1.678737   1.000000
     46         -1.529565   1.000000
     47         -1.439724   1.000000
     48         -1.344455   1.000000
     49         -1.319873   1.000000
     50         -1.216046   1.000000
     51         -1.167464   1.000000
     52         -0.995659   1.000000
     53         -0.888415   1.000000
     54         -0.877208   1.000000
     55         -0.835911   1.000000
     56         -0.741805   1.000000
     57         -0.614349   1.000000
     58         -0.597785   1.000000
     59         -0.586906   1.000000
     60         -0.576758   1.000000
     61         -0.559458   1.000000
     62         -0.549588   1.000000
     63         -0.478390   1.000000
     64         -0.465864   1.000000
     65         -0.450732   1.000000
     66         -0.438776   1.000000
     67         -0.432343   1.000000
     68         -0.360278   1.000000
     69          0.445291   1.000000
     70          0.543596   1.000000
     71          0.553155   1.000000
     72          0.554566   1.000000
     73          0.580689   1.000000
     74          0.586416   1.000000
     75          0.592785   1.000000
     76          0.609782   1.000000
     77          0.615968   1.000000
     78          0.636651   1.000000
     79          0.645837   1.000000
     80          0.675059   1.000000
     81          0.683315   1.000000
     82          0.692069   1.000000
     83          0.707439   1.000000
     84          0.714910   1.000000
     85          0.900343   1.000000
     86          0.928182   1.000000
     87          0.966144   1.000000
     88          1.036278   1.000000
     89          1.056575   1.000000
     90          1.228649   1.000000
     91          1.229927   1.000000
     92          1.303223   1.000000
     93          1.357007   1.000000
     94          1.554661   1.000000
     95          1.622822   1.000000
     96          1.836421   1.000000
     97          1.880237   1.000000
     98          1.882125   1.000000
     99          1.920881   1.000000
    100          1.958260   1.000000
    101          2.070591   1.000000
    102          2.357900   1.000000
    103          2.368818   1.000000
    104          2.388805   1.000000
    105          2.737591   1.000000
    106          2.781267   1.000000
    107          2.791044   1.000000
    108          2.904099   1.000000
    109          5.066557   0.000000
    110          5.153456   0.000000
    111          5.169749   0.000000
    112          5.407132   0.000000
    113          6.536860   0.000000
    114          6.539337   0.000000
    115          6.579926   0.000000
    116          6.822067   0.000000
    117          6.967437   0.000000
    118          7.332865   0.000000
    119          7.603441   0.000000
    120          7.607163   0.000000
    121          8.071407   0.000000
    122          8.222090   0.000000
    123          8.481098   0.000000
    124          8.499848   0.000000
    125          8.690734   0.000000
    126          9.020598   0.000000
    127          9.208668   0.000000
    128          9.278846   0.000000
    129          9.415921   0.000000
    130          9.452872   0.000000
    131          9.643970   0.000000
    132          9.693971   0.000000
    133          9.897935   0.000000
    134         10.088670   0.000000
    135         10.196757   0.000000
    136         10.220341   0.000000
    137         10.287904   0.000000
    138         10.639428   0.000000
    139         10.649764   0.000000
    140         10.716424   0.000000
    141         11.353571   0.000000

  0.1262379E-14  0.2500000E+00  0.4285714E+00  0.2040816E-01
      1        -25.454405   1.000000
      2        -25.454387   1.000000
      3        -25.453285   1.000000
      4        -25.453265   1.000000
      5        -25.441001   1.000000
      6        -25.440993   1.000000
      7        -25.440880   1.000000
      8        -25.440874   1.000000
      9        -25.411940   1.000000
     10        -25.411933   1.000000
     11        -25.411855   1.000000
     12        -25.411848   1.000000
     13        -25.389243   1.000000
     14        -25.389238   1.000000
     15        -25.389101   1.000000
     16        -25.389095   1.000000
     17        -25.383959   1.000000
     18        -25.383953   1.000000
     19        -25.383807   1.000000
     20        -25.383801   1.000000
     21        -12.454213   1.000000
     22        -12.308950   1.000000
     23        -12.198277   1.000000
     24        -12.089922   1.000000
     25        -11.376782   1.000000
     26        -11.261956   1.000000
     27        -11.225749   1.000000
     28        -11.172421   1.000000
     29        -10.962451   1.000000
     30        -10.903644   1.000000
     31        -10.857417   1.000000
     32        -10.834787   1.000000
     33         -5.996079   1.000000
     34         -5.906715   1.000000
     35         -5.804433   1.000000
     36         -5.676946   1.000000
     37         -2.567994   1.000000
     38         -2.455900   1.000000
     39         -2.401851   1.000000
     40         -2.295132   1.000000
     41         -2.168140   1.000000
     42         -2.010576   1.000000
     43         -1.871077   1.000000
     44         -1.736652   1.000000
     45         -1.702817   1.000000
     46         -1.559334   1.000000
     47         -1.499796   1.000000
     48         -1.398978   1.000000
     49         -1.323579   1.000000
     50         -1.224357   1.000000
     51         -1.212799   1.000000
     52         -1.140638   1.000000
     53         -0.926355   1.000000
     54         -0.874310   1.000000
     55         -0.873595   1.000000
     56         -0.789538   1.000000
     57         -0.640456   1.000000
     58         -0.631393   1.000000
     59         -0.609966   1.000000
     60         -0.602798   1.000000
     61         -0.527718   1.000000
     62         -0.512963   1.000000
     63         -0.509357   1.000000
     64         -0.468763   1.000000
     65         -0.446309   1.000000
     66         -0.433346   1.000000
     67         -0.430929   1.000000
     68         -0.396459   1.000000
     69          0.512722   1.000000
     70          0.535199   1.000000
     71          0.542148   1.000000
     72          0.558053   1.000000
     73          0.558110   1.000000
     74          0.573760   1.000000
     75          0.583596   1.000000
     76          0.586191   1.000000
     77          0.636184   1.000000
     78          0.649737   1.000000
     79          0.655052   1.000000
     80          0.657657   1.000000
     81          0.678221   1.000000
     82          0.692692   1.000000
     83          0.711547   1.000000
     84          0.755552   1.000000
     85          0.894318   1.000000
     86          0.924082   1.000000
     87          1.019278   1.000000
     88          1.034035   1.000000
     89          1.094981   1.000000
     90          1.127225   1.000000
     91          1.226697   1.000000
     92          1.271251   1.000000
     93          1.449535   1.000000
     94          1.453697   1.000000
     95          1.610292   1.000000
     96          1.715772   1.000000
     97          1.725007   1.000000
     98          1.864644   1.000000
     99          1.955904   1.000000
    100          1.986249   1.000000
    101          2.052115   1.000000
    102          2.202746   1.000000
    103          2.366857   1.000000
    104          2.430118   1.000000
    105          2.515244   1.000000
    106          2.635900   1.000000
    107          2.751951   1.000000
    108          2.961951   1.000000
    109          5.168694   0.000000
    110          5.223227   0.000000
    111          5.379734   0.000000
    112          5.523148   0.000000
    113          6.628274   0.000000
    114          6.642292   0.000000
    115          6.857929   0.000000
    116          6.894391   0.000000
    117          7.341425   0.000000
    118          7.646433   0.000000
    119          7.893866   0.000000
    120          7.993699   0.000000
    121          8.168289   0.000000
    122          8.355933   0.000000
    123          8.461039   0.000000
    124          8.696292   0.000000
    125          9.110364   0.000000
    126          9.153660   0.000000
    127          9.247433   0.000000
    128          9.287081   0.000000
    129          9.565087   0.000000
    130          9.572703   0.000000
    131          9.723582   0.000000
    132          9.729838   0.000000
    133          9.886592   0.000000
    134          9.965879   0.000000
    135         10.025357   0.000000
    136         10.343729   0.000000
    137         10.420611   0.000000
    138         10.518271   0.000000
    139         10.596500   0.000000
    140         10.606540   0.000000
    141         10.998257   0.000000

  0.1428571E+00  0.2500000E+00  0.4285714E+00  0.2040816E-01
      1        -25.454404   1.000000
      2        -25.454388   1.000000
      3        -25.453286   1.000000
      4        -25.453264   1.000000
      5        -25.441004   1.000000
      6        -25.440997   1.000000
      7        -25.440881   1.000000
      8        -25.440874   1.000000
      9        -25.411936   1.000000
     10        -25.411926   1.000000
     11        -25.411862   1.000000
     12        -25.411855   1.000000
     13        -25.389242   1.000000
     14        -25.389234   1.000000
     15        -25.389098   1.000000
     16        -25.389092   1.000000
     17        -25.383961   1.000000
     18        -25.383951   1.000000
     19        -25.383805   1.000000
     20        -25.383796   1.000000
     21        -12.387227   1.000000
     22        -12.275054   1.000000
     23        -12.232400   1.000000
     24        -12.107309   1.000000
     25        -11.339700   1.000000
     26        -11.291028   1.000000
     27        -11.253442   1.000000
     28        -11.178020   1.000000
     29        -11.024285   1.000000
     30        -10.898470   1.000000
     31        -10.882319   1.000000
     32        -10.822714   1.000000
     33         -6.006537   1.000000
     34         -5.928522   1.000000
     35         -5.756047   1.000000
     36         -5.624622   1.000000
     37         -2.522768   1.000000
     38         -2.461748   1.000000
     39         -2.390637   1.000000
     40         -2.251678   1.000000
     41         -2.079493   1.000000
     42         -1.983924   1.000000
     43         -1.969671   1.000000
     44         -1.847173   1.000000
     45         -1.725142   1.000000
     46         -1.613472   1.000000
     47         -1.524134   1.000000
     48         -1.378906   1.000000
     49         -1.309552   1.000000
     50         -1.200420   1.000000
     51         -1.100965   1.000000
     52         -1.076571   1.000000
     53         -0.951026   1.000000
     54         -0.919652   1.000000
     55         -0.820667   1.000000
     56         -0.751025   1.000000
     57         -0.669876   1.000000
     58         -0.638982   1.000000
     59         -0.610576   1.000000
     60         -0.597021   1.000000
     61         -0.543216   1.000000
     62         -0.511894   1.000000
     63         -0.499354   1.000000
     64         -0.461150   1.000000
     65         -0.456705   1.000000
     66         -0.426740   1.000000
     67         -0.425647   1.000000
     68         -0.409255   1.000000
     69          0.503040   1.000000
     70          0.534217   1.000000
     71          0.541007   1.000000
     72          0.558154   1.000000
     73          0.571611   1.000000
     74          0.573591   1.000000
     75          0.582029   1.000000
     76          0.601705   1.000000
     77          0.630749   1.000000
     78          0.643774   1.000000
     79          0.656814   1.000000
     80          0.663329   1.000000
     81          0.686272   1.000000
     82          0.687178   1.000000
     83          0.725769   1.000000
     84          0.780055   1.000000
     85          0.893239   1.000000
     86          0.965491   1.000000
     87          0.984093   1.000000
     88          1.024631   1.000000
     89          1.066507   1.000000
     90          1.160606   1.000000
     91          1.224470   1.000000
     92          1.330716   1.000000
     93          1.492162   1.000000
     94          1.506940   1.000000
     95          1.580437   1.000000
     96          1.598172   1.000000
     97          1.739031   1.000000
     98          1.858709   1.000000
     99          1.874753   1.000000
    100          2.003197   1.000000
    101          2.044860   1.000000
    102          2.213394   1.000000
    103          2.228873   1.000000
    104          2.388250   1.000000
    105          2.526706   1.000000
    106          2.667174   1.000000
    107          2.785986   1.000000
    108          2.865193   1.000000
    109          5.227762   0.000000
    110          5.333563   0.000000
    111          5.354285   0.000000
    112          5.406278   0.000000
    113          6.600868   0.000000
    114          6.663429   0.000000
    115          6.761480   0.000000
    116          6.782699   0.000000
    117          7.472241   0.000000
    118          7.615763   0.000000
    119          7.794036   0.000000
    120          8.037214   0.000000
    121          8.068118   0.000000
    122          8.416080   0.000000
    123          8.445674   0.000000
    124          8.636576   0.000000
    125          9.016283   0.000000
    126          9.078868   0.000000
    127          9.192799   0.000000
    128          9.289664   0.000000
    129          9.476203   0.000000
    130          9.488813   0.000000
    131          9.751044   0.000000
    132          9.770123   0.000000
    133         10.044803   0.000000
    134         10.148865   0.000000
    135         10.195345   0.000000
    136         10.226719   0.000000
    137         10.380243   0.000000
    138         10.519817   0.000000
    139         10.593517   0.000000
    140         10.760448   0.000000
    141         10.882178   0.000000

  0.2857143E+00  0.2500000E+00  0.4285714E+00  0.2040816E-01
      1        -25.454408   1.000000
      2        -25.454396   1.000000
      3        -25.453286   1.000000
      4        -25.453266   1.000000
      5        -25.441006   1.000000
      6        -25.440997   1.000000
      7        -25.440878   1.000000
      8        -25.440872   1.000000
      9        -25.411930   1.000000
     10        -25.411922   1.000000
     11        -25.411865   1.000000
     12        -25.411859   1.000000
     13        -25.389240   1.000000
     14        -25.389232   1.000000
     15        -25.389102   1.000000
     16        -25.389089   1.000000
     17        -25.383960   1.000000
     18        -25.383944   1.000000
     19        -25.383801   1.000000
     20        -25.383795   1.000000
     21        -12.311480   1.000000
     22        -12.264943   1.000000
     23        -12.220003   1.000000
     24        -12.098310   1.000000
     25        -11.324422   1.000000
     26        -11.309967   1.000000
     27        -11.253445   1.000000
     28        -11.190025   1.000000
     29        -11.077446   1.000000
     30        -10.956713   1.000000
     31        -10.915393   1.000000
     32        -10.838994   1.000000
     33         -6.004761   1.000000
     34         -5.943871   1.000000
     35         -5.723892   1.000000
     36         -5.620021   1.000000
     37         -2.592019   1.000000
     38         -2.588617   1.000000
     39         -2.254070   1.000000
     40         -2.204638   1.000000
     41         -2.085043   1.000000
     42         -2.050081   1.000000
     43         -1.994136   1.000000
     44         -1.956027   1.000000
     45         -1.728255   1.000000
     46         -1.594387   1.000000
     47         -1.401020   1.000000
     48         -1.349620   1.000000
     49         -1.280720   1.000000
     50         -1.137848   1.000000
     51         -1.028255   1.000000
     52         -0.947671   1.000000
     53         -0.896366   1.000000
     54         -0.847632   1.000000
     55         -0.780920   1.000000
     56         -0.757598   1.000000
     57         -0.669088   1.000000
     58         -0.632963   1.000000
     59         -0.617212   1.000000
     60         -0.569247   1.000000
     61         -0.548096   1.000000
     62         -0.521783   1.000000
     63         -0.518333   1.000000
     64         -0.464049   1.000000
     65         -0.461730   1.000000
     66         -0.435488   1.000000
     67         -0.401140   1.000000
     68         -0.393721   1.000000
     69          0.444659   1.000000
     70          0.528016   1.000000
     71          0.541858   1.000000
     72          0.545620   1.000000
     73          0.570629   1.000000
     74          0.592234   1.000000
     75          0.604481   1.000000
     76          0.605591   1.000000
     77          0.613867   1.000000
     78          0.641162   1.000000
     79          0.646234   1.000000
     80          0.659572   1.000000
     81          0.666179   1.000000
     82          0.697970   1.000000
     83          0.747339   1.000000
     84          0.758316   1.000000
     85          0.932633   1.000000
     86          0.949895   1.000000
     87          0.978617   1.000000
     88          1.039328   1.000000
     89          1.219536   1.000000
     90          1.256903   1.000000
     91          1.277116   1.000000
     92          1.375258   1.000000
     93          1.438197   1.000000
     94          1.515286   1.000000
     95          1.618744   1.000000
     96          1.632970   1.000000
     97          1.666461   1.000000
     98          1.681948   1.000000
     99          1.914938   1.000000
    100          2.009325   1.000000
    101          2.070966   1.000000
    102          2.251474   1.000000
    103          2.313723   1.000000
    104          2.402235   1.000000
    105          2.515047   1.000000
    106          2.650097   1.000000
    107          2.819896   1.000000
    108          2.837991   1.000000
    109          5.087403   0.000000
    110          5.178031   0.000000
    111          5.282356   0.000000
    112          5.399984   0.000000
    113          6.254818   0.000000
    114          6.572232   0.000000
    115          6.615488   0.000000
    116          6.904770   0.000000
    117          7.391223   0.000000
    118          7.407394   0.000000
    119          7.488589   0.000000
    120          7.783126   0.000000
    121          7.912501   0.000000
    122          8.230971   0.000000
    123          8.265159   0.000000
    124          8.485147   0.000000
    125          8.663883   0.000000
    126          8.877963   0.000000
    127          8.929174   0.000000
    128          9.188132   0.000000
    129          9.425827   0.000000
    130          9.551205   0.000000
    131          9.641922   0.000000
    132          9.904421   0.000000
    133          9.973702   0.000000
    134         10.067229   0.000000
    135         10.112144   0.000000
    136         10.303861   0.000000
    137         10.419526   0.000000
    138         10.542806   0.000000
    139         10.560395   0.000000
    140         10.787120   0.000000
    141         10.961795   0.000000

  0.4285714E+00  0.2500000E+00  0.4285714E+00  0.2040816E-01
      1        -25.454407   1.000000
      2        -25.454397   1.000000
      3        -25.453283   1.000000
      4        -25.453272   1.000000
      5        -25.441003   1.000000
      6        -25.440995   1.000000
      7        -25.440882   1.000000
      8        -25.440872   1.000000
      9        -25.411934   1.000000
     10        -25.411928   1.000000
     11        -25.411865   1.000000
     12        -25.411859   1.000000
     13        -25.389241   1.000000
     14        -25.389232   1.000000
     15        -25.389101   1.000000
     16        -25.389094   1.000000
     17        -25.383956   1.000000
     18        -25.383947   1.000000
     19        -25.383800   1.000000
     20        -25.383792   1.000000
     21        -12.307248   1.000000
     22        -12.274348   1.000000
     23        -12.167270   1.000000
     24        -12.069934   1.000000
     25        -11.312654   1.000000
     26        -11.277454   1.000000
     27        -11.225841   1.000000
     28        -11.221175   1.000000
     29        -11.105466   1.000000
     30        -11.026252   1.000000
     31        -10.940863   1.000000
     32        -10.874386   1.000000
     33         -5.980561   1.000000
     34         -5.955139   1.000000
     35         -5.715870   1.000000
     36         -5.678304   1.000000
     37         -2.704479   1.000000
     38         -2.686478   1.000000
     39         -2.308276   1.000000
     40         -2.280480   1.000000
     41         -2.112075   1.000000
     42         -2.101230   1.000000
     43         -1.856102   1.000000
     44         -1.761165   1.000000
     45         -1.717578   1.000000
     46         -1.556639   1.000000
     47         -1.345292   1.000000
     48         -1.279888   1.000000
     49         -1.165727   1.000000
     50         -1.098077   1.000000
     51         -1.056023   1.000000
     52         -1.013942   1.000000
     53         -0.825300   1.000000
     54         -0.814799   1.000000
     55         -0.714897   1.000000
     56         -0.712615   1.000000
     57         -0.666280   1.000000
     58         -0.642836   1.000000
     59         -0.589043   1.000000
     60         -0.569933   1.000000
     61         -0.540029   1.000000
     62         -0.534396   1.000000
     63         -0.518969   1.000000
     64         -0.482512   1.000000
     65         -0.462627   1.000000
     66         -0.434419   1.000000
     67         -0.381540   1.000000
     68         -0.372815   1.000000
     69          0.399271   1.000000
     70          0.469834   1.000000
     71          0.514312   1.000000
     72          0.560234   1.000000
     73          0.582901   1.000000
     74          0.597617   1.000000
     75          0.598411   1.000000
     76          0.616144   1.000000
     77          0.617994   1.000000
     78          0.632883   1.000000
     79          0.651689   1.000000
     80          0.660838   1.000000
     81          0.673572   1.000000
     82          0.697852   1.000000
     83          0.725672   1.000000
     84          0.743639   1.000000
     85          0.889601   1.000000
     86          0.939142   1.000000
     87          1.056751   1.000000
     88          1.085933   1.000000
     89          1.128518   1.000000
     90          1.174713   1.000000
     91          1.338860   1.000000
     92          1.367197   1.000000
     93          1.476154   1.000000
     94          1.490202   1.000000
     95          1.666839   1.000000
     96          1.726913   1.000000
     97          1.760093   1.000000
     98          1.814071   1.000000
     99          2.013443   1.000000
    100          2.017792   1.000000
    101          2.239564   1.000000
    102          2.246534   1.000000
    103          2.373374   1.000000
    104          2.464914   1.000000
    105          2.535787   1.000000
    106          2.636675   1.000000
    107          2.843999   1.000000
    108          2.856128   1.000000
    109          4.894563   0.000000
    110          4.899947   0.000000
    111          5.204143   0.000000
    112          5.281931   0.000000
    113          6.091692   0.000000
    114          6.275667   0.000000
    115          6.548799   0.000000
    116          6.822713   0.000000
    117          7.216397   0.000000
    118          7.227693   0.000000
    119          7.352672   0.000000
    120          7.460084   0.000000
    121          7.794674   0.000000
    122          8.005992   0.000000
    123          8.165515   0.000000
    124          8.236452   0.000000
    125          8.635362   0.000000
    126          8.701686   0.000000
    127          8.830748   0.000000
    128          9.106248   0.000000
    129          9.220600   0.000000
    130          9.317046   0.000000
    131          9.662740   0.000000
    132          9.882020   0.000000
    133          9.970642   0.000000
    134         10.138061   0.000000
    135         10.283643   0.000000
    136         10.320041   0.000000
    137         10.449207   0.000000
    138         10.577061   0.000000
    139         10.596601   0.000000
    140         10.774690   0.000000
    141         11.025518   0.000000

 -0.4285714E+00  0.2500000E+00  0.4285714E+00  0.2040816E-01
      1        -25.454411   1.000000
      2        -25.454395   1.000000
      3        -25.453284   1.000000
      4        -25.453276   1.000000
      5        -25.441001   1.000000
      6        -25.440995   1.000000
      7        -25.440884   1.000000
      8        -25.440874   1.000000
      9        -25.411944   1.000000
     10        -25.411938   1.000000
     11        -25.411860   1.000000
     12        -25.411850   1.000000
     13        -25.389238   1.000000
     14        -25.389232   1.000000
     15        -25.389101   1.000000
     16        -25.389096   1.000000
     17        -25.383958   1.000000
     18        -25.383947   1.000000
     19        -25.383804   1.000000
     20        -25.383793   1.000000
     21        -12.383702   1.000000
     22        -12.286396   1.000000
     23        -12.104885   1.000000
     24        -12.049451   1.000000
     25        -11.316135   1.000000
     26        -11.268964   1.000000
     27        -11.205633   1.000000
     28        -11.191198   1.000000
     29        -11.081685   1.000000
     30        -11.080526   1.000000
     31        -10.916053   1.000000
     32        -10.901064   1.000000
     33         -5.966532   1.000000
     34         -5.939489   1.000000
     35         -5.764162   1.000000
     36         -5.725455   1.000000
     37         -2.764084   1.000000
     38         -2.711545   1.000000
     39         -2.402336   1.000000
     40         -2.265021   1.000000
     41         -2.169249   1.000000
     42         -2.133119   1.000000
     43         -1.913308   1.000000
     44         -1.609246   1.000000
     45         -1.480066   1.000000
     46         -1.466277   1.000000
     47         -1.395885   1.000000
     48         -1.351634   1.000000
     49         -1.177299   1.000000
     50         -1.163476   1.000000
     51         -1.064117   1.000000
     52         -1.012465   1.000000
     53         -0.840549   1.000000
     54         -0.749192   1.000000
     55         -0.701509   1.000000
     56         -0.690623   1.000000
     57         -0.654171   1.000000
     58         -0.647055   1.000000
     59         -0.609642   1.000000
     60         -0.564948   1.000000
     61         -0.560081   1.000000
     62         -0.532466   1.000000
     63         -0.515645   1.000000
     64         -0.481054   1.000000
     65         -0.437507   1.000000
     66         -0.436456   1.000000
     67         -0.380378   1.000000
     68         -0.364094   1.000000
     69          0.415426   1.000000
     70          0.433356   1.000000
     71          0.517723   1.000000
     72          0.543031   1.000000
     73          0.586428   1.000000
     74          0.595452   1.000000
     75          0.606030   1.000000
     76          0.606853   1.000000
     77          0.630777   1.000000
     78          0.643391   1.000000
     79          0.660624   1.000000
     80          0.665079   1.000000
     81          0.677759   1.000000
     82          0.687519   1.000000
     83          0.703217   1.000000
     84          0.741063   1.000000
     85          0.843388   1.000000
     86          0.983216   1.000000
     87          1.028056   1.000000
     88          1.069855   1.000000
     89          1.136163   1.000000
     90          1.177697   1.000000
     91          1.322469   1.000000
     92          1.330507   1.000000
     93          1.408671   1.000000
     94          1.574075   1.000000
     95          1.743202   1.000000
     96          1.759114   1.000000
     97          1.879308   1.000000
     98          1.885304   1.000000
     99          2.030053   1.000000
    100          2.095089   1.000000
    101          2.222949   1.000000
    102          2.223322   1.000000
    103          2.430087   1.000000
    104          2.515668   1.000000
    105          2.557050   1.000000
    106          2.753516   1.000000
    107          2.757969   1.000000
    108          2.932866   1.000000
    109          4.658416   0.000000
    110          4.912890   0.000000
    111          5.146079   0.000000
    112          5.210782   0.000000
    113          6.101722   0.000000
    114          6.247367   0.000000
    115          6.564082   0.000000
    116          6.692289   0.000000
    117          7.030375   0.000000
    118          7.127775   0.000000
    119          7.291733   0.000000
    120          7.344588   0.000000
    121          7.812596   0.000000
    122          7.900772   0.000000
    123          8.118662   0.000000
    124          8.246428   0.000000
    125          8.526214   0.000000
    126          8.724231   0.000000
    127          8.945826   0.000000
    128          9.011101   0.000000
    129          9.156569   0.000000
    130          9.226053   0.000000
    131          9.678110   0.000000
    132          9.816913   0.000000
    133         10.074823   0.000000
    134         10.155710   0.000000
    135         10.280540   0.000000
    136         10.340353   0.000000
    137         10.396987   0.000000
    138         10.584402   0.000000
    139         10.595162   0.000000
    140         10.784527   0.000000
    141         11.003201   0.000000

 -0.2857143E+00  0.2500000E+00  0.4285714E+00  0.2040816E-01
      1        -25.454420   1.000000
      2        -25.454388   1.000000
      3        -25.453282   1.000000
      4        -25.453272   1.000000
      5        -25.441000   1.000000
      6        -25.440993   1.000000
      7        -25.440881   1.000000
      8        -25.440874   1.000000
      9        -25.411948   1.000000
     10        -25.411941   1.000000
     11        -25.411853   1.000000
     12        -25.411844   1.000000
     13        -25.389238   1.000000
     14        -25.389226   1.000000
     15        -25.389103   1.000000
     16        -25.389096   1.000000
     17        -25.383955   1.000000
     18        -25.383949   1.000000
     19        -25.383806   1.000000
     20        -25.383788   1.000000
     21        -12.451434   1.000000
     22        -12.315955   1.000000
     23        -12.069974   1.000000
     24        -12.064984   1.000000
     25        -11.364366   1.000000
     26        -11.292215   1.000000
     27        -11.178740   1.000000
     28        -11.163210   1.000000
     29        -11.045617   1.000000
     30        -10.978475   1.000000
     31        -10.943132   1.000000
     32        -10.853492   1.000000
     33         -5.976709   1.000000
     34         -5.902901   1.000000
     35         -5.827825   1.000000
     36         -5.736845   1.000000
     37         -2.720767   1.000000
     38         -2.681159   1.000000
     39         -2.408143   1.000000
     40         -2.259821   1.000000
     41         -2.162592   1.000000
     42         -2.093807   1.000000
     43         -2.015022   1.000000
     44         -1.764829   1.000000
     45         -1.474816   1.000000
     46         -1.472002   1.000000
     47         -1.363668   1.000000
     48         -1.324360   1.000000
     49         -1.251723   1.000000
     50         -1.211252   1.000000
     51         -1.016941   1.000000
     52         -1.013590   1.000000
     53         -0.870594   1.000000
     54         -0.797358   1.000000
     55         -0.738860   1.000000
     56         -0.736754   1.000000
     57         -0.656770   1.000000
     58         -0.622802   1.000000
     59         -0.601147   1.000000
     60         -0.578201   1.000000
     61         -0.553352   1.000000
     62         -0.539021   1.000000
     63         -0.527961   1.000000
     64         -0.481036   1.000000
     65         -0.440915   1.000000
     66         -0.402593   1.000000
     67         -0.393533   1.000000
     68         -0.375588   1.000000
     69          0.409742   1.000000
     70          0.500690   1.000000
     71          0.514477   1.000000
     72          0.567177   1.000000
     73          0.575250   1.000000
     74          0.595295   1.000000
     75          0.598696   1.000000
     76          0.610547   1.000000
     77          0.623642   1.000000
     78          0.633774   1.000000
     79          0.633945   1.000000
     80          0.666229   1.000000
     81          0.678736   1.000000
     82          0.699498   1.000000
     83          0.707657   1.000000
     84          0.758685   1.000000
     85          0.891012   1.000000
     86          0.973319   1.000000
     87          1.021949   1.000000
     88          1.072797   1.000000
     89          1.134510   1.000000
     90          1.192419   1.000000
     91          1.340778   1.000000
     92          1.345290   1.000000
     93          1.475120   1.000000
     94          1.512690   1.000000
     95          1.656055   1.000000
     96          1.713139   1.000000
     97          1.817225   1.000000
     98          1.821235   1.000000
     99          1.973312   1.000000
    100          2.110507   1.000000
    101          2.176341   1.000000
    102          2.232042   1.000000
    103          2.448911   1.000000
    104          2.502131   1.000000
    105          2.602118   1.000000
    106          2.624697   1.000000
    107          2.810867   1.000000
    108          2.969025   1.000000
    109          4.761721   0.000000
    110          5.098485   0.000000
    111          5.199858   0.000000
    112          5.267399   0.000000
    113          6.258507   0.000000
    114          6.559091   0.000000
    115          6.563624   0.000000
    116          6.746210   0.000000
    117          6.953829   0.000000
    118          7.130939   0.000000
    119          7.410206   0.000000
    120          7.418356   0.000000
    121          7.827707   0.000000
    122          8.077486   0.000000
    123          8.217539   0.000000
    124          8.466853   0.000000
    125          8.540773   0.000000
    126          8.812436   0.000000
    127          8.983034   0.000000
    128          9.062427   0.000000
    129          9.432543   0.000000
    130          9.471758   0.000000
    131          9.601179   0.000000
    132          9.701018   0.000000
    133          9.827800   0.000000
    134          9.940065   0.000000
    135         10.161700   0.000000
    136         10.230522   0.000000
    137         10.273706   0.000000
    138         10.518560   0.000000
    139         10.636597   0.000000
    140         11.071566   0.000000
    141         11.151807   0.000000

 -0.1428571E+00  0.2500000E+00  0.4285714E+00  0.2040816E-01
      1        -25.454421   1.000000
      2        -25.454388   1.000000
      3        -25.453287   1.000000
      4        -25.453271   1.000000
      5        -25.441005   1.000000
      6        -25.440994   1.000000
      7        -25.440884   1.000000
      8        -25.440875   1.000000
      9        -25.411945   1.000000
     10        -25.411938   1.000000
     11        -25.411858   1.000000
     12        -25.411836   1.000000
     13        -25.389246   1.000000
     14        -25.389235   1.000000
     15        -25.389107   1.000000
     16        -25.389097   1.000000
     17        -25.383960   1.000000
     18        -25.383951   1.000000
     19        -25.383814   1.000000
     20        -25.383796   1.000000
     21        -12.478698   1.000000
     22        -12.327555   1.000000
     23        -12.132535   1.000000
     24        -12.065349   1.000000
     25        -11.392376   1.000000
     26        -11.269325   1.000000
     27        -11.208185   1.000000
     28        -11.148398   1.000000
     29        -10.974786   1.000000
     30        -10.934858   1.000000
     31        -10.896799   1.000000
     32        -10.830450   1.000000
     33         -5.985447   1.000000
     34         -5.891859   1.000000
     35         -5.839356   1.000000
     36         -5.724708   1.000000
     37         -2.641074   1.000000
     38         -2.595419   1.000000
     39         -2.343854   1.000000
     40         -2.280901   1.000000
     41         -2.142139   1.000000
     42         -2.076782   1.000000
     43         -1.995437   1.000000
     44         -1.825421   1.000000
     45         -1.617797   1.000000
     46         -1.508914   1.000000
     47         -1.393992   1.000000
     48         -1.340316   1.000000
     49         -1.294643   1.000000
     50         -1.271772   1.000000
     51         -1.093583   1.000000
     52         -0.982217   1.000000
     53         -0.923531   1.000000
     54         -0.892477   1.000000
     55         -0.835850   1.000000
     56         -0.747290   1.000000
     57         -0.647621   1.000000
     58         -0.626710   1.000000
     59         -0.591633   1.000000
     60         -0.565919   1.000000
     61         -0.558190   1.000000
     62         -0.534640   1.000000
     63         -0.515482   1.000000
     64         -0.478172   1.000000
     65         -0.440507   1.000000
     66         -0.422827   1.000000
     67         -0.415467   1.000000
     68         -0.382731   1.000000
     69          0.461572   1.000000
     70          0.523738   1.000000
     71          0.541727   1.000000
     72          0.548323   1.000000
     73          0.575026   1.000000
     74          0.577464   1.000000
     75          0.597828   1.000000
     76          0.609119   1.000000
     77          0.616466   1.000000
     78          0.636281   1.000000
     79          0.653841   1.000000
     80          0.654806   1.000000
     81          0.689838   1.000000
     82          0.690192   1.000000
     83          0.729283   1.000000
     84          0.730252   1.000000
     85          0.921394   1.000000
     86          0.971757   1.000000
     87          0.983820   1.000000
     88          1.050580   1.000000
     89          1.083657   1.000000
     90          1.225883   1.000000
     91          1.284894   1.000000
     92          1.310948   1.000000
     93          1.366467   1.000000
     94          1.479609   1.000000
     95          1.639923   1.000000
     96          1.809324   1.000000
     97          1.818367   1.000000
     98          1.840265   1.000000
     99          1.895626   1.000000
    100          2.039334   1.000000
    101          2.087399   1.000000
    102          2.305080   1.000000
    103          2.321191   1.000000
    104          2.410374   1.000000
    105          2.474753   1.000000
    106          2.597179   1.000000
    107          2.826533   1.000000
    108          3.047088   1.000000
    109          5.105157   0.000000
    110          5.171883   0.000000
    111          5.268030   0.000000
    112          5.414502   0.000000
    113          6.596138   0.000000
    114          6.600386   0.000000
    115          6.681395   0.000000
    116          6.828156   0.000000
    117          7.107025   0.000000
    118          7.495187   0.000000
    119          7.538919   0.000000
    120          7.743247   0.000000
    121          7.972889   0.000000
    122          8.235552   0.000000
    123          8.417039   0.000000
    124          8.712354   0.000000
    125          8.730672   0.000000
    126          9.015739   0.000000
    127          9.166619   0.000000
    128          9.314850   0.000000
    129          9.370607   0.000000
    130          9.495984   0.000000
    131          9.691688   0.000000
    132          9.699149   0.000000
    133          9.833647   0.000000
    134          9.885305   0.000000
    135         10.122743   0.000000
    136         10.216443   0.000000
    137         10.242681   0.000000
    138         10.501527   0.000000
    139         10.505366   0.000000
    140         10.777249   0.000000
    141         10.975190   0.000000

  0.1262379E-14  0.5000000E+00  0.4285714E+00  0.1020408E-01
      1        -25.454405   1.000000
      2        -25.454399   1.000000
      3        -25.453283   1.000000
      4        -25.453277   1.000000
      5        -25.441006   1.000000
      6        -25.441001   1.000000
      7        -25.440879   1.000000
      8        -25.440873   1.000000
      9        -25.411942   1.000000
     10        -25.411937   1.000000
     11        -25.411856   1.000000
     12        -25.411850   1.000000
     13        -25.389243   1.000000
     14        -25.389238   1.000000
     15        -25.389100   1.000000
     16        -25.389094   1.000000
     17        -25.383959   1.000000
     18        -25.383953   1.000000
     19        -25.383809   1.000000
     20        -25.383804   1.000000
     21        -12.388076   1.000000
     22        -12.388075   1.000000
     23        -12.146059   1.000000
     24        -12.146059   1.000000
     25        -11.300480   1.000000
     26        -11.300480   1.000000
     27        -11.210152   1.000000
     28        -11.210152   1.000000
     29        -10.911113   1.000000
     30        -10.911112   1.000000
     31        -10.867242   1.000000
     32        -10.867241   1.000000
     33         -5.953373   1.000000
     34         -5.953372   1.000000
     35         -5.742586   1.000000
     36         -5.742586   1.000000
     37         -2.534557   1.000000
     38         -2.534556   1.000000
     39         -2.359203   1.000000
     40         -2.359202   1.000000
     41         -2.126193   1.000000
     42         -2.126192   1.000000
     43         -1.782741   1.000000
     44         -1.782741   1.000000
     45         -1.583289   1.000000
     46         -1.583289   1.000000
     47         -1.440084   1.000000
     48         -1.440083   1.000000
     49         -1.221755   1.000000
     50         -1.221755   1.000000
     51         -1.129409   1.000000
     52         -1.129409   1.000000
     53         -0.918369   1.000000
     54         -0.918368   1.000000
     55         -0.867710   1.000000
     56         -0.867709   1.000000
     57         -0.650019   1.000000
     58         -0.650018   1.000000
     59         -0.620325   1.000000
     60         -0.620324   1.000000
     61         -0.523200   1.000000
     62         -0.523199   1.000000
     63         -0.487505   1.000000
     64         -0.487504   1.000000
     65         -0.443722   1.000000
     66         -0.443722   1.000000
     67         -0.414695   1.000000
     68         -0.414695   1.000000
     69          0.527414   1.000000
     70          0.527415   1.000000
     71          0.548385   1.000000
     72          0.548386   1.000000
     73          0.564943   1.000000
     74          0.564943   1.000000
     75          0.576677   1.000000
     76          0.576679   1.000000
     77          0.642387   1.000000
     78          0.642387   1.000000
     79          0.649963   1.000000
     80          0.649964   1.000000
     81          0.678045   1.000000
     82          0.678046   1.000000
     83          0.740042   1.000000
     84          0.740042   1.000000
     85          0.978914   1.000000
     86          0.978915   1.000000
     87          1.038697   1.000000
     88          1.038697   1.000000
     89          1.147055   1.000000
     90          1.147056   1.000000
     91          1.228923   1.000000
     92          1.228924   1.000000
     93          1.430022   1.000000
     94          1.430023   1.000000
     95          1.642409   1.000000
     96          1.642410   1.000000
     97          1.801507   1.000000
     98          1.801508   1.000000
     99          2.001995   1.000000
    100          2.001995   1.000000
    101          2.072401   1.000000
    102          2.072402   1.000000
    103          2.305131   1.000000
    104          2.305131   1.000000
    105          2.570918   1.000000
    106          2.570919   1.000000
    107          2.774748   1.000000
    108          2.774749   1.000000
    109          5.336816   0.000000
    110          5.336817   0.000000
    111          5.435234   0.000000
    112          5.435234   0.000000
    113          6.794141   0.000000
    114          6.794141   0.000000
    115          6.829103   0.000000
    116          6.829103   0.000000
    117          7.725567   0.000000
    118          7.725567   0.000000
    119          7.944730   0.000000
    120          7.944730   0.000000
    121          8.222325   0.000000
    122          8.222325   0.000000
    123          8.524595   0.000000
    124          8.524595   0.000000
    125          9.103300   0.000000
    126          9.103301   0.000000
    127          9.225740   0.000000
    128          9.225740   0.000000
    129          9.687375   0.000000
    130          9.687376   0.000000
    131          9.764603   0.000000
    132          9.764603   0.000000
    133          9.939664   0.000000
    134          9.939664   0.000000
    135         10.136418   0.000000
    136         10.136418   0.000000
    137         10.279614   0.000000
    138         10.279615   0.000000
    139         10.433712   0.000000
    140         10.433725   0.000000
    141         10.810978   0.000000

  0.1428571E+00  0.5000000E+00  0.4285714E+00  0.1020408E-01
      1        -25.454397   1.000000
      2        -25.454391   1.000000
      3        -25.453274   1.000000
      4        -25.453269   1.000000
      5        -25.441000   1.000000
      6        -25.440995   1.000000
      7        -25.440874   1.000000
      8        -25.440869   1.000000
      9        -25.411932   1.000000
     10        -25.411927   1.000000
     11        -25.411860   1.000000
     12        -25.411855   1.000000
     13        -25.389239   1.000000
     14        -25.389234   1.000000
     15        -25.389095   1.000000
     16        -25.389089   1.000000
     17        -25.383955   1.000000
     18        -25.383950   1.000000
     19        -25.383802   1.000000
     20        -25.383797   1.000000
     21        -12.334091   1.000000
     22        -12.334091   1.000000
     23        -12.174596   1.000000
     24        -12.174596   1.000000
     25        -11.299654   1.000000
     26        -11.299653   1.000000
     27        -11.226627   1.000000
     28        -11.226626   1.000000
     29        -10.957525   1.000000
     30        -10.957524   1.000000
     31        -10.853120   1.000000
     32        -10.853118   1.000000
     33         -5.970494   1.000000
     34         -5.970493   1.000000
     35         -5.692362   1.000000
     36         -5.692362   1.000000
     37         -2.533060   1.000000
     38         -2.533060   1.000000
     39         -2.321036   1.000000
     40         -2.321036   1.000000
     41         -2.033322   1.000000
     42         -2.033322   1.000000
     43         -1.888815   1.000000
     44         -1.888815   1.000000
     45         -1.637997   1.000000
     46         -1.637997   1.000000
     47         -1.422365   1.000000
     48         -1.422365   1.000000
     49         -1.249430   1.000000
     50         -1.249430   1.000000
     51         -1.066108   1.000000
     52         -1.066107   1.000000
     53         -0.905394   1.000000
     54         -0.905393   1.000000
     55         -0.823860   1.000000
     56         -0.823860   1.000000
     57         -0.668330   1.000000
     58         -0.668330   1.000000
     59         -0.623835   1.000000
     60         -0.623834   1.000000
     61         -0.535878   1.000000
     62         -0.535877   1.000000
     63         -0.466277   1.000000
     64         -0.466277   1.000000
     65         -0.444436   1.000000
     66         -0.444436   1.000000
     67         -0.424815   1.000000
     68         -0.424815   1.000000
     69          0.516695   1.000000
     70          0.516696   1.000000
     71          0.541210   1.000000
     72          0.541211   1.000000
     73          0.569158   1.000000
     74          0.569158   1.000000
     75          0.587473   1.000000
     76          0.587474   1.000000
     77          0.637907   1.000000
     78          0.637907   1.000000
     79          0.664490   1.000000
     80          0.664491   1.000000
     81          0.689215   1.000000
     82          0.689215   1.000000
     83          0.756167   1.000000
     84          0.756168   1.000000
     85          0.987373   1.000000
     86          0.987373   1.000000
     87          1.012133   1.000000
     88          1.012134   1.000000
     89          1.149098   1.000000
     90          1.149099   1.000000
     91          1.287127   1.000000
     92          1.287128   1.000000
     93          1.472797   1.000000
     94          1.472798   1.000000
     95          1.571635   1.000000
     96          1.571635   1.000000
     97          1.802299   1.000000
     98          1.802299   1.000000
     99          1.912950   1.000000
    100          1.912951   1.000000
    101          2.007695   1.000000
    102          2.007695   1.000000
    103          2.333207   1.000000
    104          2.333207   1.000000
    105          2.534225   1.000000
    106          2.534225   1.000000
    107          2.816704   1.000000
    108          2.816705   1.000000
    109          5.338726   0.000000
    110          5.338727   0.000000
    111          5.410269   0.000000
    112          5.410269   0.000000
    113          6.695713   0.000000
    114          6.695714   0.000000
    115          6.796799   0.000000
    116          6.796799   0.000000
    117          7.767440   0.000000
    118          7.767440   0.000000
    119          7.966385   0.000000
    120          7.966385   0.000000
    121          8.216297   0.000000
    122          8.216298   0.000000
    123          8.579481   0.000000
    124          8.579481   0.000000
    125          9.068957   0.000000
    126          9.068958   0.000000
    127          9.353127   0.000000
    128          9.353127   0.000000
    129          9.404641   0.000000
    130          9.404641   0.000000
    131          9.612214   0.000000
    132          9.612215   0.000000
    133          9.933139   0.000000
    134          9.933140   0.000000
    135         10.180624   0.000000
    136         10.180624   0.000000
    137         10.378930   0.000000
    138         10.378942   0.000000
    139         10.546933   0.000000
    140         10.547151   0.000000
    141         10.794493   0.000000

  0.2857143E+00  0.5000000E+00  0.4285714E+00  0.1020408E-01
      1        -25.454401   1.000000
      2        -25.454396   1.000000
      3        -25.453278   1.000000
      4        -25.453273   1.000000
      5        -25.441000   1.000000
      6        -25.440995   1.000000
      7        -25.440871   1.000000
      8        -25.440866   1.000000
      9        -25.411925   1.000000
     10        -25.411920   1.000000
     11        -25.411860   1.000000
     12        -25.411855   1.000000
     13        -25.389238   1.000000
     14        -25.389232   1.000000
     15        -25.389091   1.000000
     16        -25.389085   1.000000
     17        -25.383950   1.000000
     18        -25.383945   1.000000
     19        -25.383798   1.000000
     20        -25.383793   1.000000
     21        -12.288632   1.000000
     22        -12.288632   1.000000
     23        -12.162002   1.000000
     24        -12.162002   1.000000
     25        -11.329863   1.000000
     26        -11.329863   1.000000
     27        -11.216563   1.000000
     28        -11.216561   1.000000
     29        -11.004470   1.000000
     30        -11.004469   1.000000
     31        -10.878093   1.000000
     32        -10.878091   1.000000
     33         -5.977950   1.000000
     34         -5.977950   1.000000
     35         -5.675668   1.000000
     36         -5.675668   1.000000
     37         -2.641776   1.000000
     38         -2.641776   1.000000
     39         -2.165234   1.000000
     40         -2.165233   1.000000
     41         -2.040100   1.000000
     42         -2.040100   1.000000
     43         -1.965851   1.000000
     44         -1.965850   1.000000
     45         -1.685539   1.000000
     46         -1.685539   1.000000
     47         -1.378091   1.000000
     48         -1.378091   1.000000
     49         -1.202299   1.000000
     50         -1.202298   1.000000
     51         -0.936608   1.000000
     52         -0.936607   1.000000
     53         -0.885249   1.000000
     54         -0.885248   1.000000
     55         -0.799794   1.000000
     56         -0.799794   1.000000
     57         -0.660762   1.000000
     58         -0.660762   1.000000
     59         -0.599615   1.000000
     60         -0.599615   1.000000
     61         -0.537220   1.000000
     62         -0.537219   1.000000
     63         -0.477957   1.000000
     64         -0.477957   1.000000
     65         -0.451139   1.000000
     66         -0.451139   1.000000
     67         -0.404078   1.000000
     68         -0.404077   1.000000
     69          0.484265   1.000000
     70          0.484266   1.000000
     71          0.529276   1.000000
     72          0.529276   1.000000
     73          0.587135   1.000000
     74          0.587136   1.000000
     75          0.597150   1.000000
     76          0.597151   1.000000
     77          0.623894   1.000000
     78          0.623895   1.000000
     79          0.650890   1.000000
     80          0.650891   1.000000
     81          0.680733   1.000000
     82          0.680733   1.000000
     83          0.760685   1.000000
     84          0.760686   1.000000
     85          1.032001   1.000000
     86          1.032001   1.000000
     87          1.054516   1.000000
     88          1.054516   1.000000
     89          1.190933   1.000000
     90          1.190934   1.000000
     91          1.329484   1.000000
     92          1.329485   1.000000
     93          1.508059   1.000000
     94          1.508059   1.000000
     95          1.563240   1.000000
     96          1.563241   1.000000
     97          1.650332   1.000000
     98          1.650333   1.000000
     99          1.895219   1.000000
    100          1.895220   1.000000
    101          2.126663   1.000000
    102          2.126664   1.000000
    103          2.345259   1.000000
    104          2.345259   1.000000
    105          2.611272   1.000000
    106          2.611273   1.000000
    107          2.772928   1.000000
    108          2.772929   1.000000
    109          5.175408   0.000000
    110          5.175409   0.000000
    111          5.358324   0.000000
    112          5.358324   0.000000
    113          6.416849   0.000000
    114          6.416850   0.000000
    115          6.793020   0.000000
    116          6.793020   0.000000
    117          7.484207   0.000000
    118          7.484208   0.000000
    119          7.829690   0.000000
    120          7.829690   0.000000
    121          8.114072   0.000000
    122          8.114073   0.000000
    123          8.419818   0.000000
    124          8.419818   0.000000
    125          8.866610   0.000000
    126          8.866611   0.000000
    127          9.163791   0.000000
    128          9.163791   0.000000
    129          9.418706   0.000000
    130          9.418706   0.000000
    131          9.638236   0.000000
    132          9.638236   0.000000
    133          9.883485   0.000000
    134          9.883485   0.000000
    135         10.138185   0.000000
    136         10.138185   0.000000
    137         10.240348   0.000000
    138         10.240349   0.000000
    139         10.522422   0.000000
    140         10.522439   0.000000
    141         10.930569   0.000000

  0.4285714E+00  0.5000000E+00  0.4285714E+00  0.1020408E-01
      1        -25.454404   1.000000
      2        -25.454398   1.000000
      3        -25.453279   1.000000
      4        -25.453273   1.000000
      5        -25.441003   1.000000
      6        -25.440998   1.000000
      7        -25.440878   1.000000
      8        -25.440872   1.000000
      9        -25.411932   1.000000
     10        -25.411927   1.000000
     11        -25.411860   1.000000
     12        -25.411854   1.000000
     13        -25.389242   1.000000
     14        -25.389237   1.000000
     15        -25.389101   1.000000
     16        -25.389095   1.000000
     17        -25.383955   1.000000
     18        -25.383950   1.000000
     19        -25.383801   1.000000
     20        -25.383795   1.000000
     21        -12.292402   1.000000
     22        -12.292402   1.000000
     23        -12.117107   1.000000
     24        -12.117107   1.000000
     25        -11.313539   1.000000
     26        -11.313538   1.000000
     27        -11.216186   1.000000
     28        -11.216185   1.000000
     29        -11.064021   1.000000
     30        -11.064021   1.000000
     31        -10.896718   1.000000
     32        -10.896717   1.000000
     33         -5.971499   1.000000
     34         -5.971499   1.000000
     35         -5.702671   1.000000
     36         -5.702671   1.000000
     37         -2.746299   1.000000
     38         -2.746299   1.000000
     39         -2.150342   1.000000
     40         -2.150341   1.000000
     41         -2.110295   1.000000
     42         -2.110295   1.000000
     43         -1.864967   1.000000
     44         -1.864967   1.000000
     45         -1.666811   1.000000
     46         -1.666811   1.000000
     47         -1.272517   1.000000
     48         -1.272517   1.000000
     49         -1.120337   1.000000
     50         -1.120336   1.000000
     51         -1.009971   1.000000
     52         -1.009970   1.000000
     53         -0.879951   1.000000
     54         -0.879951   1.000000
     55         -0.721850   1.000000
     56         -0.721850   1.000000
     57         -0.675250   1.000000
     58         -0.675250   1.000000
     59         -0.561449   1.000000
     60         -0.561449   1.000000
     61         -0.522303   1.000000
     62         -0.522302   1.000000
     63         -0.494306   1.000000
     64         -0.494305   1.000000
     65         -0.448610   1.000000
     66         -0.448610   1.000000
     67         -0.380347   1.000000
     68         -0.380347   1.000000
     69          0.434553   1.000000
     70          0.434553   1.000000
     71          0.516935   1.000000
     72          0.516936   1.000000
     73          0.582565   1.000000
     74          0.582566   1.000000
     75          0.599964   1.000000
     76          0.599964   1.000000
     77          0.618594   1.000000
     78          0.618595   1.000000
     79          0.651686   1.000000
     80          0.651687   1.000000
     81          0.697462   1.000000
     82          0.697463   1.000000
     83          0.741728   1.000000
     84          0.741729   1.000000
     85          0.958409   1.000000
     86          0.958410   1.000000
     87          1.122265   1.000000
     88          1.122266   1.000000
     89          1.237332   1.000000
     90          1.237333   1.000000
     91          1.314538   1.000000
     92          1.314538   1.000000
     93          1.426862   1.000000
     94          1.426862   1.000000
     95          1.616406   1.000000
     96          1.616407   1.000000
     97          1.795474   1.000000
     98          1.795475   1.000000
     99          1.948437   1.000000
    100          1.948438   1.000000
    101          2.258904   1.000000
    102          2.258904   1.000000
    103          2.401324   1.000000
    104          2.401324   1.000000
    105          2.630339   1.000000
    106          2.630340   1.000000
    107          2.769359   1.000000
    108          2.769361   1.000000
    109          4.897334   0.000000
    110          4.897335   0.000000
    111          5.288100   0.000000
    112          5.288101   0.000000
    113          6.121414   0.000000
    114          6.121414   0.000000
    115          6.830279   0.000000
    116          6.830279   0.000000
    117          7.293406   0.000000
    118          7.293406   0.000000
    119          7.563845   0.000000
    120          7.563846   0.000000
    121          7.957910   0.000000
    122          7.957910   0.000000
    123          8.171953   0.000000
    124          8.171954   0.000000
    125          8.759097   0.000000
    126          8.759097   0.000000
    127          9.084289   0.000000
    128          9.084289   0.000000
    129          9.406188   0.000000
    130          9.406189   0.000000
    131          9.769866   0.000000
    132          9.769866   0.000000
    133          9.885686   0.000000
    134          9.885686   0.000000
    135         10.077325   0.000000
    136         10.077325   0.000000
    137         10.348518   0.000000
    138         10.348593   0.000000
    139         10.466139   0.000000
    140         10.467246   0.000000
    141         10.689420   0.000000

 -0.4285714E+00  0.5000000E+00  0.4285714E+00  0.1020408E-01
      1        -25.454404   1.000000
      2        -25.454399   1.000000
      3        -25.453280   1.000000
      4        -25.453274   1.000000
      5        -25.441001   1.000000
      6        -25.440996   1.000000
      7        -25.440875   1.000000
      8        -25.440869   1.000000
      9        -25.411940   1.000000
     10        -25.411935   1.000000
     11        -25.411853   1.000000
     12        -25.411847   1.000000
     13        -25.389236   1.000000
     14        -25.389231   1.000000
     15        -25.389100   1.000000
     16        -25.389095   1.000000
     17        -25.383955   1.000000
     18        -25.383949   1.000000
     19        -25.383797   1.000000
     20        -25.383792   1.000000
     21        -12.339599   1.000000
     22        -12.339599   1.000000
     23        -12.072228   1.000000
     24        -12.072228   1.000000
     25        -11.299006   1.000000
     26        -11.299006   1.000000
     27        -11.192577   1.000000
     28        -11.192576   1.000000
     29        -11.096340   1.000000
     30        -11.096340   1.000000
     31        -10.891572   1.000000
     32        -10.891571   1.000000
     33         -5.956152   1.000000
     34         -5.956152   1.000000
     35         -5.750840   1.000000
     36         -5.750839   1.000000
     37         -2.790652   1.000000
     38         -2.790652   1.000000
     39         -2.207314   1.000000
     40         -2.207313   1.000000
     41         -2.164434   1.000000
     42         -2.164433   1.000000
     43         -1.827455   1.000000
     44         -1.827455   1.000000
     45         -1.431331   1.000000
     46         -1.431330   1.000000
     47         -1.363023   1.000000
     48         -1.363022   1.000000
     49         -1.164161   1.000000
     50         -1.164160   1.000000
     51         -1.029507   1.000000
     52         -1.029506   1.000000
     53         -0.845546   1.000000
     54         -0.845545   1.000000
     55         -0.699066   1.000000
     56         -0.699066   1.000000
     57         -0.669591   1.000000
     58         -0.669590   1.000000
     59         -0.568276   1.000000
     60         -0.568275   1.000000
     61         -0.530679   1.000000
     62         -0.530679   1.000000
     63         -0.495461   1.000000
     64         -0.495460   1.000000
     65         -0.435822   1.000000
     66         -0.435822   1.000000
     67         -0.370913   1.000000
     68         -0.370913   1.000000
     69          0.437796   1.000000
     70          0.437797   1.000000
     71          0.492513   1.000000
     72          0.492514   1.000000
     73          0.583501   1.000000
     74          0.583502   1.000000
     75          0.601416   1.000000
     76          0.601417   1.000000
     77          0.637497   1.000000
     78          0.637498   1.000000
     79          0.652016   1.000000
     80          0.652018   1.000000
     81          0.695567   1.000000
     82          0.695568   1.000000
     83          0.717255   1.000000
     84          0.717255   1.000000
     85          0.928933   1.000000
     86          0.928934   1.000000
     87          1.128891   1.000000
     88          1.128892   1.000000
     89          1.259488   1.000000
     90          1.259489   1.000000
     91          1.317024   1.000000
     92          1.317025   1.000000
     93          1.409551   1.000000
     94          1.409551   1.000000
     95          1.645929   1.000000
     96          1.645930   1.000000
     97          1.867912   1.000000
     98          1.867913   1.000000
     99          2.042135   1.000000
    100          2.042136   1.000000
    101          2.207432   1.000000
    102          2.207432   1.000000
    103          2.475219   1.000000
    104          2.475220   1.000000
    105          2.655482   1.000000
    106          2.655483   1.000000
    107          2.807741   1.000000
    108          2.807743   1.000000
    109          4.776407   0.000000
    110          4.776408   0.000000
    111          5.235620   0.000000
    112          5.235621   0.000000
    113          6.111330   0.000000
    114          6.111330   0.000000
    115          6.768246   0.000000
    116          6.768246   0.000000
    117          7.181952   0.000000
    118          7.181953   0.000000
    119          7.429853   0.000000
    120          7.429853   0.000000
    121          7.926569   0.000000
    122          7.926569   0.000000
    123          8.112210   0.000000
    124          8.112210   0.000000
    125          8.725972   0.000000
    126          8.725972   0.000000
    127          8.999168   0.000000
    128          8.999169   0.000000
    129          9.506295   0.000000
    130          9.506295   0.000000
    131          9.686583   0.000000
    132          9.686583   0.000000
    133          9.953961   0.000000
    134          9.953961   0.000000
    135         10.194128   0.000000
    136         10.194139   0.000000
    137         10.408823   0.000000
    138         10.409257   0.000000
    139         10.500553   0.000000
    140         10.506169   0.000000
    141         10.603790   0.000000

 -0.2857143E+00  0.5000000E+00  0.4285714E+00  0.1020408E-01
      1        -25.454409   1.000000
      2        -25.454403   1.000000
      3        -25.453284   1.000000
      4        -25.453279   1.000000
      5        -25.441003   1.000000
      6        -25.440997   1.000000
      7        -25.440881   1.000000
      8        -25.440875   1.000000
      9        -25.411951   1.000000
     10        -25.411946   1.000000
     11        -25.411851   1.000000
     12        -25.411846   1.000000
     13        -25.389237   1.000000
     14        -25.389232   1.000000
     15        -25.389102   1.000000
     16        -25.389097   1.000000
     17        -25.383956   1.000000
     18        -25.383951   1.000000
     19        -25.383801   1.000000
     20        -25.383795   1.000000
     21        -12.390665   1.000000
     22        -12.390665   1.000000
     23        -12.061251   1.000000
     24        -12.061250   1.000000
     25        -11.327477   1.000000
     26        -11.327477   1.000000
     27        -11.181313   1.000000
     28        -11.181313   1.000000
     29        -11.014679   1.000000
     30        -11.014679   1.000000
     31        -10.884395   1.000000
     32        -10.884394   1.000000
     33         -5.942092   1.000000
     34         -5.942092   1.000000
     35         -5.787201   1.000000
     36         -5.787201   1.000000
     37         -2.750985   1.000000
     38         -2.750985   1.000000
     39         -2.282407   1.000000
     40         -2.282407   1.000000
     41         -2.142667   1.000000
     42         -2.142667   1.000000
     43         -1.838002   1.000000
     44         -1.838001   1.000000
     45         -1.455367   1.000000
     46         -1.455366   1.000000
     47         -1.374992   1.000000
     48         -1.374992   1.000000
     49         -1.208915   1.000000
     50         -1.208915   1.000000
     51         -1.004574   1.000000
     52         -1.004574   1.000000
     53         -0.847688   1.000000
     54         -0.847688   1.000000
     55         -0.765547   1.000000
     56         -0.765547   1.000000
     57         -0.634037   1.000000
     58         -0.634037   1.000000
     59         -0.580740   1.000000
     60         -0.580739   1.000000
     61         -0.541166   1.000000
     62         -0.541165   1.000000
     63         -0.513010   1.000000
     64         -0.513009   1.000000
     65         -0.432054   1.000000
     66         -0.432053   1.000000
     67         -0.378390   1.000000
     68         -0.378389   1.000000
     69          0.453764   1.000000
     70          0.453765   1.000000
     71          0.522275   1.000000
     72          0.522275   1.000000
     73          0.579661   1.000000
     74          0.579661   1.000000
     75          0.602369   1.000000
     76          0.602370   1.000000
     77          0.628873   1.000000
     78          0.628874   1.000000
     79          0.646806   1.000000
     80          0.646807   1.000000
     81          0.691863   1.000000
     82          0.691864   1.000000
     83          0.728477   1.000000
     84          0.728477   1.000000
     85          1.017551   1.000000
     86          1.017552   1.000000
     87          1.071352   1.000000
     88          1.071353   1.000000
     89          1.193696   1.000000
     90          1.193696   1.000000
     91          1.347822   1.000000
     92          1.347822   1.000000
     93          1.455363   1.000000
     94          1.455364   1.000000
     95          1.609607   1.000000
     96          1.609607   1.000000
     97          1.823962   1.000000
     98          1.823963   1.000000
     99          2.003369   1.000000
    100          2.003370   1.000000
    101          2.192286   1.000000
    102          2.192287   1.000000
    103          2.423783   1.000000
    104          2.423784   1.000000
    105          2.568888   1.000000
    106          2.568889   1.000000
    107          2.907474   1.000000
    108          2.907475   1.000000
    109          4.949496   0.000000
    110          4.949497   0.000000
    111          5.269933   0.000000
    112          5.269933   0.000000
    113          6.383874   0.000000
    114          6.383874   0.000000
    115          6.734340   0.000000
    116          6.734340   0.000000
    117          7.143090   0.000000
    118          7.143090   0.000000
    119          7.524161   0.000000
    120          7.524161   0.000000
    121          7.959029   0.000000
    122          7.959029   0.000000
    123          8.361068   0.000000
    124          8.361068   0.000000
    125          8.777497   0.000000
    126          8.777497   0.000000
    127          9.129977   0.000000
    128          9.129978   0.000000
    129          9.498499   0.000000
    130          9.498500   0.000000
    131          9.563673   0.000000
    132          9.563673   0.000000
    133          9.892236   0.000000
    134          9.892237   0.000000
    135         10.136536   0.000000
    136         10.136536   0.000000
    137         10.236001   0.000000
    138         10.236002   0.000000
    139         10.480070   0.000000
    140         10.480072   0.000000
    141         10.965726   0.000000

 -0.1428571E+00  0.5000000E+00  0.4285714E+00  0.1020408E-01
      1        -25.454407   1.000000
      2        -25.454401   1.000000
      3        -25.453281   1.000000
      4        -25.453276   1.000000
      5        -25.441004   1.000000
      6        -25.440999   1.000000
      7        -25.440879   1.000000
      8        -25.440873   1.000000
      9        -25.411945   1.000000
     10        -25.411940   1.000000
     11        -25.411845   1.000000
     12        -25.411840   1.000000
     13        -25.389238   1.000000
     14        -25.389232   1.000000
     15        -25.389102   1.000000
     16        -25.389097   1.000000
     17        -25.383955   1.000000
     18        -25.383949   1.000000
     19        -25.383802   1.000000
     20        -25.383796   1.000000
     21        -12.410926   1.000000
     22        -12.410926   1.000000
     23        -12.095982   1.000000
     24        -12.095981   1.000000
     25        -11.329840   1.000000
     26        -11.329840   1.000000
     27        -11.179003   1.000000
     28        -11.179002   1.000000
     29        -10.936721   1.000000
     30        -10.936720   1.000000
     31        -10.876786   1.000000
     32        -10.876785   1.000000
     33         -5.940297   1.000000
     34         -5.940297   1.000000
     35         -5.785173   1.000000
     36         -5.785172   1.000000
     37         -2.654416   1.000000
     38         -2.654416   1.000000
     39         -2.280837   1.000000
     40         -2.280836   1.000000
     41         -2.167868   1.000000
     42         -2.167867   1.000000
     43         -1.835280   1.000000
     44         -1.835280   1.000000
     45         -1.569018   1.000000
     46         -1.569018   1.000000
     47         -1.330048   1.000000
     48         -1.330048   1.000000
     49         -1.275751   1.000000
     50         -1.275751   1.000000
     51         -0.990988   1.000000
     52         -0.990988   1.000000
     53         -0.913600   1.000000
     54         -0.913600   1.000000
     55         -0.845664   1.000000
     56         -0.845663   1.000000
     57         -0.640756   1.000000
     58         -0.640756   1.000000
     59         -0.580863   1.000000
     60         -0.580862   1.000000
     61         -0.548262   1.000000
     62         -0.548262   1.000000
     63         -0.506972   1.000000
     64         -0.506972   1.000000
     65         -0.429068   1.000000
     66         -0.429068   1.000000
     67         -0.401069   1.000000
     68         -0.401068   1.000000
     69          0.502078   1.000000
     70          0.502079   1.000000
     71          0.524753   1.000000
     72          0.524753   1.000000
     73          0.576047   1.000000
     74          0.576048   1.000000
     75          0.598324   1.000000
     76          0.598325   1.000000
     77          0.635645   1.000000
     78          0.635646   1.000000
     79          0.643368   1.000000
     80          0.643368   1.000000
     81          0.691396   1.000000
     82          0.691397   1.000000
     83          0.745173   1.000000
     84          0.745174   1.000000
     85          0.959930   1.000000
     86          0.959930   1.000000
     87          1.085793   1.000000
     88          1.085794   1.000000
     89          1.143161   1.000000
     90          1.143162   1.000000
     91          1.253161   1.000000
     92          1.253163   1.000000
     93          1.531619   1.000000
     94          1.531619   1.000000
     95          1.628656   1.000000
     96          1.628657   1.000000
     97          1.812966   1.000000
     98          1.812967   1.000000
     99          1.982899   1.000000
    100          1.982899   1.000000
    101          2.192025   1.000000
    102          2.192026   1.000000
    103          2.281091   1.000000
    104          2.281091   1.000000
    105          2.394078   1.000000
    106          2.394080   1.000000
    107          3.004396   1.000000
    108          3.004397   1.000000
    109          5.166800   0.000000
    110          5.166800   0.000000
    111          5.379897   0.000000
    112          5.379897   0.000000
    113          6.654792   0.000000
    114          6.654792   0.000000
    115          6.809275   0.000000
    116          6.809275   0.000000
    117          7.395560   0.000000
    118          7.395561   0.000000
    119          7.731464   0.000000
    120          7.731464   0.000000
    121          8.073962   0.000000
    122          8.073962   0.000000
    123          8.653935   0.000000
    124          8.653935   0.000000
    125          9.033071   0.000000
    126          9.033072   0.000000
    127          9.106145   0.000000
    128          9.106145   0.000000
    129          9.444238   0.000000
    130          9.444238   0.000000
    131          9.574141   0.000000
    132          9.574142   0.000000
    133          9.815879   0.000000
    134          9.815879   0.000000
    135         10.084147   0.000000
    136         10.084148   0.000000
    137         10.279402   0.000000
    138         10.279403   0.000000
    139         10.692233   0.000000
    140         10.693549   0.000000
    141         10.923737   0.000000
