       N       E                     dE             d eps       ncg     rms          rms(c)
DAV:   1    -0.898776323172E+04   -0.89878E+04   -0.83651E+04 27234   0.258E+03
DAV:   2    -0.112670724370E+05   -0.22793E+04   -0.21427E+04 21150   0.847E+02
DAV:   3    -0.118825435706E+05   -0.61547E+03   -0.57545E+03 21816   0.257E+02
DAV:   4    -0.119656534647E+05   -0.83110E+02   -0.80927E+02 28134   0.972E+01
DAV:   5    -0.113143188548E+03    0.11853E+05   -0.11237E+02 27954   0.841E+01    0.159E+01
DAV:   6    -0.112891509824E+03    0.25168E+00   -0.92093E+00 30042   0.148E+01    0.113E+01
DAV:   7    -0.112431050984E+03    0.46046E+00   -0.33755E+00 30438   0.184E+01    0.769E+00
DAV:   8    -0.112442973222E+03   -0.11922E-01   -0.10194E+00 32220   0.565E+00    0.470E+00
DAV:   9    -0.112408839780E+03    0.34133E-01   -0.70272E-02 30780   0.186E+00    0.269E+00
DAV:  10    -0.112394552351E+03    0.14287E-01   -0.31238E-02 32562   0.139E+00    0.133E+00
DAV:  11    -0.112392548395E+03    0.20040E-02   -0.99848E-03 30591   0.531E-01    0.681E-01
DAV:  12    -0.112392060099E+03    0.48830E-03   -0.17353E-03 31410   0.259E-01    0.368E-01
DAV:  13    -0.112392016474E+03    0.43625E-04   -0.55173E-04 31608   0.133E-01    0.201E-01
DAV:  14    -0.112392100108E+03   -0.83634E-04   -0.24118E-04 27738   0.524E-02    0.106E-01
DAV:  15    -0.112392174695E+03   -0.74587E-04   -0.61089E-05 28503   0.343E-02    0.604E-02
DAV:  16    -0.112392218690E+03   -0.43994E-04   -0.21568E-05 28188   0.286E-02    0.353E-02
DAV:  17    -0.112392243690E+03   -0.25000E-04   -0.11397E-05 26010   0.208E-02    0.218E-02
DAV:  18    -0.112392257361E+03   -0.13671E-04   -0.55064E-06 22374   0.135E-02    0.143E-02
DAV:  19    -0.112392264529E+03   -0.71683E-05   -0.22257E-06 17334   0.106E-02    0.939E-03
DAV:  20    -0.112392268192E+03   -0.36626E-05   -0.15130E-06 16056   0.110E-02    0.621E-03
DAV:  21    -0.112392270087E+03   -0.18950E-05   -0.14413E-06 14553   0.131E-02    0.421E-03
DAV:  22    -0.112392271080E+03   -0.99315E-06   -0.12495E-06 12897   0.132E-02
   1 F= -.11239227E+03 E0= -.11239227E+03  d E =-.255764E-13
