Cu8 Ge4 Se12
1.0
   6.8069765135663491    0.0000000000000000    0.0000000000000000
   0.0000000000000000   11.9190801698664917    0.0000000000000000
  -2.1747650599535131    0.0000000000000000    6.4591221236745602
Cu Ge Se
8 4 12
direct
   0.9198538516884189    0.7472043301126838    0.0057588758636198 Cu
   0.4198538516884189    0.7527956698873162    0.5057588758636198 Cu
   0.9343875960001993    0.9136500136005239    0.5094819460143754 Cu
   0.4343875960001993    0.5863499863994761    0.0094819460143754 Cu
   0.4198538516884189    0.2472043301126838    0.0057588758636198 Cu
   0.9198538516884189    0.2527956698873162    0.5057588758636198 Cu
   0.4343875960001993    0.4136500136005239    0.5094819460143754 Cu
   0.9343875960001993    0.0863499863994761    0.0094819460143754 Cu
   0.9058299913501207    0.5858493369277474    0.4861107073377723 Ge
   0.4058299913501207    0.9141506630722526    0.9861107073377723 Ge
   0.4058299913501207    0.0858493369277475    0.4861107073377723 Ge
   0.9058299913501207    0.4141506630722525    0.9861107073377723 Ge
   0.5430116127009937    0.5844358970915450    0.3841527191939773 Se
   0.0430116127009939    0.9155641029084550    0.8841527191939773 Se
   0.5451036142731882    0.7547021156974125    0.8783516417464838 Se
   0.0451036142731882    0.7452978843025875    0.3783516417464838 Se
   0.5471697839871119    0.9187997160009722    0.3693296738437650 Se
   0.0471697839871119    0.5812002839990278    0.8693296738437650 Se
   0.0430116127009939    0.0844358970915451    0.3841527191939773 Se
   0.5430116127009939    0.4155641029084549    0.8841527191939773 Se
   0.0451036142731882    0.2547021156974125    0.8783516417464838 Se
   0.5451036142731882    0.2452978843025875    0.3783516417464838 Se
   0.0471697839871119    0.4187997160009722    0.3693296738437650 Se
   0.5471697839871119    0.0812002839990278    0.8693296738437650 Se
