Cu4 Ge2 Se6
1.0
   3.4034882567831746    5.9595400849332449    0.0000000000000000
  -3.4034882567831746    5.9595400849332449    0.0000000000000000
  -2.1747650599535127    0.0000000000000000    6.4591221236745584
Cu Ge Se
4 2 6
direct
   1.6670581818011028   -0.1726495215757351    0.0057588758636199 Cu
   1.1726495215757351    0.3329418181988972    0.5057588758636199 Cu
   1.8480376096007236   -0.0207375823996758    0.5094819460143754 Cu
   1.0207375823996758    0.1519623903992764    0.0094819460143754 Cu
   1.4916793282778684   -0.3199806544223733    0.4861107073377724 Ge
   1.3199806544223733    0.5083206717221316    0.9861107073377724 Ge
   1.1274475097925389    0.0414242843905512    0.3841527191939773 Se
   0.9585757156094488    0.8725524902074611    0.8841527191939773 Se
   1.2998057299706010    0.2095985014242242    0.8783516417464838 Se
   0.7904014985757759    0.7001942700293990    0.3783516417464838 Se
   1.4659694999880841    0.3716299320138603    0.3693296738437650 Se
   0.6283700679861397    0.5340305000119159    0.8693296738437650 Se
