Cu4 Ge2 Se6                             
   1.0000000000000000     
    -6.8067505245114805    0.0000000000000000   -0.0442070249294077
    -3.4033752622557403   -5.9595064567608613   -0.0221035124647040
    -2.2166299279099051    0.0000000000000000    6.4449331324283907
  Cu/0e71e558f37  Ge_d/944b26c40  Se/eabb916e6b4
               4               2               6
Direct
  0.8273512056822128  0.5056044224792799  0.0057515969595130
  0.3329556356614916  0.4943955625207224  0.5057515689595249
  0.9792435007305684  0.1727096641039481  0.5094932114038642
  0.1519531648345378  0.8272903358960519  0.0094932114038642
  0.6800249804495024  0.8282970292455403  0.4861109571405891
  0.5083220096950427  0.1717029707544526  0.9861109271405866
  0.0414307333038337  0.8311258499927874  0.3841580412238059
  0.8725565907966200  0.1688741350072149  0.8841580112238105
  0.2095994982962566  0.4905940378468117  0.8783461094566078
  0.7001935361430753  0.5094059621531954  0.3783461094566078
  0.3716322592141807  0.1623917409785065  0.3693256478156286
  0.5340240001926801  0.8376082590214935  0.8693256188156298

 -0.00000000E+00  0.00000000E+00  0.00000000E+00
 -0.00000000E+00  0.00000000E+00  0.00000000E+00
 -0.00000000E+00  0.00000000E+00  0.00000000E+00
 -0.00000000E+00  0.00000000E+00  0.00000000E+00
 -0.00000000E+00  0.00000000E+00  0.00000000E+00
 -0.00000000E+00  0.00000000E+00  0.00000000E+00
 -0.00000000E+00  0.00000000E+00  0.00000000E+00
 -0.00000000E+00  0.00000000E+00  0.00000000E+00
 -0.00000000E+00  0.00000000E+00  0.00000000E+00
 -0.00000000E+00  0.00000000E+00  0.00000000E+00
 -0.00000000E+00  0.00000000E+00  0.00000000E+00
 -0.00000000E+00  0.00000000E+00  0.00000000E+00
