Cu4 Ge2 Se6                             
   1.0000000000000000     
    -6.8067505245114805    0.0000000000000000   -0.0442070249294077
    -3.4033752622557403   -5.9595064567608613   -0.0221035124647040
    -2.2166299279099051    0.0000000000000000    6.4449331324283907
  Cu  Ge Se
               4               2               6
Direct
  0.8273512056822111  0.5056044224792833  0.0057515969595115
  0.3329556356614931  0.4943955625207191  0.5057515689595234
  0.9792435007305701  0.1727096641039503  0.5094932114038624
  0.1519531648345347  0.8272903358960497  0.0094932114038624
  0.6800249804495044  0.8282970292455397  0.4861109571405863
  0.5083220096950442  0.1717029707544532  0.9861109271405838
  0.0414307333038332  0.8311258499927847  0.3841580412238029
  0.8725565907966168  0.1688741350072175  0.8841580112238074
  0.2095994982962557  0.4905940378468138  0.8783461094566106
  0.7001935361430767  0.5094059621531932  0.3783461094566106
  0.3716322592141801  0.1623917409785093  0.3693256478156277
  0.5340240001926824  0.8376082590214907  0.8693256188156289

 -0.00000000E+00  0.00000000E+00  0.00000000E+00
 -0.00000000E+00  0.00000000E+00  0.00000000E+00
 -0.00000000E+00  0.00000000E+00  0.00000000E+00
 -0.00000000E+00  0.00000000E+00  0.00000000E+00
 -0.00000000E+00  0.00000000E+00  0.00000000E+00
 -0.00000000E+00  0.00000000E+00  0.00000000E+00
 -0.00000000E+00  0.00000000E+00  0.00000000E+00
 -0.00000000E+00  0.00000000E+00  0.00000000E+00
 -0.00000000E+00  0.00000000E+00  0.00000000E+00
 -0.00000000E+00  0.00000000E+00  0.00000000E+00
 -0.00000000E+00  0.00000000E+00  0.00000000E+00
 -0.00000000E+00  0.00000000E+00  0.00000000E+00
