GCCcore/11.3.0
zlib/1.2.12-GCCcore-11.3.0
binutils/2.38-GCCcore-11.3.0
GCC/11.3.0
numactl/2.0.14-GCCcore-11.3.0
XZ/5.2.5-GCCcore-11.3.0
libxml2/2.9.13-GCCcore-11.3.0
libpciaccess/0.16-GCCcore-11.3.0
hwloc/2.7.1-GCCcore-11.3.0
OpenSSL/1.1
libevent/2.1.12-GCCcore-11.3.0
UCX/1.12.1-GCCcore-11.3.0
libfabric/1.15.1-GCCcore-11.3.0
PMIx/4.1.2-GCCcore-11.3.0
UCC/1.0.0-GCCcore-11.3.0
OpenMPI/4.1.4-GCC-11.3.0
OpenBLAS/0.3.20-GCC-11.3.0
FlexiBLAS/3.2.0-GCC-11.3.0
FFTW/3.3.10-GCC-11.3.0
gompi/2022a
FFTW.MPI/3.3.10-gompi-2022a
ScaLAPACK/2.2.0-gompi-2022a-fb
foss/2022a
Szip/2.1.1-GCCcore-11.3.0
HDF5/1.13.1-gompi-2022a
The use of VASP is restricted. You must be a member of the correct Unix group for VASP to work.

VASP/6.4.2-foss-2022a
 running   56 mpi-ranks, with    1 threads/rank, on    2 nodes
 distrk:  each k-point on   56 cores,    1 groups
 distr:  one band on    1 cores,   56 groups
 vasp.6.4.2 20Jul23 (build Oct 17 2023 11:49:23) complex                         
 POSCAR found type information on POSCAR CuGeSe
 POSCAR found :  3 types and      12 ions
 Reading from existing POTCAR
 scaLAPACK will be used
 Reading from existing POTCAR
 LDA part: xc-table for Pade appr. of Perdew
 -----------------------------------------------------------------------------
|                                                                             |
|           W    W    AA    RRRRR   N    N  II  N    N   GGGG   !!!           |
|           W    W   A  A   R    R  NN   N  II  NN   N  G    G  !!!           |
|           W    W  A    A  R    R  N N  N  II  N N  N  G       !!!           |
|           W WW W  AAAAAA  RRRRR   N  N N  II  N  N N  G  GGG   !            |
|           WW  WW  A    A  R   R   N   NN  II  N   NN  G    G                |
|           W    W  A    A  R    R  N    N  II  N    N   GGGG   !!!           |
|                                                                             |
|     The requested file  could not be found or opened for reading            |
|     k-point information. Automatic k-point generation is used as a          |
|     fallback, which may lead to unwanted results.                           |
|                                                                             |
 -----------------------------------------------------------------------------

 -----------------------------------------------------------------------------
|                                                                             |
|           W    W    AA    RRRRR   N    N  II  N    N   GGGG   !!!           |
|           W    W   A  A   R    R  NN   N  II  NN   N  G    G  !!!           |
|           W    W  A    A  R    R  N N  N  II  N N  N  G       !!!           |
|           W WW W  AAAAAA  RRRRR   N  N N  II  N  N N  G  GGG   !            |
|           WW  WW  A    A  R   R   N   NN  II  N   NN  G    G                |
|           W    W  A    A  R    R  N    N  II  N    N   GGGG   !!!           |
|                                                                             |
|     The number of bands has been changed from the values supplied in        |
|     the INCAR file. This is a result of running the parallel version.       |
|     The orbitals not found in the WAVECAR file will be initialized with     |
|     random numbers, which is usually adequate. For correlated               |
|     calculations, however, you should redo the groundstate calculation.     |
|     I found NBANDS = 108. Now, NBANDS = 112.                                |
|                                                                             |
 -----------------------------------------------------------------------------

 INCAR ok, starting setup
 POSCAR ok, starting setup
 FFT: planning ... GRIDC
 FFT: planning ... GRID_SOFT
 FFT: planning ... GRID
 WAVECAR not read
 entering main loop
       N       E                     dE             d eps       ncg     rms          rms(c)
DAV:   1    -0.528759433807E+04   -0.52876E+04   -0.48029E+04  8736   0.162E+03
DAV:   2    -0.593003576343E+04   -0.64244E+03   -0.58622E+03  9464   0.335E+02
DAV:   3    -0.598386166382E+04   -0.53826E+02   -0.53404E+02 12376   0.710E+01
DAV:   4    -0.598486131022E+04   -0.99965E+00   -0.99955E+00  9912   0.998E+00
DAV:   5    -0.568687111858E+02    0.59280E+04   -0.36878E+01 12208   0.488E+01    0.112E+01
DAV:   6    -0.563802288669E+02    0.48848E+00   -0.20453E+00 15120   0.509E+00    0.823E+00
DAV:   7    -0.562492306308E+02    0.13100E+00   -0.78934E-01 13216   0.851E+00    0.526E+00
DAV:   8    -0.562190101275E+02    0.30221E-01   -0.19888E-01 13104   0.283E+00    0.324E+00
DAV:   9    -0.562007451272E+02    0.18265E-01   -0.17348E-02 13104   0.490E-01    0.179E+00
DAV:  10    -0.561955075358E+02    0.52376E-02   -0.54687E-03 13104   0.331E-01    0.909E-01
DAV:  11    -0.561942616531E+02    0.12459E-02   -0.12745E-03 13104   0.165E-01    0.480E-01
DAV:  12    -0.561939803710E+02    0.28128E-03   -0.41048E-04 13104   0.672E-02    0.257E-01
DAV:  13    -0.561939693163E+02    0.11055E-04   -0.15120E-04 13104   0.406E-02    0.138E-01
DAV:  14    -0.561940091786E+02   -0.39862E-04   -0.56284E-05 13104   0.207E-02    0.767E-02
DAV:  15    -0.561940437863E+02   -0.34608E-04   -0.20295E-05 13104   0.131E-02    0.436E-02
DAV:  16    -0.561940658704E+02   -0.22084E-04   -0.87772E-06 13104   0.805E-03    0.257E-02
DAV:  17    -0.561940785862E+02   -0.12716E-04   -0.39193E-06 13104   0.505E-03    0.159E-02
DAV:  18    -0.561940855123E+02   -0.69260E-05   -0.17879E-06 13104   0.336E-03    0.102E-02
DAV:  19    -0.561940891736E+02   -0.36613E-05   -0.83468E-07 13104   0.226E-03    0.677E-03
DAV:  20    -0.561940910738E+02   -0.19002E-05   -0.37671E-07 10864   0.152E-03    0.450E-03
DAV:  21    -0.561940920518E+02   -0.97800E-06   -0.20721E-07 10752   0.119E-03
   1 F= -.56194092E+02 E0= -.56194092E+02  d E =0.000000E+00
 writing wavefunctions
 optical routines
 imaginary and real dielectric function
 recalculating local potential from charge density
 direction            1
 direction            2
 direction            3
