unknown system                          
           1
    -6.806751    0.000000   -0.044207
    -3.403375   -5.959506   -0.022104
    -2.216630    0.000000    6.444933
   Cu   Ge   Se
     4     2     6
Direct configuration=     1
   0.82735121  0.50560442  0.00575160
   0.33295564  0.49439556  0.50575157
   0.97924350  0.17270966  0.50949321
   0.15195316  0.82729034  0.00949321
   0.68002498  0.82829703  0.48611096
   0.50832201  0.17170297  0.98611093
   0.04143073  0.83112585  0.38415804
   0.87255659  0.16887414  0.88415801
   0.20959950  0.49059404  0.87834611
   0.70019354  0.50940596  0.37834611
   0.37163226  0.16239174  0.36932565
   0.53402400  0.83760826  0.86932562
