Cu2 Ge1 Se3                             
   1.00000000000000     
    -1.9771264606295762    5.8912097426381065    2.8124804756862534
     1.9771264606295762   -5.8912097426381065    2.8124804756862534
     1.9771264606295762    5.8912097426381065   -2.8124804756862534
   Cu   Ge   Se
     2     1     3
Direct
     0.4283927529377962    0.2620496233119098    0.1663431296258864
     0.0957064936860306    0.2620496233119098    0.8336568703741136
     0.7280304405879221    0.2280304405879221    0.5000000000000000
     0.3379363127095871    0.0057376340177626    0.3321986786918316
     0.6735389553259310    0.0057376340177626    0.6678013213081684
     0.9983990747527045    0.9983990747527045    0.0000000000000000
 
  0.00000000E+00  0.00000000E+00  0.00000000E+00
  0.00000000E+00  0.00000000E+00  0.00000000E+00
  0.00000000E+00  0.00000000E+00  0.00000000E+00
  0.00000000E+00  0.00000000E+00  0.00000000E+00
  0.00000000E+00  0.00000000E+00  0.00000000E+00
  0.00000000E+00  0.00000000E+00  0.00000000E+00
