       N       E                     dE             d eps       ncg     rms          ort
DAV:   1    -0.247524782578E+04   -0.24752E+04   -0.25379E+04 22496   0.295E+03
DAV:   2    -0.291101869816E+04   -0.43577E+03   -0.42625E+03 22496   0.721E+02
DAV:   3    -0.298806169522E+04   -0.77043E+02   -0.76318E+02 22496   0.203E+02
DAV:   4    -0.299225254768E+04   -0.41909E+01   -0.41795E+01 22496   0.492E+01
DAV:   5    -0.283366615223E+02    0.29639E+04   -0.23438E+01 22496   0.876E+01
SDA:   6    -0.271193014459E+02    0.12174E+01   -0.23438E+01 22496   0.376E+01 0.000E+00
CGA:   7    -0.278083542758E+02   -0.68905E+00   -0.69139E+00 22496   0.173E+01-0.483E-01
CGA:   8    -0.279460155290E+02   -0.13766E+00   -0.13799E+00 22496   0.373E+00-0.225E-02
CGA:   9    -0.280222904609E+02   -0.76275E-01   -0.76361E-01 22496   0.142E+00-0.134E-02
CGA:  10    -0.280560221719E+02   -0.33732E-01   -0.33770E-01 22496   0.482E-01-0.398E-03
CGA:  11    -0.280666310647E+02   -0.10609E-01   -0.10620E-01 22496   0.180E-01-0.148E-03
CGA:  12    -0.280717455314E+02   -0.51145E-02   -0.51198E-02 22496   0.756E-02-0.368E-04
CGA:  13    -0.280729623989E+02   -0.12169E-02   -0.12169E-02 22496   0.518E-02 0.154E-04
CGA:  14    -0.280735523434E+02   -0.58994E-03   -0.58997E-03 22496   0.159E-02 0.596E-05
CGA:  15    -0.280739356766E+02   -0.38333E-03   -0.38183E-03 22496   0.414E-03 0.195E-04
CGA:  16    -0.280740388544E+02   -0.10318E-03   -0.10281E-03 22496   0.140E-03 0.468E-05
CGA:  17    -0.280740685424E+02   -0.29688E-04   -0.29647E-04 22496   0.117E-03 0.124E-05
CGA:  18    -0.280740813341E+02   -0.12792E-04   -0.12772E-04 22496   0.335E-04-0.487E-07
CGA:  19    -0.280740887149E+02   -0.73808E-05   -0.73649E-05 22496   0.119E-04 0.306E-06
CGA:  20    -0.280740915565E+02   -0.28415E-05   -0.28407E-05 22496   0.572E-05 0.412E-08
CGA:  21    -0.280740924726E+02   -0.91619E-06   -0.91259E-06 22496   0.431E-05-0.234E-06
   1 F= -.28074092E+02 E0= -.28074092E+02  d E =-.274751E-10
