Cu2 Ge1 Se3
1.0
  -1.9771264606295762    5.8912097426381065    2.8124804756862534
   1.9771264606295762   -5.8912097426381065    2.8124804756862534
   1.9771264606295762    5.8912097426381065   -2.8124804756862534
Cu Ge Se
2 1 3
direct
   1.4283927529377962    1.2620496233119134    1.1663431296258828 Cu
   1.0957064936860306    0.2620496233119134    0.8336568703741172 Cu
   0.7280304405879225    1.2280304405879225    0.5000000000000000 Ge
   1.3379363127095880    1.0057376340177591    1.3321986786918290 Se
   0.6735389553259302    0.0057376340177591    0.6678013213081712 Se
   0.9983990747527045    0.9983990747527045    0.0000000000000000 Se
