GCCcore/11.3.0
zlib/1.2.12-GCCcore-11.3.0
binutils/2.38-GCCcore-11.3.0
GCC/11.3.0
numactl/2.0.14-GCCcore-11.3.0
XZ/5.2.5-GCCcore-11.3.0
libxml2/2.9.13-GCCcore-11.3.0
libpciaccess/0.16-GCCcore-11.3.0
hwloc/2.7.1-GCCcore-11.3.0
OpenSSL/1.1
libevent/2.1.12-GCCcore-11.3.0
UCX/1.12.1-GCCcore-11.3.0
libfabric/1.15.1-GCCcore-11.3.0
PMIx/4.1.2-GCCcore-11.3.0
UCC/1.0.0-GCCcore-11.3.0
OpenMPI/4.1.4-GCC-11.3.0
OpenBLAS/0.3.20-GCC-11.3.0
FlexiBLAS/3.2.0-GCC-11.3.0
FFTW/3.3.10-GCC-11.3.0
gompi/2022a
FFTW.MPI/3.3.10-gompi-2022a
ScaLAPACK/2.2.0-gompi-2022a-fb
foss/2022a
Szip/2.1.1-GCCcore-11.3.0
HDF5/1.13.1-gompi-2022a
The use of VASP is restricted. You must be a member of the correct Unix group for VASP to work.

VASP/6.4.2-foss-2022a
 running   52 mpi-ranks, with    1 threads/rank, on    2 nodes
 distrk:  each k-point on   13 cores,    4 groups
 distr:  one band on    1 cores,   13 groups
 vasp.6.4.2 20Jul23 (build Oct 17 2023 11:49:23) complex                         
 POSCAR found type information on POSCAR CuGeSe
 POSCAR found :  3 types and       6 ions
 Reading from existing POTCAR
 scaLAPACK will be used
 Reading from existing POTCAR
 LDA part: xc-table for Pade appr. of Perdew
 POSCAR, INCAR and KPOINTS ok, starting setup
 FFT: planning ... GRIDC
 FFT: planning ... GRID_SOFT
 FFT: planning ... GRID
 WAVECAR not read
 entering main loop
       N       E                     dE             d eps       ncg     rms          ort
DAV:   1    -0.255002504434E+04   -0.25500E+04   -0.26645E+04 29796   0.255E+03
DAV:   2    -0.293849408838E+04   -0.38847E+03   -0.36756E+03 29796   0.538E+02
DAV:   3    -0.299033275892E+04   -0.51839E+02   -0.51089E+02 29796   0.137E+02
DAV:   4    -0.299236401981E+04   -0.20313E+01   -0.20299E+01 29796   0.295E+01
DAV:   5    -0.283853705186E+02    0.29640E+04   -0.21057E+01 29796   0.710E+01
 gam= 0.000 g(H,U,f)=  0.189E+01 0.111E+01 0.363E-15 ort(H,U,f) = 0.000E+00 0.000E+00 0.000E+00
SDA:   6    -0.271259705970E+02    0.12594E+01   -0.21057E+01 29796   0.300E+01 0.000E+00
 gam= 0.000 trial= 0.300  step= 0.504 mean= 0.300
 gam= 0.174 g(H,U,f)=  0.418E+00 0.105E+00 0.190E-20 ort(H,U,f) =-0.348E+00 0.297E+00-0.539E-19
CGA:   7    -0.278767336762E+02   -0.75076E+00   -0.75668E+00 29796   0.523E+00-0.511E-01
 gam= 0.174 trial= 0.310  step= 0.421 mean= 0.310
 gam= 0.582 g(H,U,f)=  0.263E+00 0.407E-01 0.290E-18 ort(H,U,f) =-0.946E-01 0.933E-01-0.407E-18
CGA:   8    -0.279848484082E+02   -0.10811E+00   -0.10821E+00 29796   0.304E+00-0.133E-02
slurmstepd: error: *** JOB 31982895 ON bear-pg0104u15b CANCELLED AT 2025-12-04T08:29:31 DUE TO TIME LIMIT ***
