<?xml version="1.0" encoding="ISO-8859-1"?>
<modeling>
 <generator>
  <i name="program" type="string">vasp </i>
  <i name="version" type="string">6.4.2  </i>
  <i name="subversion" type="string">20Jul23 (build Oct 17 2023 11:49:23) complex                          parallel </i>
  <i name="platform" type="string">LinuxGNU </i>
  <i name="date" type="string">2025 11 26 </i>
  <i name="time" type="string">00:29:54 </i>
 </generator>
 <incar>
  <i type="string" name="PREC">Accurate</i>
  <i type="string" name="ALGO">All</i>
  <i type="int" name="ISPIN">     1</i>
  <i type="int" name="NELM">   200</i>
  <i type="int" name="NELMIN">     2</i>
  <i type="int" name="IBRION">     1</i>
  <i name="EDIFF">      0.00000100</i>
  <i name="EDIFFG">     -0.01000000</i>
  <i type="int" name="NSW">     0</i>
  <i type="int" name="ISYM">     3</i>
  <i name="ENCUT">    500.00000000</i>
  <i type="int" name="NEDOS">  3000</i>
  <i type="logical" name="LREAL"> F  </i>
  <i name="TIME">      0.30000000</i>
  <i type="int" name="ISMEAR">     0</i>
  <i name="SIGMA">      0.02000000</i>
  <i name="KSPACING">      0.15000000</i>
  <i type="int" name="LMAXMIX">     4</i>
  <i type="int" name="LORBIT">    14</i>
  <i type="logical" name="LASPH"> T  </i>
  <i type="int" name="ICORELEVEL">     1</i>
  <i name="HFSCREEN">      0.20800000</i>
  <i type="logical" name="LHFCALC"> T  </i>
  <i type="string" name="GGA">Pe</i>
  <i name="AEXX">      0.25000000</i>
  <i type="string" name="PRECFOCK">Fast</i>
 </incar>
 <primitive_cell>
  <structure name="primitive_cell" >
   <crystal>
    <varray name="basis" >
     <v>      -1.97712646       5.89120974       2.81248048 </v>
     <v>       1.97712646      -5.89120974       2.81248048 </v>
     <v>       1.97712646       5.89120974      -2.81248048 </v>
    </varray>
    <i name="volume">    131.03534036 </i>
    <varray name="rec_basis" >
     <v>       0.00000000       0.08487221       0.17777901 </v>
     <v>       0.25289227       0.00000000       0.17777901 </v>
     <v>       0.25289227       0.08487221      -0.00000000 </v>
    </varray>
   </crystal>
   <varray name="positions" >
    <v>       0.42839275       0.26204962       0.16634313 </v>
    <v>       0.09570649       0.26204962       0.83365687 </v>
    <v>       0.72803044       0.22803044       0.50000000 </v>
    <v>       0.33793631       0.00573763       0.33219868 </v>
    <v>       0.67353896       0.00573763       0.66780132 </v>
    <v>       0.99839907       0.99839907       1.00000000 </v>
   </varray>
  </structure>
  <varray name="primitive_index" >
   <v type="int" >        1 </v>
   <v type="int" >        2 </v>
   <v type="int" >        3 </v>
   <v type="int" >        4 </v>
   <v type="int" >        5 </v>
   <v type="int" >        6 </v>
  </varray>
 </primitive_cell>
 <kpoints>
  <varray name="kpointlist" >
   <v>       0.00000000       0.00000000       0.00000000 </v>
   <v>       0.11111111       0.00000000       0.00000000 </v>
   <v>       0.22222222       0.00000000       0.00000000 </v>
   <v>       0.33333333      -0.00000000       0.00000000 </v>
   <v>       0.44444444       0.00000000       0.00000000 </v>
   <v>       0.00000000       0.07692308      -0.00000000 </v>
   <v>       0.11111111       0.07692308       0.00000000 </v>
   <v>       0.22222222       0.07692308       0.00000000 </v>
   <v>       0.33333333       0.07692308       0.00000000 </v>
   <v>       0.44444444       0.07692308       0.00000000 </v>
   <v>      -0.44444444       0.07692308      -0.00000000 </v>
   <v>      -0.33333333       0.07692308      -0.00000000 </v>
   <v>      -0.22222222       0.07692308      -0.00000000 </v>
   <v>      -0.11111111       0.07692308      -0.00000000 </v>
   <v>       0.00000000       0.15384615      -0.00000000 </v>
   <v>       0.11111111       0.15384615       0.00000000 </v>
   <v>       0.22222222       0.15384615       0.00000000 </v>
   <v>       0.33333333       0.15384615       0.00000000 </v>
   <v>       0.44444444       0.15384615       0.00000000 </v>
   <v>      -0.44444444       0.15384615      -0.00000000 </v>
   <v>      -0.33333333       0.15384615      -0.00000000 </v>
   <v>      -0.22222222       0.15384615      -0.00000000 </v>
   <v>      -0.11111111       0.15384615      -0.00000000 </v>
   <v>      -0.00000000       0.23076923       0.00000000 </v>
   <v>       0.11111111       0.23076923       0.00000000 </v>
   <v>       0.22222222       0.23076923       0.00000000 </v>
   <v>       0.33333333       0.23076923       0.00000000 </v>
   <v>       0.44444444       0.23076923       0.00000000 </v>
   <v>      -0.44444444       0.23076923      -0.00000000 </v>
   <v>      -0.33333333       0.23076923      -0.00000000 </v>
   <v>      -0.22222222       0.23076923      -0.00000000 </v>
   <v>      -0.11111111       0.23076923      -0.00000000 </v>
   <v>       0.00000000       0.30769231      -0.00000000 </v>
   <v>       0.11111111       0.30769231      -0.00000000 </v>
   <v>       0.22222222       0.30769231       0.00000000 </v>
   <v>       0.33333333       0.30769231       0.00000000 </v>
   <v>       0.44444444       0.30769231       0.00000000 </v>
   <v>      -0.44444444       0.30769231      -0.00000000 </v>
   <v>      -0.33333333       0.30769231      -0.00000000 </v>
   <v>      -0.22222222       0.30769231      -0.00000000 </v>
   <v>      -0.11111111       0.30769231      -0.00000000 </v>
   <v>      -0.00000000       0.38461538       0.00000000 </v>
   <v>       0.11111111       0.38461538       0.00000000 </v>
   <v>       0.22222222       0.38461538       0.00000000 </v>
   <v>       0.33333333       0.38461538       0.00000000 </v>
   <v>       0.44444444       0.38461538       0.00000000 </v>
   <v>      -0.44444444       0.38461538      -0.00000000 </v>
   <v>      -0.33333333       0.38461538      -0.00000000 </v>
   <v>      -0.22222222       0.38461538       0.00000000 </v>
   <v>      -0.11111111       0.38461538       0.00000000 </v>
   <v>       0.00000000       0.46153846       0.00000000 </v>
   <v>       0.11111111       0.46153846       0.00000000 </v>
   <v>       0.22222222       0.46153846       0.00000000 </v>
   <v>       0.33333333       0.46153846       0.00000000 </v>
   <v>       0.44444444       0.46153846       0.00000000 </v>
   <v>      -0.44444444       0.46153846      -0.00000000 </v>
   <v>      -0.33333333       0.46153846      -0.00000000 </v>
   <v>      -0.22222222       0.46153846      -0.00000000 </v>
   <v>      -0.11111111       0.46153846      -0.00000000 </v>
   <v>      -0.00000000      -0.00000000       0.08333333 </v>
   <v>       0.11111111      -0.00000000       0.08333333 </v>
   <v>       0.22222222       0.00000000       0.08333333 </v>
   <v>       0.33333333      -0.00000000       0.08333333 </v>
   <v>       0.44444444      -0.00000000       0.08333333 </v>
   <v>      -0.44444444       0.00000000       0.08333333 </v>
   <v>      -0.33333333      -0.00000000       0.08333333 </v>
   <v>      -0.22222222      -0.00000000       0.08333333 </v>
   <v>      -0.11111111      -0.00000000       0.08333333 </v>
   <v>      -0.00000000       0.07692308       0.08333333 </v>
   <v>       0.11111111       0.07692308       0.08333333 </v>
   <v>       0.22222222       0.07692308       0.08333333 </v>
   <v>       0.33333333       0.07692308       0.08333333 </v>
   <v>       0.44444444       0.07692308       0.08333333 </v>
   <v>      -0.44444444       0.07692308       0.08333333 </v>
   <v>      -0.33333333       0.07692308       0.08333333 </v>
   <v>      -0.22222222       0.07692308       0.08333333 </v>
   <v>      -0.11111111       0.07692308       0.08333333 </v>
   <v>      -0.00000000       0.15384615       0.08333333 </v>
   <v>       0.11111111       0.15384615       0.08333333 </v>
   <v>       0.22222222       0.15384615       0.08333333 </v>
   <v>       0.33333333       0.15384615       0.08333333 </v>
   <v>       0.44444444       0.15384615       0.08333333 </v>
   <v>      -0.44444444       0.15384615       0.08333333 </v>
   <v>      -0.33333333       0.15384615       0.08333333 </v>
   <v>      -0.22222222       0.15384615       0.08333333 </v>
   <v>      -0.11111111       0.15384615       0.08333333 </v>
   <v>       0.00000000       0.23076923       0.08333333 </v>
   <v>       0.11111111       0.23076923       0.08333333 </v>
   <v>       0.22222222       0.23076923       0.08333333 </v>
   <v>       0.33333333       0.23076923       0.08333333 </v>
   <v>       0.44444444       0.23076923       0.08333333 </v>
   <v>      -0.44444444       0.23076923       0.08333333 </v>
   <v>      -0.33333333       0.23076923       0.08333333 </v>
   <v>      -0.22222222       0.23076923       0.08333333 </v>
   <v>      -0.11111111       0.23076923       0.08333333 </v>
   <v>       0.00000000       0.30769231       0.08333333 </v>
   <v>       0.11111111       0.30769231       0.08333333 </v>
   <v>       0.22222222       0.30769231       0.08333333 </v>
   <v>       0.33333333       0.30769231       0.08333333 </v>
   <v>       0.44444444       0.30769231       0.08333333 </v>
   <v>      -0.44444444       0.30769231       0.08333333 </v>
   <v>      -0.33333333       0.30769231       0.08333333 </v>
   <v>      -0.22222222       0.30769231       0.08333333 </v>
   <v>      -0.11111111       0.30769231       0.08333333 </v>
   <v>      -0.00000000       0.38461538       0.08333333 </v>
   <v>       0.11111111       0.38461538       0.08333333 </v>
   <v>       0.22222222       0.38461538       0.08333333 </v>
   <v>       0.33333333       0.38461538       0.08333333 </v>
   <v>       0.44444444       0.38461538       0.08333333 </v>
   <v>      -0.44444444       0.38461538       0.08333333 </v>
   <v>      -0.33333333       0.38461538       0.08333333 </v>
   <v>      -0.22222222       0.38461538       0.08333333 </v>
   <v>      -0.11111111       0.38461538       0.08333333 </v>
   <v>       0.00000000       0.46153846       0.08333333 </v>
   <v>       0.11111111       0.46153846       0.08333333 </v>
   <v>       0.22222222       0.46153846       0.08333333 </v>
   <v>       0.33333333       0.46153846       0.08333333 </v>
   <v>       0.44444444       0.46153846       0.08333333 </v>
   <v>      -0.44444444       0.46153846       0.08333333 </v>
   <v>      -0.33333333       0.46153846       0.08333333 </v>
   <v>      -0.22222222       0.46153846       0.08333333 </v>
   <v>      -0.11111111       0.46153846       0.08333333 </v>
   <v>      -0.00000000      -0.46153846       0.08333333 </v>
   <v>       0.11111111      -0.46153846       0.08333333 </v>
   <v>       0.22222222      -0.46153846       0.08333333 </v>
   <v>       0.33333333      -0.46153846       0.08333333 </v>
   <v>       0.44444444      -0.46153846       0.08333333 </v>
   <v>      -0.44444444      -0.46153846       0.08333333 </v>
   <v>      -0.33333333      -0.46153846       0.08333333 </v>
   <v>      -0.22222222      -0.46153846       0.08333333 </v>
   <v>      -0.11111111      -0.46153846       0.08333333 </v>
   <v>       0.00000000      -0.38461538       0.08333333 </v>
   <v>       0.11111111      -0.38461538       0.08333333 </v>
   <v>       0.22222222      -0.38461538       0.08333333 </v>
   <v>       0.33333333      -0.38461538       0.08333333 </v>
   <v>       0.44444444      -0.38461538       0.08333333 </v>
   <v>      -0.44444444      -0.38461538       0.08333333 </v>
   <v>      -0.33333333      -0.38461538       0.08333333 </v>
   <v>      -0.22222222      -0.38461538       0.08333333 </v>
   <v>      -0.11111111      -0.38461538       0.08333333 </v>
   <v>      -0.00000000      -0.30769231       0.08333333 </v>
   <v>       0.11111111      -0.30769231       0.08333333 </v>
   <v>       0.22222222      -0.30769231       0.08333333 </v>
   <v>       0.33333333      -0.30769231       0.08333333 </v>
   <v>       0.44444444      -0.30769231       0.08333333 </v>
   <v>      -0.44444444      -0.30769231       0.08333333 </v>
   <v>      -0.33333333      -0.30769231       0.08333333 </v>
   <v>      -0.22222222      -0.30769231       0.08333333 </v>
   <v>      -0.11111111      -0.30769231       0.08333333 </v>
   <v>      -0.00000000      -0.23076923       0.08333333 </v>
   <v>       0.11111111      -0.23076923       0.08333333 </v>
   <v>       0.22222222      -0.23076923       0.08333333 </v>
   <v>       0.33333333      -0.23076923       0.08333333 </v>
   <v>       0.44444444      -0.23076923       0.08333333 </v>
   <v>      -0.44444444      -0.23076923       0.08333333 </v>
   <v>      -0.33333333      -0.23076923       0.08333333 </v>
   <v>      -0.22222222      -0.23076923       0.08333333 </v>
   <v>      -0.11111111      -0.23076923       0.08333333 </v>
   <v>       0.00000000      -0.15384615       0.08333333 </v>
   <v>       0.11111111      -0.15384615       0.08333333 </v>
   <v>       0.22222222      -0.15384615       0.08333333 </v>
   <v>       0.33333333      -0.15384615       0.08333333 </v>
   <v>       0.44444444      -0.15384615       0.08333333 </v>
   <v>      -0.44444444      -0.15384615       0.08333333 </v>
   <v>      -0.33333333      -0.15384615       0.08333333 </v>
   <v>      -0.22222222      -0.15384615       0.08333333 </v>
   <v>      -0.11111111      -0.15384615       0.08333333 </v>
   <v>      -0.00000000      -0.07692308       0.08333333 </v>
   <v>       0.11111111      -0.07692308       0.08333333 </v>
   <v>       0.22222222      -0.07692308       0.08333333 </v>
   <v>       0.33333333      -0.07692308       0.08333333 </v>
   <v>       0.44444444      -0.07692308       0.08333333 </v>
   <v>      -0.44444444      -0.07692308       0.08333333 </v>
   <v>      -0.33333333      -0.07692308       0.08333333 </v>
   <v>      -0.22222222      -0.07692308       0.08333333 </v>
   <v>      -0.11111111      -0.07692308       0.08333333 </v>
   <v>       0.00000000      -0.00000000       0.16666667 </v>
   <v>       0.11111111      -0.00000000       0.16666667 </v>
   <v>       0.22222222      -0.00000000       0.16666667 </v>
   <v>       0.33333333       0.00000000       0.16666667 </v>
   <v>       0.44444444       0.00000000       0.16666667 </v>
   <v>      -0.44444444      -0.00000000       0.16666667 </v>
   <v>      -0.33333333      -0.00000000       0.16666667 </v>
   <v>      -0.22222222      -0.00000000       0.16666667 </v>
   <v>      -0.11111111      -0.00000000       0.16666667 </v>
   <v>      -0.00000000       0.07692308       0.16666667 </v>
   <v>       0.11111111       0.07692308       0.16666667 </v>
   <v>       0.22222222       0.07692308       0.16666667 </v>
   <v>       0.33333333       0.07692308       0.16666667 </v>
   <v>       0.44444444       0.07692308       0.16666667 </v>
   <v>      -0.44444444       0.07692308       0.16666667 </v>
   <v>      -0.33333333       0.07692308       0.16666667 </v>
   <v>      -0.22222222       0.07692308       0.16666667 </v>
   <v>      -0.11111111       0.07692308       0.16666667 </v>
   <v>       0.00000000       0.15384615       0.16666667 </v>
   <v>       0.11111111       0.15384615       0.16666667 </v>
   <v>       0.22222222       0.15384615       0.16666667 </v>
   <v>       0.33333333       0.15384615       0.16666667 </v>
   <v>       0.44444444       0.15384615       0.16666667 </v>
   <v>      -0.44444444       0.15384615       0.16666667 </v>
   <v>      -0.33333333       0.15384615       0.16666667 </v>
   <v>      -0.22222222       0.15384615       0.16666667 </v>
   <v>      -0.11111111       0.15384615       0.16666667 </v>
   <v>       0.00000000       0.23076923       0.16666667 </v>
   <v>       0.11111111       0.23076923       0.16666667 </v>
   <v>       0.22222222       0.23076923       0.16666667 </v>
   <v>       0.33333333       0.23076923       0.16666667 </v>
   <v>       0.44444444       0.23076923       0.16666667 </v>
   <v>      -0.44444444       0.23076923       0.16666667 </v>
   <v>      -0.33333333       0.23076923       0.16666667 </v>
   <v>      -0.22222222       0.23076923       0.16666667 </v>
   <v>      -0.11111111       0.23076923       0.16666667 </v>
   <v>      -0.00000000       0.30769231       0.16666667 </v>
   <v>       0.11111111       0.30769231       0.16666667 </v>
   <v>       0.22222222       0.30769231       0.16666667 </v>
   <v>       0.33333333       0.30769231       0.16666667 </v>
   <v>       0.44444444       0.30769231       0.16666667 </v>
   <v>      -0.44444444       0.30769231       0.16666667 </v>
   <v>      -0.33333333       0.30769231       0.16666667 </v>
   <v>      -0.22222222       0.30769231       0.16666667 </v>
   <v>      -0.11111111       0.30769231       0.16666667 </v>
   <v>      -0.00000000       0.38461538       0.16666667 </v>
   <v>       0.11111111       0.38461538       0.16666667 </v>
   <v>       0.22222222       0.38461538       0.16666667 </v>
   <v>       0.33333333       0.38461538       0.16666667 </v>
   <v>       0.44444444       0.38461538       0.16666667 </v>
   <v>      -0.44444444       0.38461538       0.16666667 </v>
   <v>      -0.33333333       0.38461538       0.16666667 </v>
   <v>      -0.22222222       0.38461538       0.16666667 </v>
   <v>      -0.11111111       0.38461538       0.16666667 </v>
   <v>      -0.00000000       0.46153846       0.16666667 </v>
   <v>       0.11111111       0.46153846       0.16666667 </v>
   <v>       0.22222222       0.46153846       0.16666667 </v>
   <v>       0.33333333       0.46153846       0.16666667 </v>
   <v>       0.44444444       0.46153846       0.16666667 </v>
   <v>      -0.44444444       0.46153846       0.16666667 </v>
   <v>      -0.33333333       0.46153846       0.16666667 </v>
   <v>      -0.22222222       0.46153846       0.16666667 </v>
   <v>      -0.11111111       0.46153846       0.16666667 </v>
   <v>      -0.00000000      -0.46153846       0.16666667 </v>
   <v>       0.11111111      -0.46153846       0.16666667 </v>
   <v>       0.22222222      -0.46153846       0.16666667 </v>
   <v>       0.33333333      -0.46153846       0.16666667 </v>
   <v>       0.44444444      -0.46153846       0.16666667 </v>
   <v>      -0.44444444      -0.46153846       0.16666667 </v>
   <v>      -0.33333333      -0.46153846       0.16666667 </v>
   <v>      -0.22222222      -0.46153846       0.16666667 </v>
   <v>      -0.11111111      -0.46153846       0.16666667 </v>
   <v>       0.00000000      -0.38461538       0.16666667 </v>
   <v>       0.11111111      -0.38461538       0.16666667 </v>
   <v>       0.22222222      -0.38461538       0.16666667 </v>
   <v>       0.33333333      -0.38461538       0.16666667 </v>
   <v>       0.44444444      -0.38461538       0.16666667 </v>
   <v>      -0.44444444      -0.38461538       0.16666667 </v>
   <v>      -0.33333333      -0.38461538       0.16666667 </v>
   <v>      -0.22222222      -0.38461538       0.16666667 </v>
   <v>      -0.11111111      -0.38461538       0.16666667 </v>
   <v>      -0.00000000      -0.30769231       0.16666667 </v>
   <v>       0.11111111      -0.30769231       0.16666667 </v>
   <v>       0.22222222      -0.30769231       0.16666667 </v>
   <v>       0.33333333      -0.30769231       0.16666667 </v>
   <v>       0.44444444      -0.30769231       0.16666667 </v>
   <v>      -0.44444444      -0.30769231       0.16666667 </v>
   <v>      -0.33333333      -0.30769231       0.16666667 </v>
   <v>      -0.22222222      -0.30769231       0.16666667 </v>
   <v>      -0.11111111      -0.30769231       0.16666667 </v>
   <v>      -0.00000000      -0.23076923       0.16666667 </v>
   <v>       0.11111111      -0.23076923       0.16666667 </v>
   <v>       0.22222222      -0.23076923       0.16666667 </v>
   <v>       0.33333333      -0.23076923       0.16666667 </v>
   <v>       0.44444444      -0.23076923       0.16666667 </v>
   <v>      -0.44444444      -0.23076923       0.16666667 </v>
   <v>      -0.33333333      -0.23076923       0.16666667 </v>
   <v>      -0.22222222      -0.23076923       0.16666667 </v>
   <v>      -0.11111111      -0.23076923       0.16666667 </v>
   <v>      -0.00000000      -0.15384615       0.16666667 </v>
   <v>       0.11111111      -0.15384615       0.16666667 </v>
   <v>       0.22222222      -0.15384615       0.16666667 </v>
   <v>       0.33333333      -0.15384615       0.16666667 </v>
   <v>       0.44444444      -0.15384615       0.16666667 </v>
   <v>      -0.44444444      -0.15384615       0.16666667 </v>
   <v>      -0.33333333      -0.15384615       0.16666667 </v>
   <v>      -0.22222222      -0.15384615       0.16666667 </v>
   <v>      -0.11111111      -0.15384615       0.16666667 </v>
   <v>       0.00000000      -0.07692308       0.16666667 </v>
   <v>       0.11111111      -0.07692308       0.16666667 </v>
   <v>       0.22222222      -0.07692308       0.16666667 </v>
   <v>       0.33333333      -0.07692308       0.16666667 </v>
   <v>       0.44444444      -0.07692308       0.16666667 </v>
   <v>      -0.44444444      -0.07692308       0.16666667 </v>
   <v>      -0.33333333      -0.07692308       0.16666667 </v>
   <v>      -0.22222222      -0.07692308       0.16666667 </v>
   <v>      -0.11111111      -0.07692308       0.16666667 </v>
   <v>       0.00000000      -0.00000000       0.25000000 </v>
   <v>       0.11111111      -0.00000000       0.25000000 </v>
   <v>       0.22222222      -0.00000000       0.25000000 </v>
   <v>       0.33333333       0.00000000       0.25000000 </v>
   <v>       0.44444444      -0.00000000       0.25000000 </v>
   <v>      -0.44444444      -0.00000000       0.25000000 </v>
   <v>      -0.33333333       0.00000000       0.25000000 </v>
   <v>      -0.22222222      -0.00000000       0.25000000 </v>
   <v>      -0.11111111      -0.00000000       0.25000000 </v>
   <v>       0.00000000       0.07692308       0.25000000 </v>
   <v>       0.11111111       0.07692308       0.25000000 </v>
   <v>       0.22222222       0.07692308       0.25000000 </v>
   <v>       0.33333333       0.07692308       0.25000000 </v>
   <v>       0.44444444       0.07692308       0.25000000 </v>
   <v>      -0.44444444       0.07692308       0.25000000 </v>
   <v>      -0.33333333       0.07692308       0.25000000 </v>
   <v>      -0.22222222       0.07692308       0.25000000 </v>
   <v>      -0.11111111       0.07692308       0.25000000 </v>
   <v>       0.00000000       0.15384615       0.25000000 </v>
   <v>       0.11111111       0.15384615       0.25000000 </v>
   <v>       0.22222222       0.15384615       0.25000000 </v>
   <v>       0.33333333       0.15384615       0.25000000 </v>
   <v>       0.44444444       0.15384615       0.25000000 </v>
   <v>      -0.44444444       0.15384615       0.25000000 </v>
   <v>      -0.33333333       0.15384615       0.25000000 </v>
   <v>      -0.22222222       0.15384615       0.25000000 </v>
   <v>      -0.11111111       0.15384615       0.25000000 </v>
   <v>      -0.00000000       0.23076923       0.25000000 </v>
   <v>       0.11111111       0.23076923       0.25000000 </v>
   <v>       0.22222222       0.23076923       0.25000000 </v>
   <v>       0.33333333       0.23076923       0.25000000 </v>
   <v>       0.44444444       0.23076923       0.25000000 </v>
   <v>      -0.44444444       0.23076923       0.25000000 </v>
   <v>      -0.33333333       0.23076923       0.25000000 </v>
   <v>      -0.22222222       0.23076923       0.25000000 </v>
   <v>      -0.11111111       0.23076923       0.25000000 </v>
   <v>       0.00000000       0.30769231       0.25000000 </v>
   <v>       0.11111111       0.30769231       0.25000000 </v>
   <v>       0.22222222       0.30769231       0.25000000 </v>
   <v>       0.33333333       0.30769231       0.25000000 </v>
   <v>       0.44444444       0.30769231       0.25000000 </v>
   <v>      -0.44444444       0.30769231       0.25000000 </v>
   <v>      -0.33333333       0.30769231       0.25000000 </v>
   <v>      -0.22222222       0.30769231       0.25000000 </v>
   <v>      -0.11111111       0.30769231       0.25000000 </v>
   <v>       0.00000000       0.38461538       0.25000000 </v>
   <v>       0.11111111       0.38461538       0.25000000 </v>
   <v>       0.22222222       0.38461538       0.25000000 </v>
   <v>       0.33333333       0.38461538       0.25000000 </v>
   <v>       0.44444444       0.38461538       0.25000000 </v>
   <v>      -0.44444444       0.38461538       0.25000000 </v>
   <v>      -0.33333333       0.38461538       0.25000000 </v>
   <v>      -0.22222222       0.38461538       0.25000000 </v>
   <v>      -0.11111111       0.38461538       0.25000000 </v>
   <v>       0.00000000       0.46153846       0.25000000 </v>
   <v>       0.11111111       0.46153846       0.25000000 </v>
   <v>       0.22222222       0.46153846       0.25000000 </v>
   <v>       0.33333333       0.46153846       0.25000000 </v>
   <v>       0.44444444       0.46153846       0.25000000 </v>
   <v>      -0.44444444       0.46153846       0.25000000 </v>
   <v>      -0.33333333       0.46153846       0.25000000 </v>
   <v>      -0.22222222       0.46153846       0.25000000 </v>
   <v>      -0.11111111       0.46153846       0.25000000 </v>
   <v>       0.00000000      -0.46153846       0.25000000 </v>
   <v>       0.11111111      -0.46153846       0.25000000 </v>
   <v>       0.22222222      -0.46153846       0.25000000 </v>
   <v>       0.33333333      -0.46153846       0.25000000 </v>
   <v>       0.44444444      -0.46153846       0.25000000 </v>
   <v>      -0.44444444      -0.46153846       0.25000000 </v>
   <v>      -0.33333333      -0.46153846       0.25000000 </v>
   <v>      -0.22222222      -0.46153846       0.25000000 </v>
   <v>      -0.11111111      -0.46153846       0.25000000 </v>
   <v>       0.00000000      -0.38461538       0.25000000 </v>
   <v>       0.11111111      -0.38461538       0.25000000 </v>
   <v>       0.22222222      -0.38461538       0.25000000 </v>
   <v>       0.33333333      -0.38461538       0.25000000 </v>
   <v>       0.44444444      -0.38461538       0.25000000 </v>
   <v>      -0.44444444      -0.38461538       0.25000000 </v>
   <v>      -0.33333333      -0.38461538       0.25000000 </v>
   <v>      -0.22222222      -0.38461538       0.25000000 </v>
   <v>      -0.11111111      -0.38461538       0.25000000 </v>
   <v>      -0.00000000      -0.30769231       0.25000000 </v>
   <v>       0.11111111      -0.30769231       0.25000000 </v>
   <v>       0.22222222      -0.30769231       0.25000000 </v>
   <v>       0.33333333      -0.30769231       0.25000000 </v>
   <v>       0.44444444      -0.30769231       0.25000000 </v>
   <v>      -0.44444444      -0.30769231       0.25000000 </v>
   <v>      -0.33333333      -0.30769231       0.25000000 </v>
   <v>      -0.22222222      -0.30769231       0.25000000 </v>
   <v>      -0.11111111      -0.30769231       0.25000000 </v>
   <v>       0.00000000      -0.23076923       0.25000000 </v>
   <v>       0.11111111      -0.23076923       0.25000000 </v>
   <v>       0.22222222      -0.23076923       0.25000000 </v>
   <v>       0.33333333      -0.23076923       0.25000000 </v>
   <v>       0.44444444      -0.23076923       0.25000000 </v>
   <v>      -0.44444444      -0.23076923       0.25000000 </v>
   <v>      -0.33333333      -0.23076923       0.25000000 </v>
   <v>      -0.22222222      -0.23076923       0.25000000 </v>
   <v>      -0.11111111      -0.23076923       0.25000000 </v>
   <v>      -0.00000000      -0.15384615       0.25000000 </v>
   <v>       0.11111111      -0.15384615       0.25000000 </v>
   <v>       0.22222222      -0.15384615       0.25000000 </v>
   <v>       0.33333333      -0.15384615       0.25000000 </v>
   <v>       0.44444444      -0.15384615       0.25000000 </v>
   <v>      -0.44444444      -0.15384615       0.25000000 </v>
   <v>      -0.33333333      -0.15384615       0.25000000 </v>
   <v>      -0.22222222      -0.15384615       0.25000000 </v>
   <v>      -0.11111111      -0.15384615       0.25000000 </v>
   <v>       0.00000000      -0.07692308       0.25000000 </v>
   <v>       0.11111111      -0.07692308       0.25000000 </v>
   <v>       0.22222222      -0.07692308       0.25000000 </v>
   <v>       0.33333333      -0.07692308       0.25000000 </v>
   <v>       0.44444444      -0.07692308       0.25000000 </v>
   <v>      -0.44444444      -0.07692308       0.25000000 </v>
   <v>      -0.33333333      -0.07692308       0.25000000 </v>
   <v>      -0.22222222      -0.07692308       0.25000000 </v>
   <v>      -0.11111111      -0.07692308       0.25000000 </v>
   <v>       0.00000000      -0.00000000       0.33333333 </v>
   <v>       0.11111111      -0.00000000       0.33333333 </v>
   <v>       0.22222222      -0.00000000       0.33333333 </v>
   <v>       0.33333333      -0.00000000       0.33333333 </v>
   <v>       0.44444444      -0.00000000       0.33333333 </v>
   <v>      -0.44444444      -0.00000000       0.33333333 </v>
   <v>      -0.33333333      -0.00000000       0.33333333 </v>
   <v>      -0.22222222      -0.00000000       0.33333333 </v>
   <v>      -0.11111111      -0.00000000       0.33333333 </v>
   <v>       0.00000000       0.07692308       0.33333333 </v>
   <v>       0.11111111       0.07692308       0.33333333 </v>
   <v>       0.22222222       0.07692308       0.33333333 </v>
   <v>       0.33333333       0.07692308       0.33333333 </v>
   <v>       0.44444444       0.07692308       0.33333333 </v>
   <v>      -0.44444444       0.07692308       0.33333333 </v>
   <v>      -0.33333333       0.07692308       0.33333333 </v>
   <v>      -0.22222222       0.07692308       0.33333333 </v>
   <v>      -0.11111111       0.07692308       0.33333333 </v>
   <v>       0.00000000       0.15384615       0.33333333 </v>
   <v>       0.11111111       0.15384615       0.33333333 </v>
   <v>       0.22222222       0.15384615       0.33333333 </v>
   <v>       0.33333333       0.15384615       0.33333333 </v>
   <v>       0.44444444       0.15384615       0.33333333 </v>
   <v>      -0.44444444       0.15384615       0.33333333 </v>
   <v>      -0.33333333       0.15384615       0.33333333 </v>
   <v>      -0.22222222       0.15384615       0.33333333 </v>
   <v>      -0.11111111       0.15384615       0.33333333 </v>
   <v>       0.00000000       0.23076923       0.33333333 </v>
   <v>       0.11111111       0.23076923       0.33333333 </v>
   <v>       0.22222222       0.23076923       0.33333333 </v>
   <v>       0.33333333       0.23076923       0.33333333 </v>
   <v>       0.44444444       0.23076923       0.33333333 </v>
   <v>      -0.44444444       0.23076923       0.33333333 </v>
   <v>      -0.33333333       0.23076923       0.33333333 </v>
   <v>      -0.22222222       0.23076923       0.33333333 </v>
   <v>      -0.11111111       0.23076923       0.33333333 </v>
   <v>       0.00000000       0.30769231       0.33333333 </v>
   <v>       0.11111111       0.30769231       0.33333333 </v>
   <v>       0.22222222       0.30769231       0.33333333 </v>
   <v>       0.33333333       0.30769231       0.33333333 </v>
   <v>       0.44444444       0.30769231       0.33333333 </v>
   <v>      -0.44444444       0.30769231       0.33333333 </v>
   <v>      -0.33333333       0.30769231       0.33333333 </v>
   <v>      -0.22222222       0.30769231       0.33333333 </v>
   <v>      -0.11111111       0.30769231       0.33333333 </v>
   <v>      -0.00000000       0.38461538       0.33333333 </v>
   <v>       0.11111111       0.38461538       0.33333333 </v>
   <v>       0.22222222       0.38461538       0.33333333 </v>
   <v>       0.33333333       0.38461538       0.33333333 </v>
   <v>       0.44444444       0.38461538       0.33333333 </v>
   <v>      -0.44444444       0.38461538       0.33333333 </v>
   <v>      -0.33333333       0.38461538       0.33333333 </v>
   <v>      -0.22222222       0.38461538       0.33333333 </v>
   <v>      -0.11111111       0.38461538       0.33333333 </v>
   <v>       0.00000000       0.46153846       0.33333333 </v>
   <v>       0.11111111       0.46153846       0.33333333 </v>
   <v>       0.22222222       0.46153846       0.33333333 </v>
   <v>       0.33333333       0.46153846       0.33333333 </v>
   <v>       0.44444444       0.46153846       0.33333333 </v>
   <v>      -0.44444444       0.46153846       0.33333333 </v>
   <v>      -0.33333333       0.46153846       0.33333333 </v>
   <v>      -0.22222222       0.46153846       0.33333333 </v>
   <v>      -0.11111111       0.46153846       0.33333333 </v>
   <v>      -0.00000000      -0.46153846       0.33333333 </v>
   <v>       0.11111111      -0.46153846       0.33333333 </v>
   <v>       0.22222222      -0.46153846       0.33333333 </v>
   <v>       0.33333333      -0.46153846       0.33333333 </v>
   <v>       0.44444444      -0.46153846       0.33333333 </v>
   <v>      -0.44444444      -0.46153846       0.33333333 </v>
   <v>      -0.33333333      -0.46153846       0.33333333 </v>
   <v>      -0.22222222      -0.46153846       0.33333333 </v>
   <v>      -0.11111111      -0.46153846       0.33333333 </v>
   <v>       0.00000000      -0.38461538       0.33333333 </v>
   <v>       0.11111111      -0.38461538       0.33333333 </v>
   <v>       0.22222222      -0.38461538       0.33333333 </v>
   <v>       0.33333333      -0.38461538       0.33333333 </v>
   <v>       0.44444444      -0.38461538       0.33333333 </v>
   <v>      -0.44444444      -0.38461538       0.33333333 </v>
   <v>      -0.33333333      -0.38461538       0.33333333 </v>
   <v>      -0.22222222      -0.38461538       0.33333333 </v>
   <v>      -0.11111111      -0.38461538       0.33333333 </v>
   <v>      -0.00000000      -0.30769231       0.33333333 </v>
   <v>       0.11111111      -0.30769231       0.33333333 </v>
   <v>       0.22222222      -0.30769231       0.33333333 </v>
   <v>       0.33333333      -0.30769231       0.33333333 </v>
   <v>       0.44444444      -0.30769231       0.33333333 </v>
   <v>      -0.44444444      -0.30769231       0.33333333 </v>
   <v>      -0.33333333      -0.30769231       0.33333333 </v>
   <v>      -0.22222222      -0.30769231       0.33333333 </v>
   <v>      -0.11111111      -0.30769231       0.33333333 </v>
   <v>       0.00000000      -0.23076923       0.33333333 </v>
   <v>       0.11111111      -0.23076923       0.33333333 </v>
   <v>       0.22222222      -0.23076923       0.33333333 </v>
   <v>       0.33333333      -0.23076923       0.33333333 </v>
   <v>       0.44444444      -0.23076923       0.33333333 </v>
   <v>      -0.44444444      -0.23076923       0.33333333 </v>
   <v>      -0.33333333      -0.23076923       0.33333333 </v>
   <v>      -0.22222222      -0.23076923       0.33333333 </v>
   <v>      -0.11111111      -0.23076923       0.33333333 </v>
   <v>      -0.00000000      -0.15384615       0.33333333 </v>
   <v>       0.11111111      -0.15384615       0.33333333 </v>
   <v>       0.22222222      -0.15384615       0.33333333 </v>
   <v>       0.33333333      -0.15384615       0.33333333 </v>
   <v>       0.44444444      -0.15384615       0.33333333 </v>
   <v>      -0.44444444      -0.15384615       0.33333333 </v>
   <v>      -0.33333333      -0.15384615       0.33333333 </v>
   <v>      -0.22222222      -0.15384615       0.33333333 </v>
   <v>      -0.11111111      -0.15384615       0.33333333 </v>
   <v>      -0.00000000      -0.07692308       0.33333333 </v>
   <v>       0.11111111      -0.07692308       0.33333333 </v>
   <v>       0.22222222      -0.07692308       0.33333333 </v>
   <v>       0.33333333      -0.07692308       0.33333333 </v>
   <v>       0.44444444      -0.07692308       0.33333333 </v>
   <v>      -0.44444444      -0.07692308       0.33333333 </v>
   <v>      -0.33333333      -0.07692308       0.33333333 </v>
   <v>      -0.22222222      -0.07692308       0.33333333 </v>
   <v>      -0.11111111      -0.07692308       0.33333333 </v>
   <v>       0.00000000      -0.00000000       0.41666667 </v>
   <v>       0.11111111      -0.00000000       0.41666667 </v>
   <v>       0.22222222      -0.00000000       0.41666667 </v>
   <v>       0.33333333      -0.00000000       0.41666667 </v>
   <v>       0.44444444      -0.00000000       0.41666667 </v>
   <v>      -0.44444444      -0.00000000       0.41666667 </v>
   <v>      -0.33333333      -0.00000000       0.41666667 </v>
   <v>      -0.22222222      -0.00000000       0.41666667 </v>
   <v>      -0.11111111       0.00000000       0.41666667 </v>
   <v>       0.00000000       0.07692308       0.41666667 </v>
   <v>       0.11111111       0.07692308       0.41666667 </v>
   <v>       0.22222222       0.07692308       0.41666667 </v>
   <v>       0.33333333       0.07692308       0.41666667 </v>
   <v>       0.44444444       0.07692308       0.41666667 </v>
   <v>      -0.44444444       0.07692308       0.41666667 </v>
   <v>      -0.33333333       0.07692308       0.41666667 </v>
   <v>      -0.22222222       0.07692308       0.41666667 </v>
   <v>      -0.11111111       0.07692308       0.41666667 </v>
   <v>       0.00000000       0.15384615       0.41666667 </v>
   <v>       0.11111111       0.15384615       0.41666667 </v>
   <v>       0.22222222       0.15384615       0.41666667 </v>
   <v>       0.33333333       0.15384615       0.41666667 </v>
   <v>       0.44444444       0.15384615       0.41666667 </v>
   <v>      -0.44444444       0.15384615       0.41666667 </v>
   <v>      -0.33333333       0.15384615       0.41666667 </v>
   <v>      -0.22222222       0.15384615       0.41666667 </v>
   <v>      -0.11111111       0.15384615       0.41666667 </v>
   <v>       0.00000000       0.23076923       0.41666667 </v>
   <v>       0.11111111       0.23076923       0.41666667 </v>
   <v>       0.22222222       0.23076923       0.41666667 </v>
   <v>       0.33333333       0.23076923       0.41666667 </v>
   <v>       0.44444444       0.23076923       0.41666667 </v>
   <v>      -0.44444444       0.23076923       0.41666667 </v>
   <v>      -0.33333333       0.23076923       0.41666667 </v>
   <v>      -0.22222222       0.23076923       0.41666667 </v>
   <v>      -0.11111111       0.23076923       0.41666667 </v>
   <v>       0.00000000       0.30769231       0.41666667 </v>
   <v>       0.11111111       0.30769231       0.41666667 </v>
   <v>       0.22222222       0.30769231       0.41666667 </v>
   <v>       0.33333333       0.30769231       0.41666667 </v>
   <v>       0.44444444       0.30769231       0.41666667 </v>
   <v>      -0.44444444       0.30769231       0.41666667 </v>
   <v>      -0.33333333       0.30769231       0.41666667 </v>
   <v>      -0.22222222       0.30769231       0.41666667 </v>
   <v>      -0.11111111       0.30769231       0.41666667 </v>
   <v>       0.00000000       0.38461538       0.41666667 </v>
   <v>       0.11111111       0.38461538       0.41666667 </v>
   <v>       0.22222222       0.38461538       0.41666667 </v>
   <v>       0.33333333       0.38461538       0.41666667 </v>
   <v>       0.44444444       0.38461538       0.41666667 </v>
   <v>      -0.44444444       0.38461538       0.41666667 </v>
   <v>      -0.33333333       0.38461538       0.41666667 </v>
   <v>      -0.22222222       0.38461538       0.41666667 </v>
   <v>      -0.11111111       0.38461538       0.41666667 </v>
   <v>       0.00000000       0.46153846       0.41666667 </v>
   <v>       0.11111111       0.46153846       0.41666667 </v>
   <v>       0.22222222       0.46153846       0.41666667 </v>
   <v>       0.33333333       0.46153846       0.41666667 </v>
   <v>       0.44444444       0.46153846       0.41666667 </v>
   <v>      -0.44444444       0.46153846       0.41666667 </v>
   <v>      -0.33333333       0.46153846       0.41666667 </v>
   <v>      -0.22222222       0.46153846       0.41666667 </v>
   <v>      -0.11111111       0.46153846       0.41666667 </v>
   <v>      -0.00000000      -0.46153846       0.41666667 </v>
   <v>       0.11111111      -0.46153846       0.41666667 </v>
   <v>       0.22222222      -0.46153846       0.41666667 </v>
   <v>       0.33333333      -0.46153846       0.41666667 </v>
   <v>       0.44444444      -0.46153846       0.41666667 </v>
   <v>      -0.44444444      -0.46153846       0.41666667 </v>
   <v>      -0.33333333      -0.46153846       0.41666667 </v>
   <v>      -0.22222222      -0.46153846       0.41666667 </v>
   <v>      -0.11111111      -0.46153846       0.41666667 </v>
   <v>       0.00000000      -0.38461538       0.41666667 </v>
   <v>       0.11111111      -0.38461538       0.41666667 </v>
   <v>       0.22222222      -0.38461538       0.41666667 </v>
   <v>       0.33333333      -0.38461538       0.41666667 </v>
   <v>       0.44444444      -0.38461538       0.41666667 </v>
   <v>      -0.44444444      -0.38461538       0.41666667 </v>
   <v>      -0.33333333      -0.38461538       0.41666667 </v>
   <v>      -0.22222222      -0.38461538       0.41666667 </v>
   <v>      -0.11111111      -0.38461538       0.41666667 </v>
   <v>      -0.00000000      -0.30769231       0.41666667 </v>
   <v>       0.11111111      -0.30769231       0.41666667 </v>
   <v>       0.22222222      -0.30769231       0.41666667 </v>
   <v>       0.33333333      -0.30769231       0.41666667 </v>
   <v>       0.44444444      -0.30769231       0.41666667 </v>
   <v>      -0.44444444      -0.30769231       0.41666667 </v>
   <v>      -0.33333333      -0.30769231       0.41666667 </v>
   <v>      -0.22222222      -0.30769231       0.41666667 </v>
   <v>      -0.11111111      -0.30769231       0.41666667 </v>
   <v>       0.00000000      -0.23076923       0.41666667 </v>
   <v>       0.11111111      -0.23076923       0.41666667 </v>
   <v>       0.22222222      -0.23076923       0.41666667 </v>
   <v>       0.33333333      -0.23076923       0.41666667 </v>
   <v>       0.44444444      -0.23076923       0.41666667 </v>
   <v>      -0.44444444      -0.23076923       0.41666667 </v>
   <v>      -0.33333333      -0.23076923       0.41666667 </v>
   <v>      -0.22222222      -0.23076923       0.41666667 </v>
   <v>      -0.11111111      -0.23076923       0.41666667 </v>
   <v>      -0.00000000      -0.15384615       0.41666667 </v>
   <v>       0.11111111      -0.15384615       0.41666667 </v>
   <v>       0.22222222      -0.15384615       0.41666667 </v>
   <v>       0.33333333      -0.15384615       0.41666667 </v>
   <v>       0.44444444      -0.15384615       0.41666667 </v>
   <v>      -0.44444444      -0.15384615       0.41666667 </v>
   <v>      -0.33333333      -0.15384615       0.41666667 </v>
   <v>      -0.22222222      -0.15384615       0.41666667 </v>
   <v>      -0.11111111      -0.15384615       0.41666667 </v>
   <v>      -0.00000000      -0.07692308       0.41666667 </v>
   <v>       0.11111111      -0.07692308       0.41666667 </v>
   <v>       0.22222222      -0.07692308       0.41666667 </v>
   <v>       0.33333333      -0.07692308       0.41666667 </v>
   <v>       0.44444444      -0.07692308       0.41666667 </v>
   <v>      -0.44444444      -0.07692308       0.41666667 </v>
   <v>      -0.33333333      -0.07692308       0.41666667 </v>
   <v>      -0.22222222      -0.07692308       0.41666667 </v>
   <v>      -0.11111111      -0.07692308       0.41666667 </v>
   <v>       0.00000000      -0.00000000       0.50000000 </v>
   <v>       0.11111111      -0.00000000       0.50000000 </v>
   <v>       0.22222222      -0.00000000       0.50000000 </v>
   <v>       0.33333333       0.00000000       0.50000000 </v>
   <v>       0.44444444      -0.00000000       0.50000000 </v>
   <v>       0.00000000       0.07692308       0.50000000 </v>
   <v>       0.11111111       0.07692308       0.50000000 </v>
   <v>       0.22222222       0.07692308       0.50000000 </v>
   <v>       0.33333333       0.07692308       0.50000000 </v>
   <v>       0.44444444       0.07692308       0.50000000 </v>
   <v>      -0.44444444       0.07692308       0.50000000 </v>
   <v>      -0.33333333       0.07692308       0.50000000 </v>
   <v>      -0.22222222       0.07692308       0.50000000 </v>
   <v>      -0.11111111       0.07692308       0.50000000 </v>
   <v>       0.00000000       0.15384615       0.50000000 </v>
   <v>       0.11111111       0.15384615       0.50000000 </v>
   <v>       0.22222222       0.15384615       0.50000000 </v>
   <v>       0.33333333       0.15384615       0.50000000 </v>
   <v>       0.44444444       0.15384615       0.50000000 </v>
   <v>      -0.44444444       0.15384615       0.50000000 </v>
   <v>      -0.33333333       0.15384615       0.50000000 </v>
   <v>      -0.22222222       0.15384615       0.50000000 </v>
   <v>      -0.11111111       0.15384615       0.50000000 </v>
   <v>       0.00000000       0.23076923       0.50000000 </v>
   <v>       0.11111111       0.23076923       0.50000000 </v>
   <v>       0.22222222       0.23076923       0.50000000 </v>
   <v>       0.33333333       0.23076923       0.50000000 </v>
   <v>       0.44444444       0.23076923       0.50000000 </v>
   <v>      -0.44444444       0.23076923       0.50000000 </v>
   <v>      -0.33333333       0.23076923       0.50000000 </v>
   <v>      -0.22222222       0.23076923       0.50000000 </v>
   <v>      -0.11111111       0.23076923       0.50000000 </v>
   <v>       0.00000000       0.30769231       0.50000000 </v>
   <v>       0.11111111       0.30769231       0.50000000 </v>
   <v>       0.22222222       0.30769231       0.50000000 </v>
   <v>       0.33333333       0.30769231       0.50000000 </v>
   <v>       0.44444444       0.30769231       0.50000000 </v>
   <v>      -0.44444444       0.30769231       0.50000000 </v>
   <v>      -0.33333333       0.30769231       0.50000000 </v>
   <v>      -0.22222222       0.30769231       0.50000000 </v>
   <v>      -0.11111111       0.30769231       0.50000000 </v>
   <v>       0.00000000       0.38461538       0.50000000 </v>
   <v>       0.11111111       0.38461538       0.50000000 </v>
   <v>       0.22222222       0.38461538       0.50000000 </v>
   <v>       0.33333333       0.38461538       0.50000000 </v>
   <v>       0.44444444       0.38461538       0.50000000 </v>
   <v>      -0.44444444       0.38461538       0.50000000 </v>
   <v>      -0.33333333       0.38461538       0.50000000 </v>
   <v>      -0.22222222       0.38461538       0.50000000 </v>
   <v>      -0.11111111       0.38461538       0.50000000 </v>
   <v>       0.00000000       0.46153846       0.50000000 </v>
   <v>       0.11111111       0.46153846       0.50000000 </v>
   <v>       0.22222222       0.46153846       0.50000000 </v>
   <v>       0.33333333       0.46153846       0.50000000 </v>
   <v>       0.44444444       0.46153846       0.50000000 </v>
   <v>      -0.44444444       0.46153846       0.50000000 </v>
   <v>      -0.33333333       0.46153846       0.50000000 </v>
   <v>      -0.22222222       0.46153846       0.50000000 </v>
   <v>      -0.11111111       0.46153846       0.50000000 </v>
   <v>       0.11979167      -0.11979167      -0.11979167 </v>
   <v>       0.12500000      -0.12500000      -0.12500000 </v>
   <v>       0.13020833      -0.13020833      -0.13020833 </v>
   <v>       0.13541667      -0.13541667      -0.13541667 </v>
   <v>       0.14062500      -0.14062500      -0.14062500 </v>
   <v>       0.14583333      -0.14583333      -0.14583333 </v>
   <v>       0.15104167      -0.15104167      -0.15104167 </v>
   <v>       0.15625000      -0.15625000      -0.15625000 </v>
   <v>       0.16145833      -0.16145833      -0.16145833 </v>
   <v>       0.16666667      -0.16666667      -0.16666667 </v>
   <v>       0.17187500      -0.17187500      -0.17187500 </v>
   <v>       0.17708333      -0.17708333      -0.17708333 </v>
   <v>       0.18229167      -0.18229167      -0.18229167 </v>
   <v>       0.18750000      -0.18750000      -0.18750000 </v>
   <v>       0.19270833      -0.19270833      -0.19270833 </v>
   <v>       0.19791667      -0.19791667      -0.19791667 </v>
   <v>       0.20312500      -0.20312500      -0.20312500 </v>
   <v>       0.20833333      -0.20833333      -0.20833333 </v>
   <v>       0.21354167      -0.21354167      -0.21354167 </v>
   <v>       0.21875000      -0.21875000      -0.21875000 </v>
   <v>       0.22395833      -0.22395833      -0.22395833 </v>
   <v>       0.22916667      -0.22916667      -0.22916667 </v>
   <v>       0.23437500      -0.23437500      -0.23437500 </v>
   <v>       0.23958333      -0.23958333      -0.23958333 </v>
   <v>       0.24479167      -0.24479167      -0.24479167 </v>
   <v>       0.25000000      -0.25000000      -0.25000000 </v>
   <v>       0.25520833      -0.25520833      -0.25520833 </v>
   <v>       0.26041667      -0.26041667      -0.26041667 </v>
   <v>       0.26562500      -0.26562500      -0.26562500 </v>
   <v>       0.27083333      -0.27083333      -0.27083333 </v>
   <v>       0.27604167      -0.27604167      -0.27604167 </v>
   <v>       0.28125000      -0.28125000      -0.28125000 </v>
   <v>       0.28645833      -0.28645833      -0.28645833 </v>
   <v>       0.29166667      -0.29166667      -0.29166667 </v>
   <v>       0.29687500      -0.29687500      -0.29687500 </v>
   <v>       0.30208333      -0.30208333      -0.30208333 </v>
   <v>       0.30729167      -0.30729167      -0.30729167 </v>
   <v>       0.31250000      -0.31250000      -0.31250000 </v>
   <v>       0.31770833      -0.31770833      -0.31770833 </v>
   <v>       0.32291667      -0.32291667      -0.32291667 </v>
   <v>       0.32812500      -0.32812500      -0.32812500 </v>
   <v>       0.33333333      -0.33333333      -0.33333333 </v>
   <v>       0.33854167      -0.33854167      -0.33854167 </v>
   <v>       0.34375000      -0.34375000      -0.34375000 </v>
   <v>       0.34895833      -0.34895833      -0.34895833 </v>
   <v>       0.35416667      -0.35416667      -0.35416667 </v>
   <v>       0.35937500      -0.35937500      -0.35937500 </v>
   <v>       0.36458333      -0.36458333      -0.36458333 </v>
   <v>       0.36979167      -0.36979167      -0.36979167 </v>
   <v>       0.37500000      -0.37500000      -0.37500000 </v>
   <v>       0.38020833      -0.38020833      -0.38020833 </v>
   <v>       0.38541667      -0.38541667      -0.38541667 </v>
   <v>       0.39062500      -0.39062500      -0.39062500 </v>
   <v>       0.39583333      -0.39583333      -0.39583333 </v>
   <v>       0.40104167      -0.40104167      -0.40104167 </v>
   <v>       0.40625000      -0.40625000      -0.40625000 </v>
   <v>       0.41145833      -0.41145833      -0.41145833 </v>
   <v>       0.41666667      -0.41666667      -0.41666667 </v>
   <v>       0.42187500      -0.42187500      -0.42187500 </v>
   <v>       0.42708333      -0.42708333      -0.42708333 </v>
   <v>       0.43229167      -0.43229167      -0.43229167 </v>
  </varray>
  <varray name="weights" >
   <v>       0.00071225 </v>
   <v>       0.00142450 </v>
   <v>       0.00142450 </v>
   <v>       0.00142450 </v>
   <v>       0.00142450 </v>
   <v>       0.00142450 </v>
   <v>       0.00142450 </v>
   <v>       0.00142450 </v>
   <v>       0.00142450 </v>
   <v>       0.00142450 </v>
   <v>       0.00142450 </v>
   <v>       0.00142450 </v>
   <v>       0.00142450 </v>
   <v>       0.00142450 </v>
   <v>       0.00142450 </v>
   <v>       0.00142450 </v>
   <v>       0.00142450 </v>
   <v>       0.00142450 </v>
   <v>       0.00142450 </v>
   <v>       0.00142450 </v>
   <v>       0.00142450 </v>
   <v>       0.00142450 </v>
   <v>       0.00142450 </v>
   <v>       0.00142450 </v>
   <v>       0.00142450 </v>
   <v>       0.00142450 </v>
   <v>       0.00142450 </v>
   <v>       0.00142450 </v>
   <v>       0.00142450 </v>
   <v>       0.00142450 </v>
   <v>       0.00142450 </v>
   <v>       0.00142450 </v>
   <v>       0.00142450 </v>
   <v>       0.00142450 </v>
   <v>       0.00142450 </v>
   <v>       0.00142450 </v>
   <v>       0.00142450 </v>
   <v>       0.00142450 </v>
   <v>       0.00142450 </v>
   <v>       0.00142450 </v>
   <v>       0.00142450 </v>
   <v>       0.00142450 </v>
   <v>       0.00142450 </v>
   <v>       0.00142450 </v>
   <v>       0.00142450 </v>
   <v>       0.00142450 </v>
   <v>       0.00142450 </v>
   <v>       0.00142450 </v>
   <v>       0.00142450 </v>
   <v>       0.00142450 </v>
   <v>       0.00142450 </v>
   <v>       0.00142450 </v>
   <v>       0.00142450 </v>
   <v>       0.00142450 </v>
   <v>       0.00142450 </v>
   <v>       0.00142450 </v>
   <v>       0.00142450 </v>
   <v>       0.00142450 </v>
   <v>       0.00142450 </v>
   <v>       0.00142450 </v>
   <v>       0.00142450 </v>
   <v>       0.00142450 </v>
   <v>       0.00142450 </v>
   <v>       0.00142450 </v>
   <v>       0.00142450 </v>
   <v>       0.00142450 </v>
   <v>       0.00142450 </v>
   <v>       0.00142450 </v>
   <v>       0.00142450 </v>
   <v>       0.00142450 </v>
   <v>       0.00142450 </v>
   <v>       0.00142450 </v>
   <v>       0.00142450 </v>
   <v>       0.00142450 </v>
   <v>       0.00142450 </v>
   <v>       0.00142450 </v>
   <v>       0.00142450 </v>
   <v>       0.00142450 </v>
   <v>       0.00142450 </v>
   <v>       0.00142450 </v>
   <v>       0.00142450 </v>
   <v>       0.00142450 </v>
   <v>       0.00142450 </v>
   <v>       0.00142450 </v>
   <v>       0.00142450 </v>
   <v>       0.00142450 </v>
   <v>       0.00142450 </v>
   <v>       0.00142450 </v>
   <v>       0.00142450 </v>
   <v>       0.00142450 </v>
   <v>       0.00142450 </v>
   <v>       0.00142450 </v>
   <v>       0.00142450 </v>
   <v>       0.00142450 </v>
   <v>       0.00142450 </v>
   <v>       0.00142450 </v>
   <v>       0.00142450 </v>
   <v>       0.00142450 </v>
   <v>       0.00142450 </v>
   <v>       0.00142450 </v>
   <v>       0.00142450 </v>
   <v>       0.00142450 </v>
   <v>       0.00142450 </v>
   <v>       0.00142450 </v>
   <v>       0.00142450 </v>
   <v>       0.00142450 </v>
   <v>       0.00142450 </v>
   <v>       0.00142450 </v>
   <v>       0.00142450 </v>
   <v>       0.00142450 </v>
   <v>       0.00142450 </v>
   <v>       0.00142450 </v>
   <v>       0.00142450 </v>
   <v>       0.00142450 </v>
   <v>       0.00142450 </v>
   <v>       0.00142450 </v>
   <v>       0.00142450 </v>
   <v>       0.00142450 </v>
   <v>       0.00142450 </v>
   <v>       0.00142450 </v>
   <v>       0.00142450 </v>
   <v>       0.00142450 </v>
   <v>       0.00142450 </v>
   <v>       0.00142450 </v>
   <v>       0.00142450 </v>
   <v>       0.00142450 </v>
   <v>       0.00142450 </v>
   <v>       0.00142450 </v>
   <v>       0.00142450 </v>
   <v>       0.00142450 </v>
   <v>       0.00142450 </v>
   <v>       0.00142450 </v>
   <v>       0.00142450 </v>
   <v>       0.00142450 </v>
   <v>       0.00142450 </v>
   <v>       0.00142450 </v>
   <v>       0.00142450 </v>
   <v>       0.00142450 </v>
   <v>       0.00142450 </v>
   <v>       0.00142450 </v>
   <v>       0.00142450 </v>
   <v>       0.00142450 </v>
   <v>       0.00142450 </v>
   <v>       0.00142450 </v>
   <v>       0.00142450 </v>
   <v>       0.00142450 </v>
   <v>       0.00142450 </v>
   <v>       0.00142450 </v>
   <v>       0.00142450 </v>
   <v>       0.00142450 </v>
   <v>       0.00142450 </v>
   <v>       0.00142450 </v>
   <v>       0.00142450 </v>
   <v>       0.00142450 </v>
   <v>       0.00142450 </v>
   <v>       0.00142450 </v>
   <v>       0.00142450 </v>
   <v>       0.00142450 </v>
   <v>       0.00142450 </v>
   <v>       0.00142450 </v>
   <v>       0.00142450 </v>
   <v>       0.00142450 </v>
   <v>       0.00142450 </v>
   <v>       0.00142450 </v>
   <v>       0.00142450 </v>
   <v>       0.00142450 </v>
   <v>       0.00142450 </v>
   <v>       0.00142450 </v>
   <v>       0.00142450 </v>
   <v>       0.00142450 </v>
   <v>       0.00142450 </v>
   <v>       0.00142450 </v>
   <v>       0.00142450 </v>
   <v>       0.00142450 </v>
   <v>       0.00142450 </v>
   <v>       0.00142450 </v>
   <v>       0.00142450 </v>
   <v>       0.00142450 </v>
   <v>       0.00142450 </v>
   <v>       0.00142450 </v>
   <v>       0.00142450 </v>
   <v>       0.00142450 </v>
   <v>       0.00142450 </v>
   <v>       0.00142450 </v>
   <v>       0.00142450 </v>
   <v>       0.00142450 </v>
   <v>       0.00142450 </v>
   <v>       0.00142450 </v>
   <v>       0.00142450 </v>
   <v>       0.00142450 </v>
   <v>       0.00142450 </v>
   <v>       0.00142450 </v>
   <v>       0.00142450 </v>
   <v>       0.00142450 </v>
   <v>       0.00142450 </v>
   <v>       0.00142450 </v>
   <v>       0.00142450 </v>
   <v>       0.00142450 </v>
   <v>       0.00142450 </v>
   <v>       0.00142450 </v>
   <v>       0.00142450 </v>
   <v>       0.00142450 </v>
   <v>       0.00142450 </v>
   <v>       0.00142450 </v>
   <v>       0.00142450 </v>
   <v>       0.00142450 </v>
   <v>       0.00142450 </v>
   <v>       0.00142450 </v>
   <v>       0.00142450 </v>
   <v>       0.00142450 </v>
   <v>       0.00142450 </v>
   <v>       0.00142450 </v>
   <v>       0.00142450 </v>
   <v>       0.00142450 </v>
   <v>       0.00142450 </v>
   <v>       0.00142450 </v>
   <v>       0.00142450 </v>
   <v>       0.00142450 </v>
   <v>       0.00142450 </v>
   <v>       0.00142450 </v>
   <v>       0.00142450 </v>
   <v>       0.00142450 </v>
   <v>       0.00142450 </v>
   <v>       0.00142450 </v>
   <v>       0.00142450 </v>
   <v>       0.00142450 </v>
   <v>       0.00142450 </v>
   <v>       0.00142450 </v>
   <v>       0.00142450 </v>
   <v>       0.00142450 </v>
   <v>       0.00142450 </v>
   <v>       0.00142450 </v>
   <v>       0.00142450 </v>
   <v>       0.00142450 </v>
   <v>       0.00142450 </v>
   <v>       0.00142450 </v>
   <v>       0.00142450 </v>
   <v>       0.00142450 </v>
   <v>       0.00142450 </v>
   <v>       0.00142450 </v>
   <v>       0.00142450 </v>
   <v>       0.00142450 </v>
   <v>       0.00142450 </v>
   <v>       0.00142450 </v>
   <v>       0.00142450 </v>
   <v>       0.00142450 </v>
   <v>       0.00142450 </v>
   <v>       0.00142450 </v>
   <v>       0.00142450 </v>
   <v>       0.00142450 </v>
   <v>       0.00142450 </v>
   <v>       0.00142450 </v>
   <v>       0.00142450 </v>
   <v>       0.00142450 </v>
   <v>       0.00142450 </v>
   <v>       0.00142450 </v>
   <v>       0.00142450 </v>
   <v>       0.00142450 </v>
   <v>       0.00142450 </v>
   <v>       0.00142450 </v>
   <v>       0.00142450 </v>
   <v>       0.00142450 </v>
   <v>       0.00142450 </v>
   <v>       0.00142450 </v>
   <v>       0.00142450 </v>
   <v>       0.00142450 </v>
   <v>       0.00142450 </v>
   <v>       0.00142450 </v>
   <v>       0.00142450 </v>
   <v>       0.00142450 </v>
   <v>       0.00142450 </v>
   <v>       0.00142450 </v>
   <v>       0.00142450 </v>
   <v>       0.00142450 </v>
   <v>       0.00142450 </v>
   <v>       0.00142450 </v>
   <v>       0.00142450 </v>
   <v>       0.00142450 </v>
   <v>       0.00142450 </v>
   <v>       0.00142450 </v>
   <v>       0.00142450 </v>
   <v>       0.00142450 </v>
   <v>       0.00142450 </v>
   <v>       0.00142450 </v>
   <v>       0.00142450 </v>
   <v>       0.00142450 </v>
   <v>       0.00142450 </v>
   <v>       0.00142450 </v>
   <v>       0.00142450 </v>
   <v>       0.00142450 </v>
   <v>       0.00142450 </v>
   <v>       0.00142450 </v>
   <v>       0.00142450 </v>
   <v>       0.00142450 </v>
   <v>       0.00142450 </v>
   <v>       0.00142450 </v>
   <v>       0.00142450 </v>
   <v>       0.00142450 </v>
   <v>       0.00142450 </v>
   <v>       0.00142450 </v>
   <v>       0.00142450 </v>
   <v>       0.00142450 </v>
   <v>       0.00142450 </v>
   <v>       0.00142450 </v>
   <v>       0.00142450 </v>
   <v>       0.00142450 </v>
   <v>       0.00142450 </v>
   <v>       0.00142450 </v>
   <v>       0.00142450 </v>
   <v>       0.00142450 </v>
   <v>       0.00142450 </v>
   <v>       0.00142450 </v>
   <v>       0.00142450 </v>
   <v>       0.00142450 </v>
   <v>       0.00142450 </v>
   <v>       0.00142450 </v>
   <v>       0.00142450 </v>
   <v>       0.00142450 </v>
   <v>       0.00142450 </v>
   <v>       0.00142450 </v>
   <v>       0.00142450 </v>
   <v>       0.00142450 </v>
   <v>       0.00142450 </v>
   <v>       0.00142450 </v>
   <v>       0.00142450 </v>
   <v>       0.00142450 </v>
   <v>       0.00142450 </v>
   <v>       0.00142450 </v>
   <v>       0.00142450 </v>
   <v>       0.00142450 </v>
   <v>       0.00142450 </v>
   <v>       0.00142450 </v>
   <v>       0.00142450 </v>
   <v>       0.00142450 </v>
   <v>       0.00142450 </v>
   <v>       0.00142450 </v>
   <v>       0.00142450 </v>
   <v>       0.00142450 </v>
   <v>       0.00142450 </v>
   <v>       0.00142450 </v>
   <v>       0.00142450 </v>
   <v>       0.00142450 </v>
   <v>       0.00142450 </v>
   <v>       0.00142450 </v>
   <v>       0.00142450 </v>
   <v>       0.00142450 </v>
   <v>       0.00142450 </v>
   <v>       0.00142450 </v>
   <v>       0.00142450 </v>
   <v>       0.00142450 </v>
   <v>       0.00142450 </v>
   <v>       0.00142450 </v>
   <v>       0.00142450 </v>
   <v>       0.00142450 </v>
   <v>       0.00142450 </v>
   <v>       0.00142450 </v>
   <v>       0.00142450 </v>
   <v>       0.00142450 </v>
   <v>       0.00142450 </v>
   <v>       0.00142450 </v>
   <v>       0.00142450 </v>
   <v>       0.00142450 </v>
   <v>       0.00142450 </v>
   <v>       0.00142450 </v>
   <v>       0.00142450 </v>
   <v>       0.00142450 </v>
   <v>       0.00142450 </v>
   <v>       0.00142450 </v>
   <v>       0.00142450 </v>
   <v>       0.00142450 </v>
   <v>       0.00142450 </v>
   <v>       0.00142450 </v>
   <v>       0.00142450 </v>
   <v>       0.00142450 </v>
   <v>       0.00142450 </v>
   <v>       0.00142450 </v>
   <v>       0.00142450 </v>
   <v>       0.00142450 </v>
   <v>       0.00142450 </v>
   <v>       0.00142450 </v>
   <v>       0.00142450 </v>
   <v>       0.00142450 </v>
   <v>       0.00142450 </v>
   <v>       0.00142450 </v>
   <v>       0.00142450 </v>
   <v>       0.00142450 </v>
   <v>       0.00142450 </v>
   <v>       0.00142450 </v>
   <v>       0.00142450 </v>
   <v>       0.00142450 </v>
   <v>       0.00142450 </v>
   <v>       0.00142450 </v>
   <v>       0.00142450 </v>
   <v>       0.00142450 </v>
   <v>       0.00142450 </v>
   <v>       0.00142450 </v>
   <v>       0.00142450 </v>
   <v>       0.00142450 </v>
   <v>       0.00142450 </v>
   <v>       0.00142450 </v>
   <v>       0.00142450 </v>
   <v>       0.00142450 </v>
   <v>       0.00142450 </v>
   <v>       0.00142450 </v>
   <v>       0.00142450 </v>
   <v>       0.00142450 </v>
   <v>       0.00142450 </v>
   <v>       0.00142450 </v>
   <v>       0.00142450 </v>
   <v>       0.00142450 </v>
   <v>       0.00142450 </v>
   <v>       0.00142450 </v>
   <v>       0.00142450 </v>
   <v>       0.00142450 </v>
   <v>       0.00142450 </v>
   <v>       0.00142450 </v>
   <v>       0.00142450 </v>
   <v>       0.00142450 </v>
   <v>       0.00142450 </v>
   <v>       0.00142450 </v>
   <v>       0.00142450 </v>
   <v>       0.00142450 </v>
   <v>       0.00142450 </v>
   <v>       0.00142450 </v>
   <v>       0.00142450 </v>
   <v>       0.00142450 </v>
   <v>       0.00142450 </v>
   <v>       0.00142450 </v>
   <v>       0.00142450 </v>
   <v>       0.00142450 </v>
   <v>       0.00142450 </v>
   <v>       0.00142450 </v>
   <v>       0.00142450 </v>
   <v>       0.00142450 </v>
   <v>       0.00142450 </v>
   <v>       0.00142450 </v>
   <v>       0.00142450 </v>
   <v>       0.00142450 </v>
   <v>       0.00142450 </v>
   <v>       0.00142450 </v>
   <v>       0.00142450 </v>
   <v>       0.00142450 </v>
   <v>       0.00142450 </v>
   <v>       0.00142450 </v>
   <v>       0.00142450 </v>
   <v>       0.00142450 </v>
   <v>       0.00142450 </v>
   <v>       0.00142450 </v>
   <v>       0.00142450 </v>
   <v>       0.00142450 </v>
   <v>       0.00142450 </v>
   <v>       0.00142450 </v>
   <v>       0.00142450 </v>
   <v>       0.00142450 </v>
   <v>       0.00142450 </v>
   <v>       0.00142450 </v>
   <v>       0.00142450 </v>
   <v>       0.00142450 </v>
   <v>       0.00142450 </v>
   <v>       0.00142450 </v>
   <v>       0.00142450 </v>
   <v>       0.00142450 </v>
   <v>       0.00142450 </v>
   <v>       0.00142450 </v>
   <v>       0.00142450 </v>
   <v>       0.00142450 </v>
   <v>       0.00142450 </v>
   <v>       0.00142450 </v>
   <v>       0.00142450 </v>
   <v>       0.00142450 </v>
   <v>       0.00142450 </v>
   <v>       0.00142450 </v>
   <v>       0.00142450 </v>
   <v>       0.00142450 </v>
   <v>       0.00142450 </v>
   <v>       0.00142450 </v>
   <v>       0.00142450 </v>
   <v>       0.00142450 </v>
   <v>       0.00142450 </v>
   <v>       0.00142450 </v>
   <v>       0.00142450 </v>
   <v>       0.00142450 </v>
   <v>       0.00142450 </v>
   <v>       0.00142450 </v>
   <v>       0.00142450 </v>
   <v>       0.00142450 </v>
   <v>       0.00142450 </v>
   <v>       0.00142450 </v>
   <v>       0.00142450 </v>
   <v>       0.00142450 </v>
   <v>       0.00142450 </v>
   <v>       0.00142450 </v>
   <v>       0.00142450 </v>
   <v>       0.00142450 </v>
   <v>       0.00142450 </v>
   <v>       0.00142450 </v>
   <v>       0.00142450 </v>
   <v>       0.00142450 </v>
   <v>       0.00142450 </v>
   <v>       0.00142450 </v>
   <v>       0.00142450 </v>
   <v>       0.00142450 </v>
   <v>       0.00142450 </v>
   <v>       0.00142450 </v>
   <v>       0.00142450 </v>
   <v>       0.00142450 </v>
   <v>       0.00142450 </v>
   <v>       0.00142450 </v>
   <v>       0.00142450 </v>
   <v>       0.00142450 </v>
   <v>       0.00142450 </v>
   <v>       0.00142450 </v>
   <v>       0.00142450 </v>
   <v>       0.00142450 </v>
   <v>       0.00142450 </v>
   <v>       0.00142450 </v>
   <v>       0.00142450 </v>
   <v>       0.00142450 </v>
   <v>       0.00142450 </v>
   <v>       0.00142450 </v>
   <v>       0.00142450 </v>
   <v>       0.00142450 </v>
   <v>       0.00142450 </v>
   <v>       0.00142450 </v>
   <v>       0.00142450 </v>
   <v>       0.00142450 </v>
   <v>       0.00142450 </v>
   <v>       0.00142450 </v>
   <v>       0.00142450 </v>
   <v>       0.00142450 </v>
   <v>       0.00142450 </v>
   <v>       0.00142450 </v>
   <v>       0.00142450 </v>
   <v>       0.00142450 </v>
   <v>       0.00142450 </v>
   <v>       0.00142450 </v>
   <v>       0.00142450 </v>
   <v>       0.00142450 </v>
   <v>       0.00142450 </v>
   <v>       0.00142450 </v>
   <v>       0.00142450 </v>
   <v>       0.00142450 </v>
   <v>       0.00142450 </v>
   <v>       0.00142450 </v>
   <v>       0.00142450 </v>
   <v>       0.00142450 </v>
   <v>       0.00142450 </v>
   <v>       0.00142450 </v>
   <v>       0.00142450 </v>
   <v>       0.00142450 </v>
   <v>       0.00142450 </v>
   <v>       0.00142450 </v>
   <v>       0.00142450 </v>
   <v>       0.00142450 </v>
   <v>       0.00142450 </v>
   <v>       0.00142450 </v>
   <v>       0.00142450 </v>
   <v>       0.00142450 </v>
   <v>       0.00142450 </v>
   <v>       0.00142450 </v>
   <v>       0.00142450 </v>
   <v>       0.00142450 </v>
   <v>       0.00142450 </v>
   <v>       0.00142450 </v>
   <v>       0.00142450 </v>
   <v>       0.00142450 </v>
   <v>       0.00142450 </v>
   <v>       0.00142450 </v>
   <v>       0.00142450 </v>
   <v>       0.00142450 </v>
   <v>       0.00142450 </v>
   <v>       0.00142450 </v>
   <v>       0.00142450 </v>
   <v>       0.00142450 </v>
   <v>       0.00142450 </v>
   <v>       0.00142450 </v>
   <v>       0.00142450 </v>
   <v>       0.00142450 </v>
   <v>       0.00142450 </v>
   <v>       0.00142450 </v>
   <v>       0.00142450 </v>
   <v>       0.00142450 </v>
   <v>       0.00142450 </v>
   <v>       0.00142450 </v>
   <v>       0.00142450 </v>
   <v>       0.00142450 </v>
   <v>       0.00142450 </v>
   <v>       0.00142450 </v>
   <v>       0.00142450 </v>
   <v>       0.00142450 </v>
   <v>       0.00142450 </v>
   <v>       0.00142450 </v>
   <v>       0.00142450 </v>
   <v>       0.00142450 </v>
   <v>       0.00142450 </v>
   <v>       0.00142450 </v>
   <v>       0.00142450 </v>
   <v>       0.00142450 </v>
   <v>       0.00142450 </v>
   <v>       0.00142450 </v>
   <v>       0.00142450 </v>
   <v>       0.00142450 </v>
   <v>       0.00142450 </v>
   <v>       0.00142450 </v>
   <v>       0.00142450 </v>
   <v>       0.00142450 </v>
   <v>       0.00142450 </v>
   <v>       0.00142450 </v>
   <v>       0.00142450 </v>
   <v>       0.00142450 </v>
   <v>       0.00142450 </v>
   <v>       0.00142450 </v>
   <v>       0.00142450 </v>
   <v>       0.00142450 </v>
   <v>       0.00142450 </v>
   <v>       0.00142450 </v>
   <v>       0.00142450 </v>
   <v>       0.00142450 </v>
   <v>       0.00142450 </v>
   <v>       0.00142450 </v>
   <v>       0.00142450 </v>
   <v>       0.00142450 </v>
   <v>       0.00142450 </v>
   <v>       0.00142450 </v>
   <v>       0.00142450 </v>
   <v>       0.00142450 </v>
   <v>       0.00142450 </v>
   <v>       0.00142450 </v>
   <v>       0.00142450 </v>
   <v>       0.00142450 </v>
   <v>       0.00142450 </v>
   <v>       0.00142450 </v>
   <v>       0.00142450 </v>
   <v>       0.00142450 </v>
   <v>       0.00142450 </v>
   <v>       0.00142450 </v>
   <v>       0.00142450 </v>
   <v>       0.00142450 </v>
   <v>       0.00142450 </v>
   <v>       0.00142450 </v>
   <v>       0.00142450 </v>
   <v>       0.00142450 </v>
   <v>       0.00142450 </v>
   <v>       0.00142450 </v>
   <v>       0.00071225 </v>
   <v>       0.00142450 </v>
   <v>       0.00142450 </v>
   <v>       0.00142450 </v>
   <v>       0.00142450 </v>
   <v>       0.00142450 </v>
   <v>       0.00142450 </v>
   <v>       0.00142450 </v>
   <v>       0.00142450 </v>
   <v>       0.00142450 </v>
   <v>       0.00142450 </v>
   <v>       0.00142450 </v>
   <v>       0.00142450 </v>
   <v>       0.00142450 </v>
   <v>       0.00142450 </v>
   <v>       0.00142450 </v>
   <v>       0.00142450 </v>
   <v>       0.00142450 </v>
   <v>       0.00142450 </v>
   <v>       0.00142450 </v>
   <v>       0.00142450 </v>
   <v>       0.00142450 </v>
   <v>       0.00142450 </v>
   <v>       0.00142450 </v>
   <v>       0.00142450 </v>
   <v>       0.00142450 </v>
   <v>       0.00142450 </v>
   <v>       0.00142450 </v>
   <v>       0.00142450 </v>
   <v>       0.00142450 </v>
   <v>       0.00142450 </v>
   <v>       0.00142450 </v>
   <v>       0.00142450 </v>
   <v>       0.00142450 </v>
   <v>       0.00142450 </v>
   <v>       0.00142450 </v>
   <v>       0.00142450 </v>
   <v>       0.00142450 </v>
   <v>       0.00142450 </v>
   <v>       0.00142450 </v>
   <v>       0.00142450 </v>
   <v>       0.00142450 </v>
   <v>       0.00142450 </v>
   <v>       0.00142450 </v>
   <v>       0.00142450 </v>
   <v>       0.00142450 </v>
   <v>       0.00142450 </v>
   <v>       0.00142450 </v>
   <v>       0.00142450 </v>
   <v>       0.00142450 </v>
   <v>       0.00142450 </v>
   <v>       0.00142450 </v>
   <v>       0.00142450 </v>
   <v>       0.00142450 </v>
   <v>       0.00142450 </v>
   <v>       0.00142450 </v>
   <v>       0.00142450 </v>
   <v>       0.00142450 </v>
   <v>       0.00142450 </v>
   <v>       0.00000000 </v>
   <v>       0.00000000 </v>
   <v>       0.00000000 </v>
   <v>       0.00000000 </v>
   <v>       0.00000000 </v>
   <v>       0.00000000 </v>
   <v>       0.00000000 </v>
   <v>       0.00000000 </v>
   <v>       0.00000000 </v>
   <v>       0.00000000 </v>
   <v>       0.00000000 </v>
   <v>       0.00000000 </v>
   <v>       0.00000000 </v>
   <v>       0.00000000 </v>
   <v>       0.00000000 </v>
   <v>       0.00000000 </v>
   <v>       0.00000000 </v>
   <v>       0.00000000 </v>
   <v>       0.00000000 </v>
   <v>       0.00000000 </v>
   <v>       0.00000000 </v>
   <v>       0.00000000 </v>
   <v>       0.00000000 </v>
   <v>       0.00000000 </v>
   <v>       0.00000000 </v>
   <v>       0.00000000 </v>
   <v>       0.00000000 </v>
   <v>       0.00000000 </v>
   <v>       0.00000000 </v>
   <v>       0.00000000 </v>
   <v>       0.00000000 </v>
   <v>       0.00000000 </v>
   <v>       0.00000000 </v>
   <v>       0.00000000 </v>
   <v>       0.00000000 </v>
   <v>       0.00000000 </v>
   <v>       0.00000000 </v>
   <v>       0.00000000 </v>
   <v>       0.00000000 </v>
   <v>       0.00000000 </v>
   <v>       0.00000000 </v>
   <v>       0.00000000 </v>
   <v>       0.00000000 </v>
   <v>       0.00000000 </v>
   <v>       0.00000000 </v>
   <v>       0.00000000 </v>
   <v>       0.00000000 </v>
   <v>       0.00000000 </v>
   <v>       0.00000000 </v>
   <v>       0.00000000 </v>
   <v>       0.00000000 </v>
   <v>       0.00000000 </v>
   <v>       0.00000000 </v>
   <v>       0.00000000 </v>
   <v>       0.00000000 </v>
   <v>       0.00000000 </v>
   <v>       0.00000000 </v>
   <v>       0.00000000 </v>
   <v>       0.00000000 </v>
   <v>       0.00000000 </v>
   <v>       0.00000000 </v>
  </varray>
 </kpoints>
 <parameters>
  <separator name="general" >
   <i type="string" name="SYSTEM">unknown system</i>
   <i type="logical" name="LCOMPAT"> F  </i>
  </separator>
  <separator name="electronic" >
   <i type="string" name="PREC">accura</i>
   <i name="ENMAX">    500.00000000</i>
   <i name="ENAUG">    586.98000000</i>
   <i name="EDIFF">      0.00000100</i>
   <i type="int" name="IALGO">    58</i>
   <i type="int" name="IWAVPR">    10</i>
   <i type="int" name="NBANDS">    39</i>
   <i type="int" name="NBANDSLOW">    -1</i>
   <i type="int" name="NBANDSHIGH">    -1</i>
   <i name="NELECT">     54.00000000</i>
   <i type="int" name="TURBO">     0</i>
   <i type="int" name="IRESTART">     0</i>
   <i type="int" name="NREBOOT">     0</i>
   <i type="int" name="NMIN">     0</i>
   <i name="EREF">      0.00000000</i>
   <separator name="electronic smearing" >
    <i type="int" name="ISMEAR">     0</i>
    <i name="SIGMA">      0.02000000</i>
    <i name="KSPACING">      0.15000000</i>
    <i type="logical" name="KGAMMA"> T  </i>
    <i type="logical" name="KBLOWUP"> T  </i>
   </separator>
   <separator name="electronic projectors" >
    <i type="logical" name="LREAL"> F  </i>
    <v name="ROPT">      0.00000000      0.00000000      0.00000000</v>
    <i type="int" name="LMAXPAW">  -100</i>
    <i type="int" name="LMAXMIX">     4</i>
    <i type="logical" name="NLSPLINE"> F  </i>
   </separator>
   <separator name="electronic startup" >
    <i type="int" name="ISTART">     0</i>
    <i type="int" name="ICHARG">     2</i>
    <i type="int" name="INIWAV">     1</i>
   </separator>
   <separator name="electronic spin" >
    <i type="int" name="ISPIN">     1</i>
    <i type="logical" name="LNONCOLLINEAR"> F  </i>
    <v name="MAGMOM">      1.00000000      1.00000000      1.00000000      1.00000000      1.00000000      1.00000000</v>
    <i name="NUPDOWN">     -1.00000000</i>
    <i type="logical" name="LSORBIT"> F  </i>
    <v name="SAXIS">      0.00000000      0.00000000      1.00000000</v>
    <i type="logical" name="LSPIRAL"> F  </i>
    <v name="QSPIRAL">      0.00000000      0.00000000      0.00000000</v>
    <i type="logical" name="LZEROZ"> F  </i>
   </separator>
   <separator name="electronic exchange-correlation" >
    <i type="logical" name="LASPH"> T  </i>
    <i type="logical" name="LMETAGGA"> F  </i>
   </separator>
   <separator name="electronic convergence" >
    <i type="int" name="NELM">   200</i>
    <i type="int" name="NELMDL">    -5</i>
    <i type="int" name="NELMIN">     2</i>
    <i name="ENINI">    500.00000000</i>
    <separator name="electronic convergence detail" >
     <i type="logical" name="LDIAG"> T  </i>
     <i type="logical" name="LSUBROT"> F  </i>
     <i name="WEIMIN">      0.00000000</i>
     <i name="EBREAK">      0.00000001</i>
     <i name="DEPER">      0.30000000</i>
     <i type="int" name="NRMM">     4</i>
     <i name="TIME">      0.30000000</i>
    </separator>
   </separator>
   <separator name="electronic mixer" >
    <i name="AMIX">      0.40000000</i>
    <i name="BMIX">      1.00000000</i>
    <i name="AMIN">      0.10000000</i>
    <i name="AMIX_MAG">      1.60000000</i>
    <i name="BMIX_MAG">      1.00000000</i>
    <separator name="electronic mixer details" >
     <i type="int" name="IMIX">     4</i>
     <i type="logical" name="MIXFIRST"> F  </i>
     <i type="int" name="MAXMIX">   -45</i>
     <i name="WC">    100.00000000</i>
     <i type="int" name="INIMIX">     1</i>
     <i type="int" name="MIXPRE">     1</i>
     <i type="int" name="MREMOVE">     5</i>
    </separator>
   </separator>
   <separator name="electronic dipolcorrection" >
    <i type="logical" name="LDIPOL"> F  </i>
    <i type="logical" name="LMONO"> F  </i>
    <i type="int" name="IDIPOL">     0</i>
    <i name="EPSILON">      1.00000000</i>
    <v name="DIPOL">   -100.00000000   -100.00000000   -100.00000000</v>
    <i name="EFIELD">      0.00000000</i>
   </separator>
  </separator>
  <separator name="grids" >
   <i type="int" name="NGX">    50</i>
   <i type="int" name="NGY">    50</i>
   <i type="int" name="NGZ">    50</i>
   <i type="int" name="NGXF">   100</i>
   <i type="int" name="NGYF">   100</i>
   <i type="int" name="NGZF">   100</i>
   <i type="logical" name="ADDGRID"> F  </i>
  </separator>
  <separator name="ionic" >
   <i type="int" name="NSW">     0</i>
   <i type="int" name="IBRION">    -1</i>
   <i type="int" name="MDALGO">     0</i>
   <i type="int" name="ISIF">     0</i>
   <i name="PSTRESS">      0.00000000</i>
   <i name="EDIFFG">     -0.01000000</i>
   <i type="int" name="NFREE">     0</i>
   <i name="POTIM">      0.50000000</i>
   <i name="SMASS">     -3.00000000</i>
   <i name="SCALEE">      1.00000000</i>
  </separator>
  <separator name="ionic md" >
   <i name="TEBEG">      0.00010000</i>
   <i name="TEEND">      0.00010000</i>
   <i type="int" name="NBLOCK">     1</i>
   <i type="int" name="KBLOCK">     1</i>
   <i type="int" name="NPACO">   256</i>
   <i name="APACO">     10.00000000</i>
  </separator>
  <separator name="symmetry" >
   <i type="int" name="ISYM">     3</i>
   <i name="SYMPREC">      0.00001000</i>
  </separator>
  <separator name="dos" >
   <i type="int" name="LORBIT">    14</i>
   <v name="RWIGS">     -1.00000000     -1.00000000     -1.00000000</v>
   <i type="int" name="NEDOS">  3000</i>
   <i name="EMIN">     10.00000000</i>
   <i name="EMAX">    -10.00000000</i>
   <i name="EFERMI">      0.00000000</i>
  </separator>
  <separator name="writing" >
   <i type="int" name="NWRITE">     2</i>
   <i type="logical" name="LWAVE"> T  </i>
   <i type="logical" name="LDOWNSAMPLE"> F  </i>
   <i type="logical" name="LCHARG"> T  </i>
   <i type="logical" name="LPARD"> F  </i>
   <i type="logical" name="LVTOT"> F  </i>
   <i type="logical" name="LVHAR"> F  </i>
   <i type="logical" name="LELF"> F  </i>
   <i type="logical" name="LOPTICS"> F  </i>
   <v name="STM">      0.00000000      0.00000000      0.00000000      0.00000000      0.00000000      0.00000000      0.00000000</v>
  </separator>
  <separator name="performance" >
   <i type="int" name="NPAR">    13</i>
   <i type="int" name="NSIM">     4</i>
   <i type="int" name="NBLK">    -1</i>
   <i type="logical" name="LPLANE"> T  </i>
   <i type="logical" name="LSCALAPACK"> T  </i>
   <i type="logical" name="LSCAAWARE"> F  </i>
   <i type="logical" name="LSCALU"> F  </i>
   <i type="logical" name="LASYNC"> F  </i>
   <i type="logical" name="LORBITALREAL"> F  </i>
  </separator>
  <separator name="miscellaneous" >
   <i type="int" name="IDIOT">     3</i>
   <i type="int" name="PHON_NSTRUCT">    -1</i>
   <i type="logical" name="LMUSIC"> F  </i>
   <v name="POMASS">     63.54600000     72.61000000     78.96000000</v>
   <v name="DARWINR">      0.00000000      0.00000000      0.00000000</v>
   <v name="DARWINV">      1.00000000      1.00000000      1.00000000</v>
   <i type="logical" name="LCORR"> T  </i>
  </separator>
  <i type="logical" name="GGA_COMPAT"> T  </i>
  <i type="logical" name="LBERRY"> F  </i>
  <i type="int" name="ICORELEVEL">     1</i>
  <i type="int" name="CLNT">     1</i>
  <i type="int" name="CLN">     1</i>
  <i type="int" name="CLL">     0</i>
  <i name="CLZ">      0.00000000</i>
  <i type="logical" name="LDAU"> F  </i>
  <i type="int" name="I_CONSTRAINED_M">     0</i>
  <separator name="electronic exchange-correlation" >
   <i type="string" name="GGA">PE</i>
   <i type="int" name="VOSKOWN">     0</i>
   <i type="logical" name="LHFCALC"> T  </i>
   <i type="string" name="PRECFOCK">fast</i>
   <i type="logical" name="LSYMGRAD"> F  </i>
   <i type="logical" name="LHFONE"> F  </i>
   <i type="logical" name="LRHFCALC"> F  </i>
   <i type="logical" name="LTHOMAS"> F  </i>
   <i type="logical" name="LMODELHF"> F  </i>
   <i type="logical" name="LFOCKACE"> T  </i>
   <i name="ENCUT4O">     -1.00000000</i>
   <i type="int" name="EXXOEP">     0</i>
   <i type="int" name="FOURORBIT">     0</i>
   <i name="AEXX">      0.25000000</i>
   <i name="HFALPHA">     -1.00000000</i>
   <i name="MCALPHA">      0.00000000</i>
   <i name="ALDAX">      0.75000000</i>
   <i name="AGGAX">      0.75000000</i>
   <i name="ALDAC">      1.00000000</i>
   <i name="AGGAC">      1.00000000</i>
   <i type="int" name="NKREDX">     1</i>
   <i type="int" name="NKREDY">     1</i>
   <i type="int" name="NKREDZ">     1</i>
   <i type="logical" name="SHIFTRED"> F  </i>
   <i type="logical" name="ODDONLY"> F  </i>
   <i type="logical" name="EVENONLY"> F  </i>
   <i type="int" name="LMAXFOCK">     4</i>
   <i type="int" name="NMAXFOCKAE">     1</i>
   <i type="logical" name="LFOCKAEDFT"> F  </i>
   <i name="HFSCREEN">      0.20800000</i>
   <i name="HFSCREENC">      0.20800000</i>
   <i type="int" name="NBANDSGWLOW">     1</i>
  </separator>
  <separator name="vdW DFT" >
   <i type="logical" name="LUSE_VDW"> F  </i>
   <i type="int" name="IVDW_NL">     1</i>
   <i type="logical" name="LSPIN_VDW"> F  </i>
   <i name="Zab_VDW">     -0.84910000</i>
   <i name="PARAM1">      0.12340000</i>
   <i name="PARAM2">      1.00000000</i>
   <i name="PARAM3">      0.00000000</i>
  </separator>
  <separator name="model GW" >
   <i type="int" name="MODEL_GW">     0</i>
   <i name="MODEL_EPS0">     13.10353404</i>
   <i name="MODEL_ALPHA">      1.00000000</i>
  </separator>
  <separator name="linear response parameters" >
   <i type="logical" name="LEPSILON"> F  </i>
   <i type="logical" name="LRPA"> F  </i>
   <i type="logical" name="LNABLA"> F  </i>
   <i type="logical" name="LVEL"> F  </i>
   <i name="CSHIFT">      0.10000000</i>
   <i name="OMEGAMAX">     -1.00000000</i>
   <i name="DEG_THRESHOLD">      0.00200000</i>
   <i name="RTIME">     -0.10000000</i>
   <i name="WPLASMAI">      0.00000000</i>
   <v name="DFIELD">      0.00000000      0.00000000      0.00000000</v>
   <v name="WPLASMA">      0.00000000      0.00000000      0.00000000      0.00000000      0.00000000      0.00000000      0.00000000      0.00000000      0.00000000</v>
  </separator>
  <separator name="orbital magnetization" >
   <i type="logical" name="NUCIND"> F  </i>
   <v name="MAGPOS">      0.00000000      0.00000000      0.00000000</v>
   <i type="logical" name="LNICSALL"> T  </i>
   <i type="logical" name="ORBITALMAG"> F  </i>
   <i type="logical" name="LMAGBLOCH"> F  </i>
   <i type="logical" name="LCHIMAG"> F  </i>
   <i type="logical" name="LGAUGE"> T  </i>
   <i type="int" name="MAGATOM">     0</i>
   <v name="MAGDIPOL">      0.00000000      0.00000000      0.00000000</v>
   <v name="AVECCONST">      0.00000000      0.00000000      0.00000000</v>
  </separator>
  <separator name="response functions" >
   <i type="logical" name="LALL_IN_ONE"> F  </i>
   <i type="int" name="IALL_IN_ONE">    -1</i>
   <i type="int" name="NBANDS_WAVE">    -1</i>
   <i type="logical" name="LFINITE_TEMPERATURE"> F  </i>
   <i type="logical" name="LADDER"> F  </i>
   <i type="logical" name="LRPAFORCE"> F  </i>
   <i type="logical" name="LFXC"> F  </i>
   <i type="logical" name="LHARTREE"> T  </i>
   <i type="int" name="IBSE">     0</i>
   <v type="int" name="KPOINT">    -1     0     0     0</v>
   <i type="logical" name="LTCTC"> F  </i>
   <i type="logical" name="LTCTE"> F  </i>
   <i type="logical" name="LTETE"> F  </i>
   <i type="logical" name="LTRIPLET"> F  </i>
   <i type="logical" name="LFXCEPS"> F  </i>
   <i type="logical" name="LFXHEG"> F  </i>
   <i type="int" name="NATURALO">     2</i>
   <i type="logical" name="LHOLEGF"> F  </i>
   <i type="logical" name="L2ORDER"> F  </i>
   <i type="logical" name="LDMP1"> F  </i>
   <i type="logical" name="LMP2LT"> F  </i>
   <i type="logical" name="LSMP2LT"> F  </i>
   <i type="logical" name="LGWLF"> F  </i>
   <i name="ENCUTGW">     -1.60000002</i>
   <i name="ENCUTGWSOFT">     -1.60000002</i>
   <i name="ENCUTLF">     -1.00000000</i>
   <i type="logical" name="LESF_SPLINES"> F  </i>
   <i type="int" name="LMAXMP2">    -1</i>
   <i name="SCISSOR">      0.00000000</i>
   <i type="int" name="NOMEGA">     0</i>
   <i type="int" name="NOMEGAR">     0</i>
   <i type="int" name="NBANDSGW">    -1</i>
   <i type="int" name="NBANDSO">    -1</i>
   <i type="int" name="NBANDSV">    -1</i>
   <i type="int" name="NELMGW">     1</i>
   <i type="int" name="NELMHF">     1</i>
   <i type="int" name="DIM">     3</i>
   <i type="int" name="IESPILON">     4</i>
   <i type="int" name="ANTIRES">     0</i>
   <i name="OMEGAMAX">    -30.00000000</i>
   <i name="OMEGAMIN">    -30.00000000</i>
   <i name="OMEGATL">   -200.00000000</i>
   <i type="int" name="OMEGAGRID">     0</i>
   <i name="CSHIFT">     -0.10000000</i>
   <i type="logical" name="LSELFENERGY"> F  </i>
   <i type="logical" name="LSPECTRAL"> F  </i>
   <i type="logical" name="LSPECTRALGW"> F  </i>
   <i type="logical" name="LSINGLES"> F  </i>
   <i type="logical" name="LFERMIGW"> F  </i>
   <i type="logical" name="ODDONLYGW"> F  </i>
   <i type="logical" name="EVENONLYGW"> F  </i>
   <i type="int" name="NKREDLFX">     1</i>
   <i type="int" name="NKREDLFY">     1</i>
   <i type="int" name="NKREDLFZ">     1</i>
   <i type="int" name="MAXMEM">  2800</i>
   <i type="int" name="TELESCOPE">     0</i>
   <i type="int" name="NTAUPAR">    -1</i>
   <i type="int" name="NOMEGAPAR">    -1</i>
   <i name="DAMP_NEWTON">      0.80000001</i>
   <i name="LAMBDA">      1.00000000</i>
  </separator>
  <separator name="External order field" >
   <i name="OFIELD_KAPPA">      0.00000000</i>
   <v name="OFIELD_K">      0.00000000      0.00000000      0.00000000</v>
   <i name="OFIELD_Q6_NEAR">      0.00000000</i>
   <i name="OFIELD_Q6_FAR">      0.00000000</i>
   <i name="OFIELD_A">      0.00000000</i>
  </separator>
  <separator name="optional k-points parameters" >
   <i type="int" name="KPOINTS_OPT_MODE">     1</i>
   <i type="logical" name="LKPOINTS_OPT"> F  </i>
  </separator>
 </parameters>
 <atominfo>
  <atoms>       6 </atoms>
  <types>       3 </types>
  <array name="atoms" >
   <dimension dim="1">ion</dimension>
   <field type="string">element</field>
   <field type="int">atomtype</field>
   <set>
    <rc><c>Cu</c><c>   1</c></rc>
    <rc><c>Cu</c><c>   1</c></rc>
    <rc><c>Ge</c><c>   2</c></rc>
    <rc><c>Se</c><c>   3</c></rc>
    <rc><c>Se</c><c>   3</c></rc>
    <rc><c>Se</c><c>   3</c></rc>
   </set>
  </array>
  <array name="atomtypes" >
   <dimension dim="1">type</dimension>
   <field type="int">atomspertype</field>
   <field type="string">element</field>
   <field>mass</field>
   <field>valence</field>
   <field type="string">pseudopotential</field>
   <set>
    <rc><c>   2</c><c>Cu</c><c>     63.54600000</c><c>     11.00000000</c><c>  PAW_PBE Cu 22Jun2005                  </c></rc>
    <rc><c>   1</c><c>Ge</c><c>     72.61000000</c><c>     14.00000000</c><c>  PAW_PBE Ge_d 03Jul2007                </c></rc>
    <rc><c>   3</c><c>Se</c><c>     78.96000000</c><c>      6.00000000</c><c>  PAW_PBE Se 06Sep2000                  </c></rc>
   </set>
  </array>
 </atominfo>
 <structure name="initialpos" >
  <crystal>
   <varray name="basis" >
    <v>      -1.97712646       5.89120974       2.81248048 </v>
    <v>       1.97712646      -5.89120974       2.81248048 </v>
    <v>       1.97712646       5.89120974      -2.81248048 </v>
   </varray>
   <i name="volume">    131.03534036 </i>
   <varray name="rec_basis" >
    <v>       0.00000000       0.08487221       0.17777901 </v>
    <v>       0.25289227       0.00000000       0.17777901 </v>
    <v>       0.25289227       0.08487221      -0.00000000 </v>
   </varray>
  </crystal>
  <varray name="positions" >
   <v>       0.42839275       0.26204962       0.16634313 </v>
   <v>       0.09570649       0.26204962       0.83365687 </v>
   <v>       0.72803044       0.22803044       0.50000000 </v>
   <v>       0.33793631       0.00573763       0.33219868 </v>
   <v>       0.67353896       0.00573763       0.66780132 </v>
   <v>       0.99839907       0.99839907       0.00000000 </v>
  </varray>
 </structure>
 <calculation>
  <scstep>
   <time name="total">    9.97    9.99</time>
   <energy>
    <i name="alphaZ">    169.77133867 </i>
    <i name="ewald">  -3646.78014598 </i>
    <i name="hartreedc">  -2046.15577599 </i>
    <i name="XCdc">    162.16921413 </i>
    <i name="pawpsdc">   4923.93053700 </i>
    <i name="pawaedc">  -8340.53347730 </i>
    <i name="eentropy">     -0.00029411 </i>
    <i name="bandstr">     89.54034364 </i>
    <i name="atom">   6138.03321560 </i>
    <i name="e_fr_energy">  -2550.02504434 </i>
    <i name="e_wo_entrp">  -2550.02475023 </i>
    <i name="e_0_energy">  -2550.02489729 </i>
   </energy>
  </scstep>
  <scstep>
   <time name="total">    8.71    8.73</time>
   <energy>
    <i name="e_fr_energy">  -2938.49408838 </i>
    <i name="e_wo_entrp">  -2938.49401735 </i>
    <i name="e_0_energy">  -2938.49405287 </i>
   </energy>
  </scstep>
  <scstep>
   <time name="total">   10.87   10.89</time>
   <energy>
    <i name="e_fr_energy">  -2990.33275892 </i>
    <i name="e_wo_entrp">  -2990.33275892 </i>
    <i name="e_0_energy">  -2990.33275892 </i>
   </energy>
  </scstep>
  <scstep>
   <time name="total">    9.27    9.29</time>
   <energy>
    <i name="e_fr_energy">  -2992.36401981 </i>
    <i name="e_wo_entrp">  -2992.36401981 </i>
    <i name="e_0_energy">  -2992.36401981 </i>
   </energy>
  </scstep>
  <scstep>
   <time name="total">****************</time>
   <energy>
    <i name="e_fr_energy">    -28.38537052 </i>
    <i name="e_wo_entrp">    -28.38537052 </i>
    <i name="e_0_energy">    -28.38537052 </i>
   </energy>
  </scstep>
  <scstep>
   <time name="total">****************</time>
   <energy>
    <i name="e_fr_energy">    -27.12597060 </i>
    <i name="e_wo_entrp">    -27.12597060 </i>
    <i name="e_0_energy">    -27.12597060 </i>
   </energy>
  </scstep>
  <scstep>
   <time name="total">****************</time>
