Cu4 Ge2 S6                              
   1.0000000000000000     
     3.2282802872135061    5.6613995915914845    0.0223102111722453
    -3.2282802872135061    5.6613995915914845   -0.0223102111722453
    -2.0904664878254775    0.0000000000000000    6.0973562030643018
  Cu Ge  S
               4               2               6
Direct
  0.6273943480364838  0.8684930462903439  0.1409195544579651
  0.1315069537096563  0.3726056519635162  0.6409195544579650
  0.9736958047956753  0.2000102284177256  0.1401959372348104
  0.7999897715822742  0.0263041952043246  0.6401959372348107
  0.2754575596967328  0.5524141063996325  0.1191708156328859
  0.4475858936003673  0.7245424403032671  0.6191708156328859
  0.7444880515985632  0.7408431770580569  0.5162534309994068
  0.2591568229419429  0.2555119484014369  0.0162534309994069
  0.0885336296032616  0.0792914722567070  0.5186666544169873
  0.9207085277432930  0.9114663703967384  0.0186666544169872
  0.5787535372682613  0.5792789205765068  0.9997936072579328
  0.4207210794234931  0.4212464627317389  0.4997936072579326

  0.00000000E+00  0.00000000E+00  0.00000000E+00
  0.00000000E+00  0.00000000E+00  0.00000000E+00
  0.00000000E+00  0.00000000E+00  0.00000000E+00
  0.00000000E+00  0.00000000E+00  0.00000000E+00
  0.00000000E+00  0.00000000E+00  0.00000000E+00
  0.00000000E+00  0.00000000E+00  0.00000000E+00
  0.00000000E+00  0.00000000E+00  0.00000000E+00
  0.00000000E+00  0.00000000E+00  0.00000000E+00
  0.00000000E+00  0.00000000E+00  0.00000000E+00
  0.00000000E+00  0.00000000E+00  0.00000000E+00
  0.00000000E+00  0.00000000E+00  0.00000000E+00
  0.00000000E+00  0.00000000E+00  0.00000000E+00
