    2    2    1    1
  0.3497624E+02  0.4624939E-09  0.4624939E-09  0.4624939E-09  0.5000000E-15
   1.0000000000000000E-004
  CAR 
 unknown system                          
     18     35     24

  0.1262379E-14  0.1262379E-14  0.1262379E-14  0.1371742E-02
      1        -10.388162   1.000000
      2         -7.906510   1.000000
      3         -7.906509   1.000000
      4         -7.906509   1.000000
      5         -7.662217   1.000000
      6         -7.662216   1.000000
      7          1.595344   1.000000
      8          1.595345   1.000000
      9          1.595347   1.000000
     10          3.046705   0.000000
     11          7.079722   0.000000
     12          7.079723   0.000000
     13          7.079724   0.000000
     14         10.043113   0.000000
     15         11.878924   0.000000
     16         11.878928   0.000000
     17         12.673607   0.000000
     18         12.673607   0.000000
     19         12.673608   0.000000
     20         14.886669   0.000000
     21         22.713428   0.000000
     22         22.713430   0.000000
     23         22.713430   0.000000
     24         23.532751   0.000000

  0.1111111E+00  0.1268682E-14  0.1270154E-14  0.1097394E-01
      1        -10.342945   1.000000
      2         -7.898519   1.000000
      3         -7.898518   1.000000
      4         -7.863906   1.000000
      5         -7.662925   1.000000
      6         -7.662923   1.000000
      7          0.598791   1.000000
      8          1.485043   1.000000
      9          1.485044   1.000000
     10          3.789211   0.000000
     11          7.015847   0.000000
     12          7.257357   0.000000
     13          7.257358   0.000000
     14         10.683567   0.000000
     15         11.228685   0.000000
     16         11.228688   0.000000
     17         12.259254   0.000000
     18         13.720899   0.000000
     19         13.720900   0.000000
     20         15.797398   0.000000
     21         21.074201   0.000000
     22         21.074203   0.000000
     23         21.618897   0.000000
     24         22.793138   0.000000

  0.2222222E+00  0.1267476E-14  0.1270419E-14  0.1097394E-01
      1        -10.230684   1.000000
      2         -7.879382   1.000000
      3         -7.879382   1.000000
      4         -7.726314   1.000000
      5         -7.663201   1.000000
      6         -7.663198   1.000000
      7         -0.847128   1.000000
      8          1.231875   1.000000
      9          1.231877   1.000000
     10          4.307120   0.000000
     11          7.521582   0.000000
     12          7.585651   0.000000
     13          7.585653   0.000000
     14         10.898449   0.000000
     15         10.898451   0.000000
     16         10.930650   0.000000
     17         13.028495   0.000000
     18         15.351878   0.000000
     19         15.351879   0.000000
     20         17.610687   0.000000
     21         18.815569   0.000000
     22         18.815571   0.000000
     23         19.122098   0.000000
     24         23.013133   0.000000

  0.3333333E+00  0.1267455E-14  0.1271869E-14  0.1097394E-01
      1        -10.109275   1.000000
      2         -7.860150   1.000000
      3         -7.860149   1.000000
      4         -7.660334   1.000000
      5         -7.660328   1.000000
      6         -7.496091   1.000000
      7         -2.102149   1.000000
      8          0.978150   1.000000
      9          0.978151   1.000000
     10          4.282952   0.000000
     11          7.705946   0.000000
     12          7.705946   0.000000
     13          8.710017   0.000000
     14         10.594532   0.000000
     15         11.414614   0.000000
     16         11.414615   0.000000
     17         14.891955   0.000000
     18         16.422596   0.000000
     19         16.422597   0.000000
     20         16.982718   0.000000
     21         17.497362   0.000000
     22         17.497364   0.000000
     23         19.899511   0.000000
     24         23.305323   0.000000

  0.4444444E+00  0.1278814E-14  0.1284700E-14  0.1097394E-01
      1        -10.035155   1.000000
      2         -7.849512   1.000000
      3         -7.849512   1.000000
      4         -7.656230   1.000000
      5         -7.656222   1.000000
      6         -7.277294   1.000000
      7         -2.873487   1.000000
      8          0.827222   1.000000
      9          0.827223   1.000000
     10          4.186774   0.000000
     11          7.664872   0.000000
     12          7.664872   0.000000
     13          9.488272   0.000000
     14         10.993505   0.000000
     15         12.553976   0.000000
     16         12.553977   0.000000
     17         14.252976   0.000000
     18         14.706062   0.000000
     19         14.706064   0.000000
     20         18.077390   0.000000
     21         19.447475   0.000000
     22         19.447477   0.000000
     23         21.392105   0.000000
     24         21.936124   0.000000

  0.1111111E+00  0.1111111E+00  0.1267105E-14  0.8230453E-02
      1        -10.328020   1.000000
      2         -7.890912   1.000000
      3         -7.890911   1.000000
      4         -7.860029   1.000000
      5         -7.666725   1.000000
      6         -7.659174   1.000000
      7          0.574126   1.000000
      8          1.293125   1.000000
      9          1.293127   1.000000
     10          4.100968   0.000000
     11          6.544955   0.000000
     12          7.543886   0.000000
     13          7.543888   0.000000
     14         10.311917   0.000000
     15         10.988232   0.000000
     16         11.993849   0.000000
     17         13.015033   0.000000
     18         13.015034   0.000000
     19         13.595084   0.000000
     20         16.296971   0.000000
     21         20.954458   0.000000
     22         20.954459   0.000000
     23         21.294830   0.000000
     24         22.230423   0.000000

  0.2222222E+00  0.1111111E+00  0.1276975E-14  0.3292181E-01
      1        -10.238574   1.000000
      2         -7.876364   1.000000
      3         -7.871162   1.000000
      4         -7.761845   1.000000
      5         -7.664829   1.000000
      6         -7.656669   1.000000
      7         -0.517192   1.000000
      8          0.997119   1.000000
      9          1.060879   1.000000
     10          4.737074   0.000000
     11          6.454537   0.000000
     12          7.943190   0.000000
     13          7.996736   0.000000
     14          9.919176   0.000000
     15         11.732139   0.000000
     16         11.769627   0.000000
     17         12.956795   0.000000
     18         14.193383   0.000000
     19         15.025886   0.000000
     20         17.856331   0.000000
     21         18.765586   0.000000
     22         18.930138   0.000000
     23         21.311369   0.000000
     24         21.359160   0.000000

  0.3333333E+00  0.1111111E+00  0.1282176E-14  0.3292181E-01
      1        -10.121508   1.000000
      2         -7.859178   1.000000
      3         -7.850641   1.000000
      4         -7.681427   1.000000
      5         -7.654102   1.000000
      6         -7.538861   1.000000
      7         -1.739606   1.000000
      8          0.740088   1.000000
      9          0.748072   1.000000
     10          4.856052   0.000000
     11          7.019586   0.000000
     12          8.195389   0.000000
     13          8.200791   0.000000
     14         10.535289   0.000000
     15         11.590393   0.000000
     16         12.002735   0.000000
     17         14.406168   0.000000
     18         15.788823   0.000000
     19         16.639170   0.000000
     20         16.719772   0.000000
     21         17.076250   0.000000
     22         19.105699   0.000000
     23         20.010405   0.000000
     24         21.672091   0.000000

  0.4444444E+00  0.1111111E+00  0.1277378E-14  0.3292181E-01
      1        -10.033947   1.000000
      2         -7.845898   1.000000
      3         -7.839011   1.000000
      4         -7.670074   1.000000
      5         -7.653024   1.000000
      6         -7.301988   1.000000
      7         -2.643321   1.000000
      8          0.435861   1.000000
      9          0.639216   1.000000
     10          4.766161   0.000000
     11          7.266325   0.000000
     12          8.095670   0.000000
     13          9.078919   0.000000
     14         11.041428   0.000000
     15         12.122493   0.000000
     16         12.914730   0.000000
     17         14.105281   0.000000
     18         14.607454   0.000000
     19         16.810771   0.000000
     20         17.456787   0.000000
     21         18.058346   0.000000
     22         19.319303   0.000000
     23         21.174733   0.000000
     24         21.947215   0.000000

 -0.4444444E+00  0.1111111E+00  0.1283267E-14  0.3292181E-01
      1        -10.010417   1.000000
      2         -7.840865   1.000000
      3         -7.838818   1.000000
      4         -7.661622   1.000000
      5         -7.657113   1.000000
      6         -7.213784   1.000000
      7         -2.902762   1.000000
      8          0.264005   1.000000
      9          0.702876   1.000000
     10          4.734743   0.000000
     11          7.340456   0.000000
     12          7.945408   0.000000
     13          9.689470   0.000000
     14         11.289241   0.000000
     15         12.354495   0.000000
     16         12.422503   0.000000
     17         14.014705   0.000000
     18         14.998324   0.000000
     19         15.486036   0.000000
     20         18.210169   0.000000
     21         19.567448   0.000000
     22         20.139175   0.000000
     23         20.846257   0.000000
     24         21.250105   0.000000

 -0.3333333E+00  0.1111111E+00  0.1278469E-14  0.3292181E-01
      1        -10.058114   1.000000
      2         -7.849749   1.000000
      3         -7.844777   1.000000
      4         -7.664865   1.000000
      5         -7.660099   1.000000
      6         -7.374619   1.000000
      7         -2.392954   1.000000
      8          0.283043   1.000000
      9          0.917983   1.000000
     10          4.795798   0.000000
     11          7.509870   0.000000
     12          7.845707   0.000000
     13          8.837551   0.000000
     14         11.050219   0.000000
     15         11.258081   0.000000
     16         12.926775   0.000000
     17         13.933449   0.000000
     18         15.882298   0.000000
     19         16.785005   0.000000
     20         16.932986   0.000000
     21         17.629502   0.000000
     22         19.009185   0.000000
     23         21.168282   0.000000
     24         21.783906   0.000000

 -0.2222222E+00  0.1111111E+00  0.1255915E-14  0.3292181E-01
      1        -10.161323   1.000000
      2         -7.869619   1.000000
      3         -7.858389   1.000000
      4         -7.671551   1.000000
      5         -7.669203   1.000000
      6         -7.607575   1.000000
      7         -1.358939   1.000000
      8          0.516039   1.000000
      9          1.209621   1.000000
     10          4.826910   0.000000
     11          7.324919   0.000000
     12          7.666922   0.000000
     13          8.020539   0.000000
     14         10.344597   0.000000
     15         11.279251   0.000000
     16         12.103883   0.000000
     17         13.695751   0.000000
     18         15.142962   0.000000
     19         16.520838   0.000000
     20         16.895167   0.000000
     21         18.749494   0.000000
     22         19.019632   0.000000
     23         19.285264   0.000000
     24         21.550063   0.000000

 -0.1111111E+00  0.1111111E+00  0.1270058E-14  0.1646091E-01
      1        -10.275554   1.000000
      2         -7.889688   1.000000
      3         -7.879363   1.000000
      4         -7.794572   1.000000
      5         -7.667502   1.000000
      6         -7.658526   1.000000
      7         -0.194224   1.000000
      8          0.973503   1.000000
      9          1.446983   1.000000
     10          4.425068   0.000000
     11          6.863971   0.000000
     12          7.357227   0.000000
     13          7.817649   0.000000
     14         10.483776   0.000000
     15         11.035363   0.000000
     16         11.536246   0.000000
     17         12.998411   0.000000
     18         13.494641   0.000000
     19         15.174546   0.000000
     20         17.000630   0.000000
     21         18.778369   0.000000
     22         20.972660   0.000000
     23         21.108958   0.000000
     24         21.522491   0.000000

  0.2222222E+00  0.2222222E+00  0.1271832E-14  0.8230453E-02
      1        -10.180456   1.000000
      2         -7.849578   1.000000
      3         -7.849577   1.000000
      4         -7.742289   1.000000
      5         -7.651336   1.000000
      6         -7.639879   1.000000
      7         -0.804935   1.000000
      8          0.658874   1.000000
      9          0.658876   1.000000
     10          5.265127   0.000000
     11          5.777161   0.000000
     12          8.668119   0.000000
     13          8.668120   0.000000
     14          9.239689   0.000000
     15         12.329976   0.000000
     16         12.791240   0.000000
     17         14.026577   0.000000
     18         14.026578   0.000000
     19         14.446448   0.000000
     20         18.554319   0.000000
     21         18.554320   0.000000
     22         19.162420   0.000000
     23         19.361620   0.000000
     24         19.933695   0.000000

  0.3333333E+00  0.2222222E+00  0.1277916E-14  0.3292181E-01
      1        -10.087538   1.000000
      2         -7.832373   1.000000
      3         -7.826328   1.000000
      4         -7.713568   1.000000
      5         -7.647775   1.000000
      6         -7.503790   1.000000
      7         -1.619783   1.000000
      8          0.278225   1.000000
      9          0.383908   1.000000
     10          5.395009   0.000000
     11          5.943141   0.000000
     12          8.476275   0.000000
     13          9.131928   0.000000
     14         10.276696   0.000000
     15         12.575308   0.000000
     16         13.212338   0.000000
     17         14.490822   0.000000
     18         15.215255   0.000000
     19         16.222968   0.000000
     20         16.634598   0.000000
     21         16.723132   0.000000
     22         19.388862   0.000000
     23         19.466692   0.000000
     24         21.129615   0.000000

  0.4444444E+00  0.2222222E+00  0.1280056E-14  0.3292181E-01
      1        -10.006769   1.000000
      2         -7.824537   1.000000
      3         -7.812400   1.000000
      4         -7.697947   1.000000
      5         -7.647800   1.000000
      6         -7.278567   1.000000
      7         -2.395555   1.000000
      8         -0.191854   1.000000
      9          0.272105   1.000000
     10          5.343869   0.000000
     11          6.746423   0.000000
     12          8.348969   0.000000
     13          9.094969   0.000000
     14         11.537466   0.000000
     15         13.131796   0.000000
     16         13.273730   0.000000
     17         14.160706   0.000000
     18         14.735128   0.000000
     19         16.770097   0.000000
     20         17.057041   0.000000
     21         18.523403   0.000000
     22         19.117154   0.000000
     23         19.770376   0.000000
     24         20.661400   0.000000

 -0.4444444E+00  0.2222222E+00  0.1253126E-14  0.3292181E-01
      1         -9.972199   1.000000
      2         -7.823073   1.000000
      3         -7.811866   1.000000
      4         -7.681576   1.000000
      5         -7.654499   1.000000
      6         -7.132247   1.000000
      7         -2.764175   1.000000
      8         -0.551691   1.000000
      9          0.356970   1.000000
     10          5.370526   0.000000
     11          7.241408   0.000000
     12          8.832486   0.000000
     13          9.059735   0.000000
     14         11.110833   0.000000
     15         12.381996   0.000000
     16         13.062461   0.000000
     17         14.557690   0.000000
     18         15.349301   0.000000
     19         17.375715   0.000000
     20         17.737567   0.000000
     21         18.954624   0.000000
     22         19.251530   0.000000
     23         20.081770   0.000000
     24         20.826936   0.000000

 -0.3333333E+00  0.2222222E+00  0.1265957E-14  0.3292181E-01
      1         -9.994931   1.000000
      2         -7.826918   1.000000
      3         -7.824621   1.000000
      4         -7.669788   1.000000
      5         -7.664908   1.000000
      6         -7.207106   1.000000
      7         -2.544141   1.000000
      8         -0.639322   1.000000
      9          0.612162   1.000000
     10          5.481216   0.000000
     11          7.437525   0.000000
     12          8.533614   0.000000
     13          8.825847   0.000000
     14         11.027196   0.000000
     15         11.398126   0.000000
     16         13.190576   0.000000
     17         14.870887   0.000000
     18         15.693923   0.000000
     19         17.094867   0.000000
     20         17.114596   0.000000
     21         18.913553   0.000000
     22         19.648595   0.000000
     23         20.715052   0.000000
     24         20.872954   0.000000

 -0.2222222E+00  0.2222222E+00  0.1268719E-14  0.1646091E-01
      1        -10.067554   1.000000
      2         -7.847322   1.000000
      3         -7.838027   1.000000
      4         -7.670881   1.000000
      5         -7.666543   1.000000
      6         -7.420012   1.000000
      7         -1.950473   1.000000
      8         -0.298718   1.000000
      9          0.948205   1.000000
     10          5.440591   0.000000
     11          7.632462   0.000000
     12          7.762078   0.000000
     13          8.116121   0.000000
     14         10.302654   0.000000
     15         12.468758   0.000000
     16         13.232882   0.000000
     17         13.851309   0.000000
     18         14.357468   0.000000
     19         16.809803   0.000000
     20         18.476318   0.000000
     21         18.538085   0.000000
     22         19.135807   0.000000
     23         19.826254   0.000000
     24         20.762313   0.000000

  0.3333333E+00  0.3333333E+00  0.1276558E-14  0.8230453E-02
      1        -10.025444   1.000000
      2         -7.799784   1.000000
      3         -7.799783   1.000000
      4         -7.732299   1.000000
      5         -7.642474   1.000000
      6         -7.389048   1.000000
      7         -1.999460   1.000000
      8          0.071194   1.000000
      9          0.071196   1.000000
     10          5.121244   0.000000
     11          5.511130   0.000000
     12          9.791108   0.000000
     13         10.087962   0.000000
     14         10.087964   0.000000
     15         12.841810   0.000000
     16         14.612525   0.000000
     17         15.635171   0.000000
     18         15.635172   0.000000
     19         15.835982   0.000000
     20         16.343176   0.000000
     21         16.343177   0.000000
     22         17.717613   0.000000
     23         17.752484   0.000000
     24         22.218329   0.000000

  0.4444444E+00  0.3333333E+00  0.1278453E-14  0.3292181E-01
      1         -9.967103   1.000000
      2         -7.790896   1.000000
      3         -7.783290   1.000000
      4         -7.727106   1.000000
      5         -7.641189   1.000000
      6         -7.208598   1.000000
      7         -2.483361   1.000000
      8         -0.327808   1.000000
      9         -0.074376   1.000000
     10          5.162296   0.000000
     11          5.670166   0.000000
     12          9.585536   0.000000
     13         10.399280   0.000000
     14         11.550590   0.000000
     15         13.382638   0.000000
     16         14.227939   0.000000
     17         14.866205   0.000000
     18         15.164600   0.000000
     19         16.521032   0.000000
     20         16.860011   0.000000
     21         17.596975   0.000000
     22         17.812971   0.000000
     23         18.265673   0.000000
     24         20.313836   0.000000

 -0.4444444E+00  0.3333333E+00  0.1245804E-14  0.3292181E-01
      1         -9.938245   1.000000
      2         -7.798854   1.000000
      3         -7.782553   1.000000
      4         -7.707711   1.000000
      5         -7.647544   1.000000
      6         -7.063891   1.000000
      7         -2.721485   1.000000
      8         -0.855749   1.000000
      9         -0.008468   1.000000
     10          5.242642   0.000000
     11          6.668242   0.000000
     12          9.435895   0.000000
     13         10.058512   0.000000
     14         11.105475   0.000000
     15         12.674359   0.000000
     16         14.480136   0.000000
     17         15.164927   0.000000
     18         15.335974   0.000000
     19         17.169154   0.000000
     20         17.644302   0.000000
     21         17.842145   0.000000
     22         18.827708   0.000000
     23         19.025924   0.000000
     24         20.536076   0.000000

 -0.3333333E+00  0.3333333E+00  0.1268762E-14  0.1646091E-01
      1         -9.948950   1.000000
      2         -7.811556   1.000000
      3         -7.797923   1.000000
      4         -7.686464   1.000000
      5         -7.658180   1.000000
      6         -7.068757   1.000000
      7         -2.662001   1.000000
      8         -1.079047   1.000000
      9          0.249384   1.000000
     10          5.436924   0.000000
     11          7.595190   0.000000
     12          9.402071   0.000000
     13          9.427236   0.000000
     14         10.010841   0.000000
     15         11.525395   0.000000
     16         14.813790   0.000000
     17         15.331691   0.000000
     18         16.250074   0.000000
     19         16.805960   0.000000
     20         17.042131   0.000000
     21         18.285999   0.000000
     22         19.932985   0.000000
     23         20.162704   0.000000
     24         20.420709   0.000000

  0.4444444E+00  0.4444444E+00  0.1281285E-14  0.8230453E-02
      1         -9.934426   1.000000
      2         -7.765438   1.000000
      3         -7.765437   1.000000
      4         -7.745046   1.000000
      5         -7.636641   1.000000
      6         -7.113724   1.000000
      7         -2.759580   1.000000
      8         -0.265178   1.000000
      9         -0.265176   1.000000
     10          4.923074   0.000000
     11          5.140085   0.000000
     12         11.111388   0.000000
     13         11.492968   0.000000
     14         11.492970   0.000000
     15         13.341448   0.000000
     16         14.507258   0.000000
     17         14.507258   0.000000
     18         14.746794   0.000000
     19         16.639809   0.000000
     20         17.385860   0.000000
     21         17.726527   0.000000
     22         17.726528   0.000000
     23         18.327977   0.000000
     24         19.634980   0.000000

 -0.4444444E+00  0.4444444E+00  0.1291428E-14  0.1646091E-01
      1         -9.923436   1.000000
      2         -7.775598   1.000000
      3         -7.765047   1.000000
      4         -7.731689   1.000000
      5         -7.639183   1.000000
      6         -7.051146   1.000000
      7         -2.836112   1.000000
      8         -0.548248   1.000000
      9         -0.240853   1.000000
     10          5.039636   0.000000
     11          5.500961   0.000000
     12         10.763167   0.000000
     13         11.223110   0.000000
     14         11.552900   0.000000
     15         13.258946   0.000000
     16         14.175084   0.000000
     17         14.520059   0.000000
     18         15.449154   0.000000
     19         16.888975   0.000000
     20         17.164941   0.000000
     21         17.885682   0.000000
     22         18.625598   0.000000
     23         19.064054   0.000000
     24         19.293549   0.000000

  0.3333333E+00  0.2222222E+00  0.1111111E+00  0.3292181E-01
      1        -10.147546   1.000000
      2         -7.858529   1.000000
      3         -7.847660   1.000000
      4         -7.699943   1.000000
      5         -7.655527   1.000000
      6         -7.594238   1.000000
      7         -1.253196   1.000000
      8          0.328869   1.000000
      9          0.927026   1.000000
     10          5.307484   0.000000
     11          6.365743   0.000000
     12          8.018453   0.000000
     13          8.471326   0.000000
     14         10.033013   0.000000
     15         12.002043   0.000000
     16         12.717146   0.000000
     17         13.520447   0.000000
     18         14.789286   0.000000
     19         16.376090   0.000000
     20         16.551978   0.000000
     21         18.633422   0.000000
     22         19.407463   0.000000
     23         19.773698   0.000000
     24         21.358864   0.000000

  0.4444444E+00  0.2222222E+00  0.1111111E+00  0.6584362E-01
      1        -10.049942   1.000000
      2         -7.840208   1.000000
      3         -7.830408   1.000000
      4         -7.685902   1.000000
      5         -7.653991   1.000000
      6         -7.383757   1.000000
      7         -2.118049   1.000000
      8         -0.129172   1.000000
      9          0.657451   1.000000
     10          5.484420   0.000000
     11          6.912589   0.000000
     12          7.865270   0.000000
     13          8.870938   0.000000
     14         10.706292   0.000000
     15         12.447510   0.000000
     16         13.296930   0.000000
     17         13.842933   0.000000
     18         15.130673   0.000000
     19         16.667653   0.000000
     20         17.135736   0.000000
     21         18.321778   0.000000
     22         19.027240   0.000000
     23         20.209414   0.000000
     24         21.555985   0.000000

 -0.4444444E+00  0.2222222E+00  0.1111111E+00  0.6584362E-01
      1         -9.990521   1.000000
      2         -7.830049   1.000000
      3         -7.821600   1.000000
      4         -7.675461   1.000000
      5         -7.656298   1.000000
      6         -7.185105   1.000000
      7         -2.720627   1.000000
      8         -0.316605   1.000000
      9          0.442415   1.000000
     10          5.446624   0.000000
     11          7.046766   0.000000
     12          8.372156   0.000000
     13          9.316260   0.000000
     14         11.069341   0.000000
     15         12.457244   0.000000
     16         12.804642   0.000000
     17         14.144650   0.000000
     18         15.503876   0.000000
     19         16.989307   0.000000
     20         17.363535   0.000000
     21         18.979605   0.000000
     22         19.906293   0.000000
     23         20.240889   0.000000
     24         20.816352   0.000000

  0.4444444E+00  0.3333333E+00  0.1111111E+00  0.3292181E-01
      1        -10.013248   1.000000
      2         -7.813708   1.000000
      3         -7.806823   1.000000
      4         -7.711850   1.000000
      5         -7.646145   1.000000
      6         -7.326398   1.000000
      7         -2.159508   1.000000
      8         -0.232530   1.000000
      9          0.171517   1.000000
     10          5.676271   0.000000
     11          5.921868   0.000000
     12          8.349871   0.000000
     13         10.048093   0.000000
     14         10.777544   0.000000
     15         13.357807   0.000000
     16         13.871767   0.000000
     17         14.366184   0.000000
     18         14.972319   0.000000
     19         16.452233   0.000000
     20         16.946927   0.000000
     21         17.578229   0.000000
     22         17.922624   0.000000
     23         19.720792   0.000000
     24         21.426509   0.000000

 -0.4444444E+00  0.3333333E+00  0.1111111E+00  0.6584362E-01
      1         -9.960214   1.000000
      2         -7.808274   1.000000
      3         -7.796898   1.000000
      4         -7.699112   1.000000
      5         -7.650609   1.000000
      6         -7.133307   1.000000
      7         -2.591361   1.000000
      8         -0.659408   1.000000
      9         -0.018223   1.000000
     10          5.775481   0.000000
     11          6.726646   0.000000
     12          8.157596   0.000000
     13         10.152631   0.000000
     14         11.082422   0.000000
     15         13.085433   0.000000
     16         13.956095   0.000000
     17         14.353661   0.000000
     18         15.585710   0.000000
     19         16.392828   0.000000
     20         17.576761   0.000000
     21         18.747412   0.000000
     22         19.244550   0.000000
     23         19.745765   0.000000
     24         20.197325   0.000000

 -0.3333333E+00  0.3333333E+00  0.1111111E+00  0.6584362E-01
      1         -9.948945   1.000000
      2         -7.811756   1.000000
      3         -7.798429   1.000000
      4         -7.684895   1.000000
      5         -7.659103   1.000000
      6         -7.068436   1.000000
      7         -2.692521   1.000000
      8         -0.911712   1.000000
      9          0.053514   1.000000
     10          5.886532   0.000000
     11          7.268379   0.000000
     12          8.367213   0.000000
     13          9.784179   0.000000
     14         10.414259   0.000000
     15         12.463220   0.000000
     16         14.139960   0.000000
     17         14.715104   0.000000
     18         16.450859   0.000000
     19         16.861999   0.000000
     20         17.200946   0.000000
     21         18.698302   0.000000
     22         19.136148   0.000000
     23         20.261054   0.000000
     24         20.609659   0.000000

 -0.2222222E+00  0.3333333E+00  0.1111111E+00  0.3292181E-01
      1         -9.982836   1.000000
      2         -7.820775   1.000000
      3         -7.812532   1.000000
      4         -7.683568   1.000000
      5         -7.658522   1.000000
      6         -7.188497   1.000000
      7         -2.458999   1.000000
      8         -0.776185   1.000000
      9          0.340042   1.000000
     10          5.964300   0.000000
     11          7.292069   0.000000
     12          7.617844   0.000000
     13          9.799005   0.000000
     14         10.589729   0.000000
     15         11.944793   0.000000
     16         14.257037   0.000000
     17         14.574288   0.000000
     18         15.191823   0.000000
     19         16.735656   0.000000
     20         17.636839   0.000000
     21         18.845866   0.000000
     22         19.572840   0.000000
     23         20.437439   0.000000
     24         20.709375   0.000000

 -0.4444444E+00  0.4444444E+00  0.1111111E+00  0.3292181E-01
      1         -9.933806   1.000000
      2         -7.781267   1.000000
      3         -7.779609   1.000000
      4         -7.720813   1.000000
      5         -7.642998   1.000000
      6         -7.077027   1.000000
      7         -2.727413   1.000000
      8         -0.503081   1.000000
      9         -0.353219   1.000000
     10          5.513328   0.000000
     11          5.655958   0.000000
     12          9.572313   0.000000
     13         10.832983   0.000000
     14         11.735565   0.000000
     15         13.550707   0.000000
     16         13.895937   0.000000
     17         14.509114   0.000000
     18         15.966582   0.000000
     19         16.568091   0.000000
     20         17.125329   0.000000
     21         17.750874   0.000000
     22         18.746709   0.000000
     23         19.018690   0.000000
     24         19.491864   0.000000

 -0.3333333E+00  0.4444444E+00  0.1111111E+00  0.3292181E-01
      1         -9.927112   1.000000
      2         -7.794316   1.000000
      3         -7.781968   1.000000
      4         -7.702952   1.000000
      5         -7.651630   1.000000
      6         -7.017470   1.000000
      7         -2.743082   1.000000
      8         -0.890905   1.000000
      9         -0.282768   1.000000
     10          5.708631   0.000000
     11          6.686916   0.000000
     12          9.215922   0.000000
     13          9.510937   0.000000
     14         11.622676   0.000000
     15         12.940928   0.000000
     16         14.421379   0.000000
     17         14.852329   0.000000
     18         16.238839   0.000000
     19         16.829845   0.000000
     20         17.600116   0.000000
     21         18.164455   0.000000
     22         18.476905   0.000000
     23         18.866772   0.000000
     24         20.611961   0.000000

 -0.3333333E+00  0.4444444E+00  0.2222222E+00  0.3292181E-01
      1         -9.931354   1.000000
      2         -7.799751   1.000000
      3         -7.788435   1.000000
      4         -7.691564   1.000000
      5         -7.658821   1.000000
      6         -7.020959   1.000000
      7         -2.688194   1.000000
      8         -0.867160   1.000000
      9         -0.410382   1.000000
     10          6.569628   0.000000
     11          6.915053   0.000000
     12          7.934076   0.000000
     13          9.304521   0.000000
     14         11.759350   0.000000
     15         13.100458   0.000000
     16         14.326239   0.000000
     17         14.643418   0.000000
     18         15.948624   0.000000
     19         16.678266   0.000000
     20         17.863537   0.000000
     21         18.363820   0.000000
     22         18.905579   0.000000
     23         19.665564   0.000000
     24         20.157623   0.000000
