GCCcore/11.3.0
zlib/1.2.12-GCCcore-11.3.0
binutils/2.38-GCCcore-11.3.0
GCC/11.3.0
numactl/2.0.14-GCCcore-11.3.0
XZ/5.2.5-GCCcore-11.3.0
libxml2/2.9.13-GCCcore-11.3.0
libpciaccess/0.16-GCCcore-11.3.0
hwloc/2.7.1-GCCcore-11.3.0
OpenSSL/1.1
libevent/2.1.12-GCCcore-11.3.0
UCX/1.12.1-GCCcore-11.3.0
libfabric/1.15.1-GCCcore-11.3.0
PMIx/4.1.2-GCCcore-11.3.0
UCC/1.0.0-GCCcore-11.3.0
OpenMPI/4.1.4-GCC-11.3.0
OpenBLAS/0.3.20-GCC-11.3.0
FlexiBLAS/3.2.0-GCC-11.3.0
FFTW/3.3.10-GCC-11.3.0
gompi/2022a
FFTW.MPI/3.3.10-gompi-2022a
ScaLAPACK/2.2.0-gompi-2022a-fb
foss/2022a
Szip/2.1.1-GCCcore-11.3.0
HDF5/1.13.1-gompi-2022a
The use of VASP is restricted. You must be a member of the correct Unix group for VASP to work.

VASP/6.4.2-foss-2022a
 running   48 mpi-ranks, with    1 threads/rank, on    1 nodes
 distrk:  each k-point on   48 cores,    1 groups
 distr:  one band on    4 cores,   12 groups
 vasp.6.4.2 20Jul23 (build Oct 17 2023 11:49:23) complex                         
 POSCAR found type information on POSCAR CdTe
 POSCAR found :  2 types and       2 ions
 Reading from existing POTCAR
 scaLAPACK will be used
 Reading from existing POTCAR
 LDA part: xc-table for Pade appr. of Perdew
 -----------------------------------------------------------------------------
|                                                                             |
|           W    W    AA    RRRRR   N    N  II  N    N   GGGG   !!!           |
|           W    W   A  A   R    R  NN   N  II  NN   N  G    G  !!!           |
|           W    W  A    A  R    R  N N  N  II  N N  N  G       !!!           |
|           W WW W  AAAAAA  RRRRR   N  N N  II  N  N N  G  GGG   !            |
|           WW  WW  A    A  R   R   N   NN  II  N   NN  G    G                |
|           W    W  A    A  R    R  N    N  II  N    N   GGGG   !!!           |
|                                                                             |
|     The requested file  could not be found or opened for reading            |
|     k-point information. Automatic k-point generation is used as a          |
|     fallback, which may lead to unwanted results.                           |
|                                                                             |
 -----------------------------------------------------------------------------

 INCAR ok, starting setup
 POSCAR ok, starting setup
 FFT: planning ... GRIDC
 FFT: planning ... GRID_SOFT
 FFT: planning ... GRID
 WAVECAR not read
 entering main loop
       N       E                     dE             d eps       ncg     rms          rms(c)
DAV:   1    -0.204202378345E+04   -0.20420E+04   -0.78370E+03  1704   0.576E+02
DAV:   2    -0.213586184075E+04   -0.93838E+02   -0.90635E+02  2196   0.166E+02
DAV:   3    -0.213903724270E+04   -0.31754E+01   -0.31720E+01  2136   0.310E+01
DAV:   4    -0.213908377875E+04   -0.46536E-01   -0.46532E-01  2592   0.314E+00
DAV:   5    -0.615481199461E+01    0.21329E+04   -0.10031E+01  1908   0.229E+01    0.140E+01
DAV:   6    -0.605149806685E+01    0.10331E+00   -0.62339E-01  2400   0.337E+00    0.858E+00
DAV:   7    -0.604245412072E+01    0.90439E-02   -0.20156E-01  2580   0.162E+00    0.616E+00
DAV:   8    -0.604214685655E+01    0.30726E-03   -0.15485E-02  2412   0.533E-01    0.377E+00
DAV:   9    -0.604066040488E+01    0.14865E-02   -0.12412E-03  2304   0.192E-01    0.229E+00
DAV:  10    -0.604005597043E+01    0.60443E-03   -0.35539E-04  2148   0.871E-02    0.131E+00
DAV:  11    -0.603990811245E+01    0.14786E-03   -0.17076E-04  2184   0.534E-02    0.728E-01
DAV:  12    -0.603988668241E+01    0.21430E-04   -0.54045E-05  2172   0.329E-02    0.407E-01
DAV:  13    -0.603989305500E+01   -0.63726E-05   -0.19710E-05  2184   0.211E-02    0.231E-01
DAV:  14    -0.603990212831E+01   -0.90733E-05   -0.80727E-06  2136   0.136E-02    0.133E-01
DAV:  15    -0.603990913967E+01   -0.70114E-05   -0.34485E-06  2100   0.874E-03    0.781E-02
DAV:  16    -0.603991348873E+01   -0.43491E-05   -0.15120E-06  2088   0.560E-03    0.466E-02
DAV:  17    -0.603991604285E+01   -0.25541E-05   -0.68834E-07  2052   0.363E-03    0.283E-02
DAV:  18    -0.603991744685E+01   -0.14040E-05   -0.32898E-07  2028   0.241E-03    0.173E-02
DAV:  19    -0.603991815681E+01   -0.70996E-06   -0.15829E-07  1992   0.162E-03
   1 F= -.60399182E+01 E0= -.60399182E+01  d E =0.000000E+00
 writing wavefunctions
