Cu4 Ge2 Se6                             
   1.0000000000000000     
     3.4034882567831746    5.9595400849332449    0.0000000000000000
    -3.4034882567831746    5.9595400849332449    0.0000000000000000
    -2.1747650599535127    0.0000000000000000    6.4591221236745584
  Cu/0e71e558f37  Ge_d/944b26c40  Se/eabb916e6b4
               4               2               6
Direct
  0.6670581818011030  0.8273504784242647  0.0057588758636200
  0.1726495215757353  0.3329418181988970  0.5057588758636200
  0.8480376096007234  0.9792624176003244  0.5094819460143754
  0.0207375823996756  0.1519623903992766  0.0094819460143754
  0.4916793282778684  0.6800193455776267  0.4861107073377724
  0.3199806544223733  0.5083206717221316  0.9861107073377724
  0.1274475097925389  0.0414242843905512  0.3841527191939775
  0.9585757156094488  0.8725524902074611  0.8841527191939775
  0.2998057299706005  0.2095985014242245  0.8783516417464838
  0.7904014985757755  0.7001942700293995  0.3783516417464838
  0.4659694999880841  0.3716299320138603  0.3693296738437652
  0.6283700679861397  0.5340305000119159  0.8693296738437652

  0.00000000E+00  0.00000000E+00  0.00000000E+00
  0.00000000E+00  0.00000000E+00  0.00000000E+00
  0.00000000E+00  0.00000000E+00  0.00000000E+00
  0.00000000E+00  0.00000000E+00  0.00000000E+00
  0.00000000E+00  0.00000000E+00  0.00000000E+00
  0.00000000E+00  0.00000000E+00  0.00000000E+00
  0.00000000E+00  0.00000000E+00  0.00000000E+00
  0.00000000E+00  0.00000000E+00  0.00000000E+00
  0.00000000E+00  0.00000000E+00  0.00000000E+00
  0.00000000E+00  0.00000000E+00  0.00000000E+00
  0.00000000E+00  0.00000000E+00  0.00000000E+00
  0.00000000E+00  0.00000000E+00  0.00000000E+00
