Cu4 Ge2 S6                              
   1.0000000000000000     
     3.2283573777284738    5.6613995915914845    0.0000000000000000
    -3.2283573777284738    5.6613995915914845    0.0000000000000000
    -2.0482795662162392    0.0000000000000000    6.1116571911707460
  Cu/0e71e558f37  Ge_d/944b26c40  S/0fc7481fb069
               4               2               6
Direct
  0.8684930462903466  0.6273943480364821  0.8590804455420340
  0.3726056519635179  0.1315069537096534  0.3590804455420340
  0.2000102284177245  0.9736958047956747  0.8598040627651926
  0.0263041952043253  0.7999897715822755  0.3598040627651926
  0.5524141063996311  0.2754575596967328  0.8808291843671157
  0.7245424403032672  0.4475858936003689  0.3808291843671157
  0.7408431770580535  0.7444880515985659  0.4837465690005942
  0.2555119484014341  0.2591568229419465  0.9837465690005942
  0.0792914722567062  0.0885336296032619  0.4813333455830104
  0.9114663703967381  0.9207085277432938  0.9813333455830104
  0.5792789205765061  0.5787535372682626  0.0002063927420650
  0.4212464627317374  0.4207210794234939  0.5002063927420650

  0.00000000E+00  0.00000000E+00  0.00000000E+00
  0.00000000E+00  0.00000000E+00  0.00000000E+00
  0.00000000E+00  0.00000000E+00  0.00000000E+00
  0.00000000E+00  0.00000000E+00  0.00000000E+00
  0.00000000E+00  0.00000000E+00  0.00000000E+00
  0.00000000E+00  0.00000000E+00  0.00000000E+00
  0.00000000E+00  0.00000000E+00  0.00000000E+00
  0.00000000E+00  0.00000000E+00  0.00000000E+00
  0.00000000E+00  0.00000000E+00  0.00000000E+00
  0.00000000E+00  0.00000000E+00  0.00000000E+00
  0.00000000E+00  0.00000000E+00  0.00000000E+00
  0.00000000E+00  0.00000000E+00  0.00000000E+00
