Cu4 Ge2 S6                              
   1.0000000000000000     
     3.1905071751080643    5.5737442975310065    0.0000000000000000
    -3.1905071751080643    5.5737442975310065    0.0000000000000000
    -2.0730843644453194    0.0000000000000000    6.0463019279294326
  Cu/0e71e558f37  Ge_d/944b26c40  S/0fc7481fb069
               4               2               6
Direct
  0.6258865024778331  0.8698873751515634  0.1396975254865964
  0.1301126248484366  0.3741134975221669  0.6396975254865964
  0.9718860325132255  0.1990805575770693  0.1409276566948421
  0.8009194424229307  0.0281139674867745  0.6409276566948421
  0.2754079931734097  0.5497557740668100  0.1198291620473881
  0.4502442259331900  0.7245920068265903  0.6198291620473881
  0.7503869863917885  0.7439427970729895  0.5123680679571763
  0.2560572029270105  0.2496130136082115  0.0123680679571763
  0.0827621524631539  0.0859937379447899  0.5159843148886409
  0.9140062620552101  0.9172378475368461  0.0159843148886409
  0.5876279778802953  0.5773054230864858  0.0061932729253513
  0.4226945769135142  0.4123720221197047  0.5061932729253513

  0.00000000E+00  0.00000000E+00  0.00000000E+00
  0.00000000E+00  0.00000000E+00  0.00000000E+00
  0.00000000E+00  0.00000000E+00  0.00000000E+00
  0.00000000E+00  0.00000000E+00  0.00000000E+00
  0.00000000E+00  0.00000000E+00  0.00000000E+00
  0.00000000E+00  0.00000000E+00  0.00000000E+00
  0.00000000E+00  0.00000000E+00  0.00000000E+00
  0.00000000E+00  0.00000000E+00  0.00000000E+00
  0.00000000E+00  0.00000000E+00  0.00000000E+00
  0.00000000E+00  0.00000000E+00  0.00000000E+00
  0.00000000E+00  0.00000000E+00  0.00000000E+00
  0.00000000E+00  0.00000000E+00  0.00000000E+00
