Cu4 Ge2 S6
1.0
   3.1905071751080643    5.5737442975310065    0.0000000000000000
  -3.1905071751080643    5.5737442975310065    0.0000000000000000
  -2.0730843644453194    0.0000000000000000    6.0463019279294326
Cu Ge S
4 2 6
direct
   1.6258865024778359   -0.1301126248484363    0.1396975254865980 Cu
   1.1301126248484363    0.3741134975221641    0.6396975254865980 Cu
   0.9718860325132248    0.1990805575770678    0.1409276566948456 Cu
   1.8009194424229322    0.0281139674867752    0.6409276566948456 Cu
   1.2754079931734106    0.5497557740668082    0.1198291620473866 Ge
   1.4502442259331918   -0.2754079931734106    0.6198291620473866 Ge
   0.7503869863917862    0.7439427970729913    0.5123680679571794 S
   1.2560572029270087    0.2496130136082138    0.0123680679571794 S
   1.0827621524631530    0.0859937379447904    0.5159843148886412 S
   1.9140062620552096   -0.0827621524631530    0.0159843148886412 S
   0.5876279778802971    0.5773054230864876    0.0061932729253515 S
   1.4226945769135124    0.4123720221197029    0.5061932729253515 S
