   12   12    1    1
  0.2183530E+02  0.6862933E-09  0.6862933E-09  0.6815414E-09  0.5000000E-15
   1.0000000000000000E-004
  CAR 
 unknown system                          
    108    151    140

  0.0000000E+00  0.0000000E+00  0.0000000E+00  0.5102041E-02
      1        -25.453765   1.000000
      2        -25.448668   1.000000
      3        -25.439054   1.000000
      4        -25.438443   1.000000
      5        -25.409231   1.000000
      6        -25.408834   1.000000
      7        -25.386753   1.000000
      8        -25.386041   1.000000
      9        -25.381358   1.000000
     10        -25.380589   1.000000
     11        -12.863589   1.000000
     12        -11.550031   1.000000
     13        -11.376568   1.000000
     14        -11.137581   1.000000
     15        -10.829680   1.000000
     16        -10.824347   1.000000
     17         -6.458436   1.000000
     18         -5.577730   1.000000
     19         -2.893699   1.000000
     20         -2.315881   1.000000
     21         -2.231731   1.000000
     22         -2.117315   1.000000
     23         -1.768465   1.000000
     24         -1.378337   1.000000
     25         -1.319275   1.000000
     26         -0.959082   1.000000
     27         -0.738839   1.000000
     28         -0.655762   1.000000
     29         -0.654232   1.000000
     30         -0.629391   1.000000
     31         -0.597937   1.000000
     32         -0.539052   1.000000
     33         -0.410632   1.000000
     34         -0.410280   1.000000
     35          0.532487   1.000000
     36          0.568031   1.000000
     37          0.598108   1.000000
     38          0.629280   1.000000
     39          0.640025   1.000000
     40          0.665876   1.000000
     41          0.695816   1.000000
     42          0.700959   1.000000
     43          0.731216   1.000000
     44          0.912497   1.000000
     45          1.095148   1.000000
     46          1.116368   1.000000
     47          1.229091   1.000000
     48          1.776254   1.000000
     49          1.938496   1.000000
     50          2.321388   1.000000
     51          2.471685   1.000000
     52          3.307615   1.000000
     53          3.322984   1.000000
     54          3.476218   1.000000
     55          4.078656   0.000000
     56          4.994425   0.000000
     57          6.445989   0.000000
     58          6.773400   0.000000
     59          7.420665   0.000000
     60          7.606165   0.000000
     61          8.332469   0.000000
     62          8.440608   0.000000
     63          8.584485   0.000000
     64          9.231727   0.000000
     65          9.548249   0.000000
     66          9.645138   0.000000
     67          9.729844   0.000000
     68         10.110199   0.000000
     69         10.689197   0.000000
     70         11.259225   0.000000
     71         11.353125   0.000000
     72         11.689659   0.000000
     73         12.249689   0.000000
     74         12.391863   0.000000
     75         12.710475   0.000000
     76         12.729890   0.000000
     77         12.934811   0.000000
     78         13.157309   0.000000
     79         13.500488   0.000000
     80         13.590575   0.000000
     81         13.630492   0.000000
     82         13.879817   0.000000
     83         14.348734   0.000000
     84         14.692351   0.000000
     85         14.846518   0.000000
     86         15.021564   0.000000
     87         15.263549   0.000000
     88         15.461488   0.000000
     89         16.717779   0.000000
     90         16.745532   0.000000
     91         16.818654   0.000000
     92         16.830069   0.000000
     93         16.965449   0.000000
     94         17.315512   0.000000
     95         17.445368   0.000000
     96         17.798541   0.000000
     97         17.967091   0.000000
     98         18.403098   0.000000
     99         18.681264   0.000000
    100         18.801230   0.000000
    101         19.025689   0.000000
    102         19.337256   0.000000
    103         19.897624   0.000000
    104         20.173425   0.000000
    105         20.251103   0.000000
    106         20.757113   0.000000
    107         20.780184   0.000000
    108         20.979681   0.000000
    109         21.406533   0.000000
    110         21.783989   0.000000
    111         21.788528   0.000000
    112         22.024279   0.000000
    113         22.197231   0.000000
    114         22.395655   0.000000
    115         22.790613   0.000000
    116         22.973878   0.000000
    117         22.993909   0.000000
    118         23.096648   0.000000
    119         23.313405   0.000000
    120         24.003771   0.000000
    121         24.016907   0.000000
    122         24.533582   0.000000
    123         24.612358   0.000000
    124         25.194736   0.000000
    125         25.680715   0.000000
    126         25.680814   0.000000
    127         26.254369   0.000000
    128         26.341630   0.000000
    129         27.020512   0.000000
    130         27.059912   0.000000
    131         27.230086   0.000000
    132         27.266026   0.000000
    133         27.396057   0.000000
    134         27.443610   0.000000
    135         27.617333   0.000000
    136         27.738618   0.000000
    137         27.809488   0.000000
    138         27.947532   0.000000
    139         28.277725   0.000000
    140         28.389047   0.000000

  0.1428571E+00  0.0000000E+00  0.0000000E+00  0.1020408E-01
      1        -25.453731   1.000000
      2        -25.448633   1.000000
      3        -25.439030   1.000000
      4        -25.438422   1.000000
      5        -25.409183   1.000000
      6        -25.408776   1.000000
      7        -25.386718   1.000000
      8        -25.385995   1.000000
      9        -25.381308   1.000000
     10        -25.380538   1.000000
     11        -12.823315   1.000000
     12        -11.534064   1.000000
     13        -11.409585   1.000000
     14        -11.156203   1.000000
     15        -10.880401   1.000000
     16        -10.827444   1.000000
     17         -6.442916   1.000000
     18         -5.514682   1.000000
     19         -2.856052   1.000000
     20         -2.360478   1.000000
     21         -2.225204   1.000000
     22         -2.036800   1.000000
     23         -1.728296   1.000000
     24         -1.322684   1.000000
     25         -1.162289   1.000000
     26         -0.986200   1.000000
     27         -0.776813   1.000000
     28         -0.713436   1.000000
     29         -0.668874   1.000000
     30         -0.642182   1.000000
     31         -0.585852   1.000000
     32         -0.550736   1.000000
     33         -0.434364   1.000000
     34         -0.407561   1.000000
     35          0.522451   1.000000
     36          0.558079   1.000000
     37          0.580864   1.000000
     38          0.593112   1.000000
     39          0.623140   1.000000
     40          0.642788   1.000000
     41          0.671622   1.000000
     42          0.711671   1.000000
     43          0.799479   1.000000
     44          0.954362   1.000000
     45          1.162086   1.000000
     46          1.214445   1.000000
     47          1.256132   1.000000
     48          1.695360   1.000000
     49          1.877573   1.000000
     50          2.129243   1.000000
     51          2.328957   1.000000
     52          2.778060   1.000000
     53          3.185577   1.000000
     54          3.419217   1.000000
     55          4.555184   0.000000
     56          5.268618   0.000000
     57          6.682681   0.000000
     58          6.907567   0.000000
     59          7.433632   0.000000
     60          7.693962   0.000000
     61          8.248760   0.000000
     62          8.471145   0.000000
     63          8.542556   0.000000
     64          9.268656   0.000000
     65          9.464018   0.000000
     66          9.670239   0.000000
     67          9.792574   0.000000
     68         10.151667   0.000000
     69         10.618946   0.000000
     70         10.803529   0.000000
     71         11.142137   0.000000
     72         11.357599   0.000000
     73         11.816370   0.000000
     74         12.093053   0.000000
     75         12.671086   0.000000
     76         12.808314   0.000000
     77         12.962619   0.000000
     78         13.191061   0.000000
     79         13.568445   0.000000
     80         13.816140   0.000000
     81         14.049513   0.000000
     82         14.372199   0.000000
     83         14.529946   0.000000
     84         14.704033   0.000000
     85         15.015039   0.000000
     86         15.082315   0.000000
     87         15.366835   0.000000
     88         15.732177   0.000000
     89         16.362567   0.000000
     90         16.379826   0.000000
     91         16.797083   0.000000
     92         16.953790   0.000000
     93         17.089005   0.000000
     94         17.362026   0.000000
     95         17.632669   0.000000
     96         17.952435   0.000000
     97         18.268877   0.000000
     98         18.627853   0.000000
     99         18.755695   0.000000
    100         19.007989   0.000000
    101         19.351614   0.000000
    102         19.465521   0.000000
    103         19.752009   0.000000
    104         19.934518   0.000000
    105         20.336047   0.000000
    106         20.431214   0.000000
    107         20.614839   0.000000
    108         20.936208   0.000000
    109         21.119292   0.000000
    110         21.356192   0.000000
    111         21.458790   0.000000
    112         21.801075   0.000000
    113         22.023130   0.000000
    114         22.243698   0.000000
    115         22.430717   0.000000
    116         22.894834   0.000000
    117         23.114903   0.000000
    118         23.235681   0.000000
    119         23.489674   0.000000
    120         24.285154   0.000000
    121         24.833380   0.000000
    122         24.970723   0.000000
    123         25.003926   0.000000
    124         25.471394   0.000000
    125         25.586050   0.000000
    126         25.836389   0.000000
    127         26.061592   0.000000
    128         26.260496   0.000000
    129         26.444721   0.000000
    130         26.534587   0.000000
    131         26.771968   0.000000
    132         26.886440   0.000000
    133         27.018692   0.000000
    134         27.261130   0.000000
    135         27.464334   0.000000
    136         27.635906   0.000000
    137         27.787991   0.000000
    138         27.991707   0.000000
    139         28.248610   0.000000
    140         28.384118   0.000000

  0.2857143E+00  0.0000000E+00  0.0000000E+00  0.1020408E-01
      1        -25.453626   1.000000
      2        -25.448541   1.000000
      3        -25.438954   1.000000
      4        -25.438345   1.000000
      5        -25.409055   1.000000
      6        -25.408638   1.000000
      7        -25.386613   1.000000
      8        -25.385894   1.000000
      9        -25.381190   1.000000
     10        -25.380402   1.000000
     11        -12.720144   1.000000
     12        -11.533746   1.000000
     13        -11.457174   1.000000
     14        -11.209859   1.000000
     15        -10.947765   1.000000
     16        -10.871933   1.000000
     17         -6.404235   1.000000
     18         -5.366106   1.000000
     19         -2.746473   1.000000
     20         -2.387243   1.000000
     21         -2.265642   1.000000
     22         -1.807797   1.000000
     23         -1.513033   1.000000
     24         -1.340372   1.000000
     25         -1.053527   1.000000
     26         -0.969596   1.000000
     27         -0.932952   1.000000
     28         -0.821089   1.000000
     29         -0.730719   1.000000
     30         -0.623634   1.000000
     31         -0.583370   1.000000
     32         -0.558618   1.000000
     33         -0.443830   1.000000
     34         -0.386311   1.000000
     35          0.483645   1.000000
     36          0.539575   1.000000
     37          0.550450   1.000000
     38          0.582504   1.000000
     39          0.609404   1.000000
     40          0.637852   1.000000
     41          0.671709   1.000000
     42          0.699648   1.000000
     43          0.922524   1.000000
     44          1.043939   1.000000
     45          1.215443   1.000000
     46          1.310041   1.000000
     47          1.393103   1.000000
     48          1.468494   1.000000
     49          1.659537   1.000000
     50          2.010449   1.000000
     51          2.089207   1.000000
     52          2.332833   1.000000
     53          2.845544   1.000000
     54          3.274546   1.000000
     55          4.980395   0.000000
     56          5.687105   0.000000
     57          6.975380   0.000000
     58          7.118717   0.000000
     59          7.377758   0.000000
     60          7.859451   0.000000
     61          8.007154   0.000000
     62          8.323414   0.000000
     63          8.739746   0.000000
     64          9.287219   0.000000
     65          9.473532   0.000000
     66          9.781415   0.000000
     67          9.908293   0.000000
     68         10.146678   0.000000
     69         10.408716   0.000000
     70         10.625392   0.000000
     71         10.967122   0.000000
     72         11.197204   0.000000
     73         11.346971   0.000000
     74         11.795870   0.000000
     75         12.306065   0.000000
     76         12.696436   0.000000
     77         12.973091   0.000000
     78         13.260737   0.000000
     79         13.606361   0.000000
     80         13.799990   0.000000
     81         14.089837   0.000000
     82         14.267884   0.000000
     83         14.652416   0.000000
     84         14.846043   0.000000
     85         15.250307   0.000000
     86         15.495991   0.000000
     87         15.802227   0.000000
     88         16.209285   0.000000
     89         16.520239   0.000000
     90         16.824296   0.000000
     91         16.954012   0.000000
     92         17.139653   0.000000
     93         17.299573   0.000000
     94         17.564578   0.000000
     95         17.753729   0.000000
     96         17.997515   0.000000
     97         18.337679   0.000000
     98         18.469304   0.000000
     99         18.614373   0.000000
    100         18.964386   0.000000
    101         19.177015   0.000000
    102         19.454025   0.000000
    103         19.756404   0.000000
    104         19.862426   0.000000
    105         20.303143   0.000000
    106         20.442190   0.000000
    107         20.626291   0.000000
    108         20.881830   0.000000
    109         21.102399   0.000000
    110         21.308112   0.000000
    111         21.519993   0.000000
    112         21.917369   0.000000
    113         22.277493   0.000000
    114         22.378622   0.000000
    115         22.656377   0.000000
    116         23.021580   0.000000
    117         23.208356   0.000000
    118         23.418327   0.000000
    119         23.588115   0.000000
    120         23.808869   0.000000
    121         24.319366   0.000000
    122         24.878799   0.000000
    123         25.037114   0.000000
    124         25.272143   0.000000
    125         25.395928   0.000000
    126         25.569370   0.000000
    127         25.653659   0.000000
    128         26.074403   0.000000
    129         26.163918   0.000000
    130         26.327246   0.000000
    131         26.479473   0.000000
    132         26.589694   0.000000
    133         26.889955   0.000000
    134         26.964574   0.000000
    135         27.163083   0.000000
    136         27.376117   0.000000
    137         27.455601   0.000000
    138         27.651277   0.000000
    139         27.800053   0.000000
    140         27.906094   0.000000

  0.4285714E+00  0.0000000E+00  0.0000000E+00  0.1020408E-01
      1        -25.453543   1.000000
      2        -25.448466   1.000000
      3        -25.438897   1.000000
      4        -25.438279   1.000000
      5        -25.408944   1.000000
      6        -25.408525   1.000000
      7        -25.386523   1.000000
      8        -25.385809   1.000000
      9        -25.381097   1.000000
     10        -25.380287   1.000000
     11        -12.618065   1.000000
     12        -11.619005   1.000000
     13        -11.432574   1.000000
     14        -11.252839   1.000000
     15        -10.981336   1.000000
     16        -10.923885   1.000000
     17         -6.369239   1.000000
     18         -5.239989   1.000000
     19         -2.640464   1.000000
     20         -2.375458   1.000000
     21         -2.169144   1.000000
     22         -1.639029   1.000000
     23         -1.519805   1.000000
     24         -1.353824   1.000000
     25         -1.158346   1.000000
     26         -1.127494   1.000000
     27         -0.939542   1.000000
     28         -0.853625   1.000000
     29         -0.692438   1.000000
     30         -0.618186   1.000000
     31         -0.571863   1.000000
     32         -0.549746   1.000000
     33         -0.426534   1.000000
     34         -0.357587   1.000000
     35          0.470935   1.000000
     36          0.525816   1.000000
     37          0.545056   1.000000
     38          0.589632   1.000000
     39          0.637312   1.000000
     40          0.654994   1.000000
     41          0.682490   1.000000
     42          0.727081   1.000000
     43          0.915371   1.000000
     44          1.019381   1.000000
     45          1.103479   1.000000
     46          1.238566   1.000000
     47          1.393526   1.000000
     48          1.551722   1.000000
     49          1.705232   1.000000
     50          1.801890   1.000000
     51          2.147878   1.000000
     52          2.329334   1.000000
     53          2.529504   1.000000
     54          3.121383   1.000000
     55          5.129737   0.000000
     56          5.799268   0.000000
     57          6.811562   0.000000
     58          7.045205   0.000000
     59          7.348055   0.000000
     60          7.714990   0.000000
     61          8.172056   0.000000
     62          8.532276   0.000000
     63          8.957474   0.000000
     64          9.261086   0.000000
     65          9.543748   0.000000
     66          9.760588   0.000000
     67         10.032260   0.000000
     68         10.243854   0.000000
     69         10.440346   0.000000
     70         10.625762   0.000000
     71         10.899123   0.000000
     72         11.173831   0.000000
     73         11.588256   0.000000
     74         11.786236   0.000000
     75         12.118460   0.000000
     76         12.465272   0.000000
     77         12.575454   0.000000
     78         13.005496   0.000000
     79         13.573745   0.000000
     80         13.634866   0.000000
     81         13.952522   0.000000
     82         14.281685   0.000000
     83         14.787003   0.000000
     84         15.153924   0.000000
     85         15.208052   0.000000
     86         15.686296   0.000000
     87         15.991130   0.000000
     88         16.225438   0.000000
     89         16.452688   0.000000
     90         16.722904   0.000000
     91         16.885046   0.000000
     92         17.114784   0.000000
     93         17.557869   0.000000
     94         17.812886   0.000000
     95         17.963677   0.000000
     96         18.258065   0.000000
     97         18.428228   0.000000
     98         18.587596   0.000000
     99         18.882718   0.000000
    100         18.949398   0.000000
    101         19.325387   0.000000
    102         19.442308   0.000000
    103         19.753986   0.000000
    104         19.849669   0.000000
    105         20.075080   0.000000
    106         20.618330   0.000000
    107         20.722170   0.000000
    108         21.066698   0.000000
    109         21.309340   0.000000
    110         21.603337   0.000000
    111         21.694904   0.000000
    112         21.933670   0.000000
    113         22.622443   0.000000
    114         22.810914   0.000000
    115         22.950266   0.000000
    116         23.155824   0.000000
    117         23.371905   0.000000
    118         23.663452   0.000000
    119         23.808319   0.000000
    120         24.016025   0.000000
    121         24.173018   0.000000
    122         24.204469   0.000000
    123         24.416449   0.000000
    124         24.686699   0.000000
    125         25.088306   0.000000
    126         25.294689   0.000000
    127         25.354272   0.000000
    128         25.560888   0.000000
    129         25.691504   0.000000
    130         25.879553   0.000000
    131         26.012782   0.000000
    132         26.190148   0.000000
    133         26.460526   0.000000
    134         26.624953   0.000000
    135         26.704283   0.000000
    136         26.973515   0.000000
    137         27.016971   0.000000
    138         27.291092   0.000000
    139         27.472928   0.000000
    140         27.626164   0.000000

  0.0000000E+00  0.2500000E+00  0.0000000E+00  0.1020408E-01
      1        -25.453649   1.000000
      2        -25.448563   1.000000
      3        -25.438973   1.000000
      4        -25.438363   1.000000
      5        -25.409086   1.000000
      6        -25.408671   1.000000
      7        -25.386639   1.000000
      8        -25.385919   1.000000
      9        -25.381218   1.000000
     10        -25.380433   1.000000
     11        -12.749340   1.000000
     12        -11.522322   1.000000
     13        -11.454131   1.000000
     14        -11.194881   1.000000
     15        -10.932878   1.000000
     16        -10.858356   1.000000
     17         -6.414930   1.000000
     18         -5.406116   1.000000
     19         -2.778176   1.000000
     20         -2.387826   1.000000
     21         -2.260561   1.000000
     22         -1.872575   1.000000
     23         -1.574100   1.000000
     24         -1.303346   1.000000
     25         -1.067328   1.000000
     26         -0.976958   1.000000
     27         -0.882094   1.000000
     28         -0.784625   1.000000
     29         -0.736406   1.000000
     30         -0.626649   1.000000
     31         -0.582949   1.000000
     32         -0.559445   1.000000
     33         -0.445336   1.000000
     34         -0.393808   1.000000
     35          0.492364   1.000000
     36          0.548196   1.000000
     37          0.550670   1.000000
     38          0.583065   1.000000
     39          0.607293   1.000000
     40          0.638668   1.000000
     41          0.668145   1.000000
     42          0.702109   1.000000
     43          0.903398   1.000000
     44          1.009210   1.000000
     45          1.210084   1.000000
     46          1.300201   1.000000
     47          1.401525   1.000000
     48          1.503661   1.000000
     49          1.690510   1.000000
     50          2.027771   1.000000
     51          2.143463   1.000000
     52          2.392609   1.000000
     53          2.941092   1.000000
     54          3.315682   1.000000
     55          4.903621   0.000000
     56          5.601986   0.000000
     57          6.933250   0.000000
     58          7.098071   0.000000
     59          7.380641   0.000000
     60          7.862144   0.000000
     61          8.058229   0.000000
     62          8.336690   0.000000
     63          8.656909   0.000000
     64          9.267105   0.000000
     65          9.530503   0.000000
     66          9.748327   0.000000
     67          9.863689   0.000000
     68         10.105483   0.000000
     69         10.443941   0.000000
     70         10.625781   0.000000
     71         10.966806   0.000000
     72         11.180308   0.000000
     73         11.461970   0.000000
     74         11.848321   0.000000
     75         12.418512   0.000000
     76         12.763665   0.000000
     77         12.981996   0.000000
     78         13.378107   0.000000
     79         13.589749   0.000000
     80         13.771021   0.000000
     81         14.028880   0.000000
     82         14.351108   0.000000
     83         14.665547   0.000000
     84         14.790386   0.000000
     85         15.220162   0.000000
     86         15.407581   0.000000
     87         15.617051   0.000000
     88         16.149689   0.000000
     89         16.471327   0.000000
     90         16.733567   0.000000
     91         16.873565   0.000000
     92         17.065542   0.000000
     93         17.229042   0.000000
     94         17.675851   0.000000
     95         17.805519   0.000000
     96         18.029159   0.000000
     97         18.137014   0.000000
     98         18.387184   0.000000
     99         18.761867   0.000000
    100         19.053175   0.000000
    101         19.230219   0.000000
    102         19.473934   0.000000
    103         19.570656   0.000000
    104         19.806333   0.000000
    105         20.300532   0.000000
    106         20.484726   0.000000
    107         20.754409   0.000000
    108         20.996470   0.000000
    109         21.012903   0.000000
    110         21.287264   0.000000
    111         21.437661   0.000000
    112         21.747895   0.000000
    113         22.073018   0.000000
    114         22.203057   0.000000
    115         22.537966   0.000000
    116         23.031089   0.000000
    117         23.219088   0.000000
    118         23.528684   0.000000
    119         23.904359   0.000000
    120         23.996651   0.000000
    121         24.201533   0.000000
    122         24.665641   0.000000
    123         24.999068   0.000000
    124         25.272386   0.000000
    125         25.489323   0.000000
    126         25.638354   0.000000
    127         25.847149   0.000000
    128         26.171297   0.000000
    129         26.294024   0.000000
    130         26.521706   0.000000
    131         26.650728   0.000000
    132         26.874085   0.000000
    133         27.101026   0.000000
    134         27.132150   0.000000
    135         27.243720   0.000000
    136         27.458897   0.000000
    137         27.517858   0.000000
    138         27.790009   0.000000
    139         27.965090   0.000000
    140         28.152610   0.000000

  0.1428571E+00  0.2500000E+00  0.0000000E+00  0.2040816E-01
      1        -25.453686   1.000000
      2        -25.448602   1.000000
      3        -25.439005   1.000000
      4        -25.438397   1.000000
      5        -25.409184   1.000000
      6        -25.408759   1.000000
      7        -25.386716   1.000000
      8        -25.385989   1.000000
      9        -25.381307   1.000000
     10        -25.380520   1.000000
     11        -12.777588   1.000000
     12        -11.559555   1.000000
     13        -11.479607   1.000000
     14        -11.124139   1.000000
     15        -10.923316   1.000000
     16        -10.793514   1.000000
     17         -6.457325   1.000000
     18         -5.491497   1.000000
     19         -2.813234   1.000000
     20         -2.455168   1.000000
     21         -2.187094   1.000000
     22         -1.901803   1.000000
     23         -1.668514   1.000000
     24         -1.371153   1.000000
     25         -1.154659   1.000000
     26         -0.964477   1.000000
     27         -0.774456   1.000000
     28         -0.734096   1.000000
     29         -0.681003   1.000000
     30         -0.616907   1.000000
     31         -0.589543   1.000000
     32         -0.522318   1.000000
     33         -0.430330   1.000000
     34         -0.365608   1.000000
     35          0.481711   1.000000
     36          0.546489   1.000000
     37          0.554934   1.000000
     38          0.599051   1.000000
     39          0.619943   1.000000
     40          0.642646   1.000000
     41          0.664802   1.000000
     42          0.695191   1.000000
     43          0.888544   1.000000
     44          0.961552   1.000000
     45          1.158398   1.000000
     46          1.233134   1.000000
     47          1.526456   1.000000
     48          1.658705   1.000000
     49          1.710115   1.000000
     50          2.086435   1.000000
     51          2.299733   1.000000
     52          2.505479   1.000000
     53          3.096344   1.000000
     54          3.312858   1.000000
     55          4.733948   0.000000
     56          5.386197   0.000000
     57          6.562077   0.000000
     58          6.932856   0.000000
     59          7.418618   0.000000
     60          7.748599   0.000000
     61          8.102630   0.000000
     62          8.341014   0.000000
     63          8.588569   0.000000
     64          9.217829   0.000000
     65          9.392166   0.000000
     66          9.644818   0.000000
     67          9.979454   0.000000
     68         10.022323   0.000000
     69         10.507932   0.000000
     70         10.608384   0.000000
     71         11.174833   0.000000
     72         11.286001   0.000000
     73         11.923192   0.000000
     74         12.075139   0.000000
     75         12.320142   0.000000
     76         12.550461   0.000000
     77         12.996892   0.000000
     78         13.485598   0.000000
     79         13.574175   0.000000
     80         13.998630   0.000000
     81         14.486867   0.000000
     82         14.544094   0.000000
     83         14.756384   0.000000
     84         14.954293   0.000000
     85         15.135450   0.000000
     86         15.432292   0.000000
     87         15.708455   0.000000
     88         15.886618   0.000000
     89         16.243890   0.000000
     90         16.411680   0.000000
     91         16.657597   0.000000
     92         16.961621   0.000000
     93         17.368405   0.000000
     94         17.516603   0.000000
     95         17.827303   0.000000
     96         18.042760   0.000000
     97         18.153095   0.000000
     98         18.435623   0.000000
     99         18.551602   0.000000
    100         18.889393   0.000000
    101         19.092119   0.000000
    102         19.220158   0.000000
    103         19.508659   0.000000
    104         19.771927   0.000000
    105         20.066351   0.000000
    106         20.339004   0.000000
    107         20.506501   0.000000
    108         20.704429   0.000000
    109         21.079218   0.000000
    110         21.366547   0.000000
    111         21.665165   0.000000
    112         22.085526   0.000000
    113         22.204494   0.000000
    114         22.666148   0.000000
    115         22.772418   0.000000
    116         23.040504   0.000000
    117         23.276616   0.000000
    118         23.524894   0.000000
    119         23.739288   0.000000
    120         23.988466   0.000000
    121         24.282565   0.000000
    122         24.464970   0.000000
    123         24.635819   0.000000
    124         25.069771   0.000000
    125         25.438130   0.000000
    126         25.618008   0.000000
    127         25.704963   0.000000
    128         25.883653   0.000000
    129         26.287620   0.000000
    130         26.416721   0.000000
    131         26.633007   0.000000
    132         26.788617   0.000000
    133         27.020274   0.000000
    134         27.222556   0.000000
    135         27.359101   0.000000
    136         27.664476   0.000000
    137         27.776879   0.000000
    138         27.906179   0.000000
    139         28.067084   0.000000
    140         28.299043   0.000000

  0.2857143E+00  0.2500000E+00  0.0000000E+00  0.2040816E-01
      1        -25.453642   1.000000
      2        -25.448569   1.000000
      3        -25.438983   1.000000
      4        -25.438378   1.000000
      5        -25.409181   1.000000
      6        -25.408747   1.000000
      7        -25.386711   1.000000
      8        -25.385982   1.000000
      9        -25.381304   1.000000
     10        -25.380507   1.000000
     11        -12.738086   1.000000
     12        -11.645214   1.000000
     13        -11.461370   1.000000
     14        -11.114657   1.000000
     15        -10.937152   1.000000
     16        -10.778374   1.000000
     17         -6.472664   1.000000
     18         -5.482269   1.000000
     19         -2.763288   1.000000
     20         -2.499643   1.000000
     21         -2.104181   1.000000
     22         -1.829811   1.000000
     23         -1.733646   1.000000
     24         -1.411003   1.000000
     25         -1.096122   1.000000
     26         -0.970742   1.000000
     27         -0.814408   1.000000
     28         -0.702552   1.000000
     29         -0.686947   1.000000
     30         -0.630439   1.000000
     31         -0.565262   1.000000
     32         -0.479551   1.000000
     33         -0.435446   1.000000
     34         -0.320269   1.000000
     35          0.480271   1.000000
     36          0.520526   1.000000
     37          0.547359   1.000000
     38          0.598934   1.000000
     39          0.620505   1.000000
     40          0.638987   1.000000
     41          0.668496   1.000000
     42          0.700728   1.000000
     43          0.928574   1.000000
     44          1.017026   1.000000
     45          1.161109   1.000000
     46          1.203599   1.000000
     47          1.517693   1.000000
     48          1.694750   1.000000
     49          1.753148   1.000000
     50          2.018799   1.000000
     51          2.143910   1.000000
     52          2.502038   1.000000
     53          2.995264   1.000000
     54          3.349853   1.000000
     55          4.722482   0.000000
     56          5.423576   0.000000
     57          6.395662   0.000000
     58          7.006387   0.000000
     59          7.392550   0.000000
     60          7.709053   0.000000
     61          8.035990   0.000000
     62          8.256234   0.000000
     63          8.626435   0.000000
     64          9.161575   0.000000
     65          9.408821   0.000000
     66          9.659017   0.000000
     67          9.829696   0.000000
     68         10.269638   0.000000
     69         10.458944   0.000000
     70         10.602483   0.000000
     71         10.983686   0.000000
     72         11.353318   0.000000
     73         11.712664   0.000000
     74         11.898385   0.000000
     75         12.232255   0.000000
     76         12.561893   0.000000
     77         13.255114   0.000000
     78         13.610297   0.000000
     79         13.713976   0.000000
     80         14.235340   0.000000
     81         14.333080   0.000000
     82         14.670103   0.000000
     83         14.934211   0.000000
     84         15.021826   0.000000
     85         15.143902   0.000000
     86         15.660982   0.000000
     87         15.979622   0.000000
     88         16.215608   0.000000
     89         16.409717   0.000000
     90         16.578281   0.000000
     91         16.652394   0.000000
     92         16.952572   0.000000
     93         17.444845   0.000000
     94         17.670243   0.000000
     95         17.775519   0.000000
     96         17.961612   0.000000
     97         18.191746   0.000000
     98         18.382396   0.000000
     99         18.543964   0.000000
    100         18.798103   0.000000
    101         19.056856   0.000000
    102         19.096850   0.000000
    103         19.289720   0.000000
    104         19.546950   0.000000
    105         19.732655   0.000000
    106         20.144333   0.000000
    107         20.322215   0.000000
    108         20.767784   0.000000
    109         20.999400   0.000000
    110         21.394249   0.000000
    111         21.576240   0.000000
    112         21.653341   0.000000
    113         22.407845   0.000000
    114         22.650319   0.000000
    115         23.185006   0.000000
    116         23.308122   0.000000
    117         23.511595   0.000000
    118         23.735428   0.000000
    119         23.893119   0.000000
    120         23.965028   0.000000
    121         24.152653   0.000000
    122         24.624138   0.000000
    123         24.825533   0.000000
    124         24.971141   0.000000
    125         25.322910   0.000000
    126         25.442820   0.000000
    127         25.644185   0.000000
    128         25.925755   0.000000
    129         26.057183   0.000000
    130         26.232486   0.000000
    131         26.373080   0.000000
    132         26.394826   0.000000
    133         26.583933   0.000000
    134         26.739072   0.000000
    135         26.951626   0.000000
    136         27.122585   0.000000
    137         27.490600   0.000000
    138         27.760854   0.000000
    139         28.122363   0.000000
    140         28.363654   0.000000

  0.4285714E+00  0.2500000E+00  0.0000000E+00  0.2040816E-01
      1        -25.453569   1.000000
      2        -25.448499   1.000000
      3        -25.438922   1.000000
      4        -25.438324   1.000000
      5        -25.409095   1.000000
      6        -25.408650   1.000000
      7        -25.386640   1.000000
      8        -25.385910   1.000000
      9        -25.381221   1.000000
     10        -25.380411   1.000000
     11        -12.651085   1.000000
     12        -11.710948   1.000000
     13        -11.426304   1.000000
     14        -11.189505   1.000000
     15        -10.954464   1.000000
     16        -10.820270   1.000000
     17         -6.445710   1.000000
     18         -5.367761   1.000000
     19         -2.615883   1.000000
     20         -2.455152   1.000000
     21         -2.179505   1.000000
     22         -1.878262   1.000000
     23         -1.540194   1.000000
     24         -1.445209   1.000000
     25         -1.240243   1.000000
     26         -0.907416   1.000000
     27         -0.844744   1.000000
     28         -0.715670   1.000000
     29         -0.685824   1.000000
     30         -0.585382   1.000000
     31         -0.570457   1.000000
     32         -0.498446   1.000000
     33         -0.412121   1.000000
     34         -0.300815   1.000000
     35          0.460350   1.000000
     36          0.524074   1.000000
     37          0.552250   1.000000
     38          0.613173   1.000000
     39          0.625990   1.000000
     40          0.645247   1.000000
     41          0.672061   1.000000
     42          0.703922   1.000000
     43          0.951407   1.000000
     44          1.041719   1.000000
     45          1.099305   1.000000
     46          1.287093   1.000000
     47          1.331863   1.000000
     48          1.549250   1.000000
     49          1.822863   1.000000
     50          1.956504   1.000000
     51          2.175514   1.000000
     52          2.487047   1.000000
     53          2.928343   1.000000
     54          3.073193   1.000000
     55          4.796241   0.000000
     56          5.590644   0.000000
     57          6.407943   0.000000
     58          6.926532   0.000000
     59          7.392041   0.000000
     60          7.660830   0.000000
     61          7.785624   0.000000
     62          7.967314   0.000000
     63          8.764235   0.000000
     64          9.163506   0.000000
     65          9.567304   0.000000
     66          9.781646   0.000000
     67         10.176760   0.000000
     68         10.307329   0.000000
     69         10.489739   0.000000
     70         10.821224   0.000000
     71         11.124206   0.000000
     72         11.262295   0.000000
     73         11.777086   0.000000
     74         12.137011   0.000000
     75         12.260058   0.000000
     76         12.554899   0.000000
     77         13.027405   0.000000
     78         13.239639   0.000000
     79         13.468839   0.000000
     80         14.099756   0.000000
     81         14.403444   0.000000
     82         14.560981   0.000000
     83         14.652833   0.000000
     84         15.025037   0.000000
     85         15.304607   0.000000
     86         15.372600   0.000000
     87         15.647196   0.000000
     88         16.098755   0.000000
     89         16.281627   0.000000
     90         16.585923   0.000000
     91         16.911142   0.000000
     92         17.041814   0.000000
     93         17.537413   0.000000
     94         17.627622   0.000000
     95         17.786337   0.000000
     96         18.117315   0.000000
     97         18.390139   0.000000
     98         18.663267   0.000000
     99         18.741937   0.000000
    100         19.111588   0.000000
    101         19.247588   0.000000
    102         19.347251   0.000000
    103         19.713146   0.000000
    104         20.128005   0.000000
    105         20.195471   0.000000
    106         20.487448   0.000000
    107         20.879304   0.000000
    108         21.028235   0.000000
    109         21.378463   0.000000
    110         21.464765   0.000000
    111         21.825887   0.000000
    112         22.057866   0.000000
    113         22.148224   0.000000
    114         22.293107   0.000000
    115         22.792435   0.000000
    116         22.873564   0.000000
    117         23.064342   0.000000
    118         23.180384   0.000000
    119         23.418276   0.000000
    120         23.780662   0.000000
    121         24.036105   0.000000
    122         24.428310   0.000000
    123         24.553350   0.000000
    124         24.680513   0.000000
    125         24.826282   0.000000
    126         25.070446   0.000000
    127         25.231161   0.000000
    128         25.402503   0.000000
    129         25.752688   0.000000
    130         26.023656   0.000000
    131         26.096553   0.000000
    132         26.241032   0.000000
    133         26.417054   0.000000
    134         26.590673   0.000000
    135         26.764380   0.000000
    136         27.145032   0.000000
    137         27.334959   0.000000
    138         27.637121   0.000000
    139         27.875847   0.000000
    140         28.096268   0.000000

  0.0000000E+00  0.5000000E+00  0.0000000E+00  0.5102041E-02
      1        -25.453531   1.000000
      2        -25.448455   1.000000
      3        -25.438891   1.000000
      4        -25.438269   1.000000
      5        -25.408926   1.000000
      6        -25.408509   1.000000
      7        -25.386510   1.000000
      8        -25.385797   1.000000
      9        -25.381087   1.000000
     10        -25.380270   1.000000
     11        -12.600953   1.000000
     12        -11.635728   1.000000
     13        -11.427733   1.000000
     14        -11.258080   1.000000
     15        -10.984053   1.000000
     16        -10.933794   1.000000
     17         -6.363827   1.000000
     18         -5.221058   1.000000
     19         -2.623996   1.000000
     20         -2.372520   1.000000
     21         -2.125932   1.000000
     22         -1.678552   1.000000
     23         -1.492538   1.000000
     24         -1.352316   1.000000
     25         -1.196819   1.000000
     26         -1.149247   1.000000
     27         -0.937282   1.000000
     28         -0.846270   1.000000
     29         -0.691475   1.000000
     30         -0.609823   1.000000
     31         -0.573049   1.000000
     32         -0.547274   1.000000
     33         -0.422283   1.000000
     34         -0.352675   1.000000
     35          0.470568   1.000000
     36          0.525910   1.000000
     37          0.542398   1.000000
     38          0.592101   1.000000
     39          0.648552   1.000000
     40          0.658115   1.000000
     41          0.684210   1.000000
     42          0.746558   1.000000
     43          0.911491   1.000000
     44          0.960975   1.000000
     45          1.050994   1.000000
     46          1.280286   1.000000
     47          1.471823   1.000000
     48          1.509519   1.000000
     49          1.665101   1.000000
     50          1.806984   1.000000
     51          2.174534   1.000000
     52          2.350840   1.000000
     53          2.478972   1.000000
     54          3.093531   1.000000
     55          5.143032   0.000000
     56          5.791537   0.000000
     57          6.745690   0.000000
     58          7.041566   0.000000
     59          7.301261   0.000000
     60          7.756202   0.000000
     61          8.183533   0.000000
     62          8.653456   0.000000
     63          8.893780   0.000000
     64          9.303646   0.000000
     65          9.601740   0.000000
     66          9.711861   0.000000
     67         10.084685   0.000000
     68         10.181704   0.000000
     69         10.458071   0.000000
     70         10.648229   0.000000
     71         10.840099   0.000000
     72         11.255025   0.000000
     73         11.618752   0.000000
     74         11.764161   0.000000
     75         12.116380   0.000000
     76         12.394375   0.000000
     77         12.655190   0.000000
     78         13.051491   0.000000
     79         13.452194   0.000000
     80         13.631821   0.000000
     81         13.794999   0.000000
     82         14.242756   0.000000
     83         14.863618   0.000000
     84         15.180550   0.000000
     85         15.325999   0.000000
     86         15.631692   0.000000
     87         15.905747   0.000000
     88         16.230562   0.000000
     89         16.327256   0.000000
     90         16.688838   0.000000
     91         16.897719   0.000000
     92         17.118462   0.000000
     93         17.791735   0.000000
     94         17.868112   0.000000
     95         18.078476   0.000000
     96         18.345111   0.000000
     97         18.513897   0.000000
     98         18.654860   0.000000
     99         18.678277   0.000000
    100         18.810422   0.000000
    101         19.350524   0.000000
    102         19.509359   0.000000
    103         19.823579   0.000000
    104         19.935466   0.000000
    105         20.047657   0.000000
    106         20.202190   0.000000
    107         20.789904   0.000000
    108         21.184716   0.000000
    109         21.328207   0.000000
    110         21.771454   0.000000
    111         21.944856   0.000000
    112         22.258507   0.000000
    113         22.672347   0.000000
    114         22.755611   0.000000
    115         23.109420   0.000000
    116         23.145583   0.000000
    117         23.310116   0.000000
    118         23.479434   0.000000
    119         23.712713   0.000000
    120         23.867552   0.000000
    121         23.986973   0.000000
    122         24.185150   0.000000
    123         24.323983   0.000000
    124         24.585508   0.000000
    125         25.287292   0.000000
    126         25.351356   0.000000
    127         25.364864   0.000000
    128         25.592725   0.000000
    129         25.681596   0.000000
    130         25.938074   0.000000
    131         25.962241   0.000000
    132         26.105714   0.000000
    133         26.173188   0.000000
    134         26.440640   0.000000
    135         26.667899   0.000000
    136         26.885395   0.000000
    137         26.912789   0.000000
    138         27.180853   0.000000
    139         27.317564   0.000000
    140         27.483120   0.000000

  0.1428571E+00  0.5000000E+00  0.0000000E+00  0.1020408E-01
      1        -25.453529   1.000000
      2        -25.448459   1.000000
      3        -25.438885   1.000000
      4        -25.438275   1.000000
      5        -25.408967   1.000000
      6        -25.408542   1.000000
      7        -25.386537   1.000000
      8        -25.385814   1.000000
      9        -25.381109   1.000000
     10        -25.380298   1.000000
     11        -12.604903   1.000000
     12        -11.655882   1.000000
     13        -11.423048   1.000000
     14        -11.272758   1.000000
     15        -10.966138   1.000000
     16        -10.901543   1.000000
     17         -6.385527   1.000000
     18         -5.241930   1.000000
     19         -2.581794   1.000000
     20         -2.354058   1.000000
     21         -2.217876   1.000000
     22         -1.677966   1.000000
     23         -1.601477   1.000000
     24         -1.487881   1.000000
     25         -1.298289   1.000000
     26         -0.940285   1.000000
     27         -0.859251   1.000000
     28         -0.740304   1.000000
     29         -0.699042   1.000000
     30         -0.624768   1.000000
     31         -0.573564   1.000000
     32         -0.537355   1.000000
     33         -0.411436   1.000000
     34         -0.339534   1.000000
     35          0.464100   1.000000
     36          0.519412   1.000000
     37          0.568494   1.000000
     38          0.609250   1.000000
     39          0.642728   1.000000
     40          0.651881   1.000000
     41          0.674346   1.000000
     42          0.741584   1.000000
     43          0.886727   1.000000
     44          0.973541   1.000000
     45          1.133057   1.000000
     46          1.247440   1.000000
     47          1.305506   1.000000
     48          1.532003   1.000000
     49          1.756381   1.000000
     50          1.956055   1.000000
     51          2.189018   1.000000
     52          2.406864   1.000000
     53          2.610011   1.000000
     54          3.050044   1.000000
     55          4.999027   0.000000
     56          5.701489   0.000000
     57          6.770801   0.000000
     58          7.025505   0.000000
     59          7.212096   0.000000
     60          7.375035   0.000000
     61          7.975029   0.000000
     62          8.256413   0.000000
     63          8.943493   0.000000
     64          9.263207   0.000000
     65          9.629414   0.000000
     66          9.934917   0.000000
     67         10.166398   0.000000
     68         10.477057   0.000000
     69         10.573924   0.000000
     70         10.947342   0.000000
     71         11.138862   0.000000
     72         11.370270   0.000000
     73         11.510089   0.000000
     74         11.810709   0.000000
     75         12.067034   0.000000
     76         12.440750   0.000000
     77         12.846501   0.000000
     78         12.988049   0.000000
     79         13.589229   0.000000
     80         13.856488   0.000000
     81         14.017540   0.000000
     82         14.366970   0.000000
     83         14.648442   0.000000
     84         14.871440   0.000000
     85         14.930705   0.000000
     86         15.222632   0.000000
     87         15.575483   0.000000
     88         15.757576   0.000000
     89         16.378342   0.000000
     90         16.694479   0.000000
     91         17.135982   0.000000
     92         17.330714   0.000000
     93         17.463016   0.000000
     94         17.709049   0.000000
     95         17.817478   0.000000
     96         18.141953   0.000000
     97         18.547882   0.000000
     98         18.842069   0.000000
     99         19.069188   0.000000
    100         19.239710   0.000000
    101         19.430114   0.000000
    102         19.875296   0.000000
    103         19.953607   0.000000
    104         20.338048   0.000000
    105         20.618997   0.000000
    106         20.956728   0.000000
    107         21.046607   0.000000
    108         21.202357   0.000000
    109         21.472353   0.000000
    110         21.625454   0.000000
    111         21.826836   0.000000
    112         21.954898   0.000000
    113         22.308854   0.000000
    114         22.355524   0.000000
    115         22.550849   0.000000
    116         22.893197   0.000000
    117         23.010137   0.000000
    118         23.149447   0.000000
    119         23.430052   0.000000
    120         23.675493   0.000000
    121         23.900079   0.000000
    122         24.286768   0.000000
    123         24.341518   0.000000
    124         24.565961   0.000000
    125         24.720764   0.000000
    126         24.853104   0.000000
    127         25.183061   0.000000
    128         25.222315   0.000000
    129         25.514252   0.000000
    130         25.699320   0.000000
    131         25.885900   0.000000
    132         26.200279   0.000000
    133         26.450114   0.000000
    134         26.517438   0.000000
    135         26.821574   0.000000
    136         26.980382   0.000000
    137         27.257200   0.000000
    138         27.439769   0.000000
    139         27.614298   0.000000
    140         27.791103   0.000000

  0.2857143E+00  0.5000000E+00  0.0000000E+00  0.1020408E-01
      1        -25.453538   1.000000
      2        -25.448469   1.000000
      3        -25.438893   1.000000
      4        -25.438298   1.000000
      5        -25.409056   1.000000
      6        -25.408614   1.000000
      7        -25.386611   1.000000
      8        -25.385879   1.000000
      9        -25.381188   1.000000
     10        -25.380370   1.000000
     11        -12.607609   1.000000
     12        -11.744527   1.000000
     13        -11.408259   1.000000
     14        -11.231249   1.000000
     15        -10.953343   1.000000
     16        -10.840428   1.000000
     17         -6.434897   1.000000
     18         -5.315658   1.000000
     19         -2.513262   1.000000
     20         -2.412645   1.000000
     21         -2.176811   1.000000
     22         -1.918941   1.000000
     23         -1.601605   1.000000
     24         -1.527119   1.000000
     25         -1.276213   1.000000
     26         -0.869857   1.000000
     27         -0.835668   1.000000
     28         -0.693049   1.000000
     29         -0.676187   1.000000
     30         -0.582560   1.000000
     31         -0.553927   1.000000
     32         -0.492030   1.000000
     33         -0.408327   1.000000
     34         -0.286096   1.000000
     35          0.470467   1.000000
     36          0.518405   1.000000
     37          0.571549   1.000000
     38          0.617760   1.000000
     39          0.635012   1.000000
     40          0.653398   1.000000
     41          0.678319   1.000000
     42          0.723087   1.000000
     43          0.916943   1.000000
     44          0.995975   1.000000
     45          1.063037   1.000000
     46          1.298739   1.000000
     47          1.340120   1.000000
     48          1.512527   1.000000
     49          1.783757   1.000000
     50          1.968543   1.000000
     51          2.215456   1.000000
     52          2.561858   1.000000
     53          2.921136   1.000000
     54          2.969574   1.000000
     55          4.748756   0.000000
     56          5.599256   0.000000
     57          6.377812   0.000000
     58          6.860383   0.000000
     59          7.332111   0.000000
     60          7.533737   0.000000
     61          7.666430   0.000000
     62          7.821595   0.000000
     63          8.895780   0.000000
     64          9.245562   0.000000
     65          9.604457   0.000000
     66          9.965616   0.000000
     67         10.311452   0.000000
     68         10.420000   0.000000
     69         10.668875   0.000000
     70         10.825496   0.000000
     71         11.166023   0.000000
     72         11.434945   0.000000
     73         11.806858   0.000000
     74         12.080926   0.000000
     75         12.289799   0.000000
     76         12.622569   0.000000
     77         13.005422   0.000000
     78         13.218806   0.000000
     79         13.467600   0.000000
     80         13.902617   0.000000
     81         14.240246   0.000000
     82         14.477672   0.000000
     83         14.663887   0.000000
     84         14.952772   0.000000
     85         14.989531   0.000000
     86         15.175258   0.000000
     87         15.428210   0.000000
     88         15.988993   0.000000
     89         16.127108   0.000000
     90         16.340000   0.000000
     91         16.828923   0.000000
     92         17.189155   0.000000
     93         17.491270   0.000000
     94         17.631716   0.000000
     95         17.916687   0.000000
     96         18.185747   0.000000
     97         18.853710   0.000000
     98         18.910026   0.000000
     99         19.090840   0.000000
    100         19.350748   0.000000
    101         19.589272   0.000000
    102         19.815781   0.000000
    103         20.108441   0.000000
    104         20.400213   0.000000
    105         20.606630   0.000000
    106         20.765440   0.000000
    107         20.872526   0.000000
    108         20.989739   0.000000
    109         21.335427   0.000000
    110         21.547578   0.000000
    111         21.659577   0.000000
    112         21.923376   0.000000
    113         22.027411   0.000000
    114         22.169604   0.000000
    115         22.550323   0.000000
    116         22.698380   0.000000
    117         22.962462   0.000000
    118         23.158082   0.000000
    119         23.495650   0.000000
    120         23.669230   0.000000
    121         23.824237   0.000000
    122         23.954577   0.000000
    123         24.116659   0.000000
    124         24.411183   0.000000
    125         24.705970   0.000000
    126         24.845489   0.000000
    127         25.220616   0.000000
    128         25.418687   0.000000
    129         25.590976   0.000000
    130         25.672639   0.000000
    131         25.814640   0.000000
    132         26.021474   0.000000
    133         26.292047   0.000000
    134         26.483501   0.000000
    135         27.010492   0.000000
    136         27.074838   0.000000
    137         27.357048   0.000000
    138         27.505154   0.000000
    139         27.635803   0.000000
    140         27.922771   0.000000

  0.4285714E+00  0.5000000E+00  0.0000000E+00  0.1020408E-01
      1        -25.453531   1.000000
      2        -25.448475   1.000000
      3        -25.438890   1.000000
      4        -25.438308   1.000000
      5        -25.409118   1.000000
      6        -25.408665   1.000000
      7        -25.386666   1.000000
      8        -25.385912   1.000000
      9        -25.381232   1.000000
     10        -25.380422   1.000000
     11        -12.603204   1.000000
     12        -11.832891   1.000000
     13        -11.394197   1.000000
     14        -11.162651   1.000000
     15        -10.959332   1.000000
     16        -10.798969   1.000000
     17         -6.475596   1.000000
     18         -5.398169   1.000000
     19         -2.482027   1.000000
     20         -2.453863   1.000000
     21         -2.198388   1.000000
     22         -1.960749   1.000000
     23         -1.527840   1.000000
     24         -1.369992   1.000000
     25         -1.191543   1.000000
     26         -1.012143   1.000000
     27         -0.988343   1.000000
     28         -0.669643   1.000000
     29         -0.635134   1.000000
     30         -0.583743   1.000000
     31         -0.535699   1.000000
     32         -0.418032   1.000000
     33         -0.408111   1.000000
     34         -0.234409   1.000000
     35          0.485738   1.000000
     36          0.510520   1.000000
     37          0.571505   1.000000
     38          0.602101   1.000000
     39          0.610362   1.000000
     40          0.644501   1.000000
     41          0.683859   1.000000
     42          0.712840   1.000000
     43          0.988137   1.000000
     44          1.057599   1.000000
     45          1.079406   1.000000
     46          1.237446   1.000000
     47          1.424859   1.000000
     48          1.466734   1.000000
     49          1.771655   1.000000
     50          1.921225   1.000000
     51          2.072311   1.000000
     52          2.614718   1.000000
     53          2.984312   1.000000
     54          3.246904   1.000000
     55          4.558141   0.000000
     56          5.554878   0.000000
     57          5.973087   0.000000
     58          7.021009   0.000000
     59          7.331103   0.000000
     60          7.677365   0.000000
     61          7.831812   0.000000
     62          8.025840   0.000000
     63          8.767756   0.000000
     64          9.186640   0.000000
     65          9.579394   0.000000
     66          9.754973   0.000000
     67          9.845096   0.000000
     68         10.293601   0.000000
     69         10.494100   0.000000
     70         10.817655   0.000000
     71         10.882863   0.000000
     72         11.312684   0.000000
     73         11.516889   0.000000
     74         12.395621   0.000000
     75         12.566913   0.000000
     76         12.695058   0.000000
     77         12.886770   0.000000
     78         13.212935   0.000000
     79         13.402212   0.000000
     80         13.877032   0.000000
     81         14.734739   0.000000
     82         14.857289   0.000000
     83         15.132484   0.000000
     84         15.259693   0.000000
     85         15.364410   0.000000
     86         15.614687   0.000000
     87         15.994348   0.000000
     88         16.187156   0.000000
     89         16.404661   0.000000
     90         16.793645   0.000000
     91         16.943636   0.000000
     92         17.403784   0.000000
     93         17.653692   0.000000
     94         17.744368   0.000000
     95         17.867471   0.000000
     96         18.043030   0.000000
     97         18.255951   0.000000
     98         18.448645   0.000000
     99         18.525917   0.000000
    100         18.786489   0.000000
    101         19.040712   0.000000
    102         19.179680   0.000000
    103         19.506026   0.000000
    104         19.699543   0.000000
    105         19.745246   0.000000
    106         20.019086   0.000000
    107         20.430478   0.000000
    108         21.214415   0.000000
    109         21.369499   0.000000
    110         21.461633   0.000000
    111         21.853758   0.000000
    112         22.036273   0.000000
    113         22.280979   0.000000
    114         22.434135   0.000000
    115         22.648292   0.000000
    116         22.685526   0.000000
    117         23.071896   0.000000
    118         23.265295   0.000000
    119         23.589029   0.000000
    120         24.072349   0.000000
    121         24.247653   0.000000
    122         24.358294   0.000000
    123         24.587590   0.000000
    124         24.841835   0.000000
    125         25.167856   0.000000
    126         25.270690   0.000000
    127         25.315858   0.000000
    128         25.575565   0.000000
    129         25.653145   0.000000
    130         26.036794   0.000000
    131         26.199775   0.000000
    132         26.438511   0.000000
    133         26.510487   0.000000
    134         26.707954   0.000000
    135         26.888928   0.000000
    136         27.014351   0.000000
    137         27.192848   0.000000
    138         27.333187   0.000000
    139         27.446142   0.000000
    140         27.647540   0.000000

  0.0000000E+00  0.0000000E+00  0.1428571E+00  0.1020408E-01
      1        -25.453516   1.000000
      2        -25.448937   1.000000
      3        -25.438957   1.000000
      4        -25.438396   1.000000
      5        -25.409184   1.000000
      6        -25.408827   1.000000
      7        -25.386695   1.000000
      8        -25.386042   1.000000
      9        -25.381297   1.000000
     10        -25.380594   1.000000
     11        -12.818198   1.000000
     12        -11.688070   1.000000
     13        -11.306825   1.000000
     14        -11.140015   1.000000
     15        -10.829527   1.000000
     16        -10.824775   1.000000
     17         -6.389309   1.000000
     18         -5.605699   1.000000
     19         -2.813506   1.000000
     20         -2.451255   1.000000
     21         -2.132454   1.000000
     22         -2.028953   1.000000
     23         -1.701366   1.000000
     24         -1.416543   1.000000
     25         -1.408202   1.000000
     26         -1.000206   1.000000
     27         -0.762651   1.000000
     28         -0.662168   1.000000
     29         -0.648604   1.000000
     30         -0.628843   1.000000
     31         -0.607362   1.000000
     32         -0.527632   1.000000
     33         -0.412962   1.000000
     34         -0.406574   1.000000
     35          0.530800   1.000000
     36          0.573615   1.000000
     37          0.591430   1.000000
     38          0.615116   1.000000
     39          0.644379   1.000000
     40          0.655402   1.000000
     41          0.683706   1.000000
     42          0.707590   1.000000
     43          0.791958   1.000000
     44          0.920734   1.000000
     45          0.987635   1.000000
     46          1.189894   1.000000
     47          1.222189   1.000000
     48          1.841384   1.000000
     49          1.897564   1.000000
     50          2.380960   1.000000
     51          2.483074   1.000000
     52          2.911277   1.000000
     53          3.246092   1.000000
     54          3.287043   1.000000
     55          4.543991   0.000000
     56          5.030093   0.000000
     57          6.597966   0.000000
     58          6.680256   0.000000
     59          7.282884   0.000000
     60          7.610455   0.000000
     61          8.426633   0.000000
     62          8.553368   0.000000
     63          8.656541   0.000000
     64          9.370008   0.000000
     65          9.442227   0.000000
     66          9.753495   0.000000
     67          9.800619   0.000000
     68         10.398873   0.000000
     69         10.631210   0.000000
     70         10.881527   0.000000
     71         11.368105   0.000000
     72         11.710778   0.000000
     73         11.961909   0.000000
     74         12.247349   0.000000
     75         12.586782   0.000000
     76         12.825093   0.000000
     77         12.974662   0.000000
     78         13.020175   0.000000
     79         13.412526   0.000000
     80         13.551282   0.000000
     81         13.883434   0.000000
     82         13.914925   0.000000
     83         14.437952   0.000000
     84         14.687345   0.000000
     85         14.848007   0.000000
     86         15.014307   0.000000
     87         15.383223   0.000000
     88         15.528106   0.000000
     89         16.086348   0.000000
     90         16.112721   0.000000
     91         16.288740   0.000000
     92         16.608709   0.000000
     93         16.695123   0.000000
     94         17.426569   0.000000
     95         17.577206   0.000000
     96         18.353076   0.000000
     97         18.546064   0.000000
     98         18.831749   0.000000
     99         19.119901   0.000000
    100         19.317272   0.000000
    101         19.661017   0.000000
    102         19.751934   0.000000
    103         19.794088   0.000000
    104         20.126863   0.000000
    105         20.402276   0.000000
    106         20.420824   0.000000
    107         20.691707   0.000000
    108         21.319966   0.000000
    109         21.482283   0.000000
    110         21.727815   0.000000
    111         21.733803   0.000000
    112         21.963374   0.000000
    113         22.233860   0.000000
    114         22.419796   0.000000
    115         22.517091   0.000000
    116         22.666871   0.000000
    117         22.684439   0.000000
    118         23.221372   0.000000
    119         23.237014   0.000000
    120         23.949305   0.000000
    121         24.621197   0.000000
    122         24.697040   0.000000
    123         24.844855   0.000000
    124         25.074962   0.000000
    125         25.483687   0.000000
    126         25.623167   0.000000
    127         25.800985   0.000000
    128         25.867400   0.000000
    129         26.400638   0.000000
    130         26.496673   0.000000
    131         26.875189   0.000000
    132         26.970450   0.000000
    133         27.275286   0.000000
    134         27.295218   0.000000
    135         27.527452   0.000000
    136         27.601855   0.000000
    137         27.679720   0.000000
    138         27.796382   0.000000
    139         28.200292   0.000000
    140         28.274063   0.000000

  0.1428571E+00  0.0000000E+00  0.1428571E+00  0.1020408E-01
      1        -25.453412   1.000000
      2        -25.448845   1.000000
      3        -25.438871   1.000000
      4        -25.438303   1.000000
      5        -25.409078   1.000000
      6        -25.408711   1.000000
      7        -25.386610   1.000000
      8        -25.385953   1.000000
      9        -25.381203   1.000000
     10        -25.380498   1.000000
     11        -12.760199   1.000000
     12        -11.713191   1.000000
     13        -11.315327   1.000000
     14        -11.179212   1.000000
     15        -10.882333   1.000000
     16        -10.818579   1.000000
     17         -6.359768   1.000000
     18         -5.509317   1.000000
     19         -2.733194   1.000000
     20         -2.364424   1.000000
     21         -2.108099   1.000000
     22         -1.962868   1.000000
     23         -1.798193   1.000000
     24         -1.434598   1.000000
     25         -1.207958   1.000000
     26         -1.038660   1.000000
     27         -0.871840   1.000000
     28         -0.769690   1.000000
     29         -0.662923   1.000000
     30         -0.616186   1.000000
     31         -0.593378   1.000000
     32         -0.528229   1.000000
     33         -0.434458   1.000000
     34         -0.397386   1.000000
     35          0.521084   1.000000
     36          0.558976   1.000000
     37          0.570559   1.000000
     38          0.615227   1.000000
     39          0.620071   1.000000
     40          0.658755   1.000000
     41          0.693112   1.000000
     42          0.698098   1.000000
     43          0.805604   1.000000
     44          0.972536   1.000000
     45          1.081153   1.000000
     46          1.160805   1.000000
     47          1.238458   1.000000
     48          1.685930   1.000000
     49          1.974359   1.000000
     50          2.136105   1.000000
     51          2.405935   1.000000
     52          2.456739   1.000000
     53          3.085109   1.000000
     54          3.169625   1.000000
     55          4.912446   0.000000
     56          5.346708   0.000000
     57          6.876943   0.000000
     58          7.039764   0.000000
     59          7.396422   0.000000
     60          7.918301   0.000000
     61          8.327801   0.000000
     62          8.525301   0.000000
     63          8.701094   0.000000
     64          9.230421   0.000000
     65          9.743816   0.000000
     66          9.852891   0.000000
     67         10.108494   0.000000
     68         10.283944   0.000000
     69         10.421473   0.000000
     70         10.730428   0.000000
     71         10.993858   0.000000
     72         11.264337   0.000000
     73         11.502852   0.000000
     74         11.816634   0.000000
     75         12.194257   0.000000
     76         12.364491   0.000000
     77         13.054874   0.000000
     78         13.134170   0.000000
     79         13.261348   0.000000
     80         13.626359   0.000000
     81         13.790850   0.000000
     82         14.295765   0.000000
     83         14.486296   0.000000
     84         14.799359   0.000000
     85         15.079740   0.000000
     86         15.207412   0.000000
     87         15.387169   0.000000
     88         15.837858   0.000000
     89         15.935500   0.000000
     90         16.108510   0.000000
     91         16.572504   0.000000
     92         16.949090   0.000000
     93         17.193212   0.000000
     94         17.563038   0.000000
     95         17.839370   0.000000
     96         18.244704   0.000000
     97         18.744106   0.000000
     98         18.994210   0.000000
     99         19.153498   0.000000
    100         19.306557   0.000000
    101         19.566245   0.000000
    102         19.811416   0.000000
    103         20.140119   0.000000
    104         20.275536   0.000000
    105         20.445899   0.000000
    106         20.540637   0.000000
    107         20.652817   0.000000
    108         20.844703   0.000000
    109         21.161114   0.000000
    110         21.200050   0.000000
    111         21.557291   0.000000
    112         21.944531   0.000000
    113         22.083822   0.000000
    114         22.279961   0.000000
    115         22.638402   0.000000
    116         22.855705   0.000000
    117         23.089057   0.000000
    118         23.320515   0.000000
    119         23.495320   0.000000
    120         23.635469   0.000000
    121         24.228868   0.000000
    122         24.575919   0.000000
    123         25.106355   0.000000
    124         25.222898   0.000000
    125         25.411024   0.000000
    126         25.567597   0.000000
    127         25.934033   0.000000
    128         26.170081   0.000000
    129         26.287552   0.000000
    130         26.452233   0.000000
    131         26.531896   0.000000
    132         26.865268   0.000000
    133         26.958761   0.000000
    134         27.138615   0.000000
    135         27.255192   0.000000
    136         27.428057   0.000000
    137         27.523341   0.000000
    138         27.653297   0.000000
    139         28.036658   0.000000
    140         28.202676   0.000000

  0.2857143E+00  0.0000000E+00  0.1428571E+00  0.1020408E-01
      1        -25.453319   1.000000
      2        -25.448762   1.000000
      3        -25.438798   1.000000
      4        -25.438230   1.000000
      5        -25.408950   1.000000
      6        -25.408582   1.000000
      7        -25.386504   1.000000
      8        -25.385845   1.000000
      9        -25.381085   1.000000
     10        -25.380368   1.000000
     11        -12.650677   1.000000
     12        -11.716203   1.000000
     13        -11.389983   1.000000
     14        -11.214409   1.000000
     15        -10.959426   1.000000
     16        -10.844015   1.000000
     17         -6.324974   1.000000
     18         -5.368808   1.000000
     19         -2.626840   1.000000
     20         -2.364848   1.000000
     21         -2.118966   1.000000
     22         -1.807239   1.000000
     23         -1.589928   1.000000
     24         -1.475627   1.000000
     25         -1.145229   1.000000
     26         -1.042200   1.000000
     27         -0.964485   1.000000
     28         -0.826912   1.000000
     29         -0.722876   1.000000
     30         -0.621370   1.000000
     31         -0.582384   1.000000
     32         -0.531635   1.000000
     33         -0.449489   1.000000
     34         -0.370133   1.000000
     35          0.500083   1.000000
     36          0.538390   1.000000
     37          0.567575   1.000000
     38          0.607176   1.000000
     39          0.623518   1.000000
     40          0.637481   1.000000
     41          0.689856   1.000000
     42          0.708506   1.000000
     43          0.831047   1.000000
     44          1.101201   1.000000
     45          1.203721   1.000000
     46          1.233866   1.000000
     47          1.373923   1.000000
     48          1.483442   1.000000
     49          1.650813   1.000000
     50          1.970259   1.000000
     51          2.170531   1.000000
     52          2.278067   1.000000
     53          2.843304   1.000000
     54          2.978297   1.000000
     55          5.169314   0.000000
     56          5.732904   0.000000
     57          7.005293   0.000000
     58          7.134214   0.000000
     59          7.668415   0.000000
     60          7.803939   0.000000
     61          8.220113   0.000000
     62          8.441940   0.000000
     63          8.959225   0.000000
     64          9.252818   0.000000
     65          9.559697   0.000000
     66          9.945347   0.000000
     67         10.108689   0.000000
     68         10.293081   0.000000
     69         10.427201   0.000000
     70         10.568386   0.000000
     71         10.935096   0.000000
     72         11.087645   0.000000
     73         11.292902   0.000000
     74         11.550943   0.000000
     75         11.847197   0.000000
     76         12.109850   0.000000
     77         12.490473   0.000000
     78         12.949778   0.000000
     79         13.351109   0.000000
     80         13.727224   0.000000
     81         13.871786   0.000000
     82         14.200354   0.000000
     83         14.576522   0.000000
     84         14.981966   0.000000
     85         15.728301   0.000000
     86         15.845141   0.000000
     87         15.911634   0.000000
     88         16.260127   0.000000
     89         16.511368   0.000000
     90         16.865390   0.000000
     91         17.254376   0.000000
     92         17.291338   0.000000
     93         17.431040   0.000000
     94         17.631401   0.000000
     95         17.925763   0.000000
     96         18.246122   0.000000
     97         18.421082   0.000000
     98         18.472994   0.000000
     99         18.666817   0.000000
    100         19.008269   0.000000
    101         19.183034   0.000000
    102         19.367097   0.000000
    103         19.603957   0.000000
    104         19.790814   0.000000
    105         19.921756   0.000000
    106         20.529373   0.000000
    107         20.703447   0.000000
    108         20.898921   0.000000
    109         21.430094   0.000000
    110         21.642529   0.000000
    111         21.829736   0.000000
    112         22.002298   0.000000
    113         22.494057   0.000000
    114         22.823429   0.000000
    115         22.928395   0.000000
    116         23.173820   0.000000
    117         23.460361   0.000000
    118         23.606229   0.000000
    119         23.758366   0.000000
    120         23.877276   0.000000
    121         24.070250   0.000000
    122         24.362384   0.000000
    123         24.530975   0.000000
    124         24.929440   0.000000
    125         25.078620   0.000000
    126         25.322585   0.000000
    127         25.605079   0.000000
    128         25.723733   0.000000
    129         25.947265   0.000000
    130         26.030120   0.000000
    131         26.128233   0.000000
    132         26.294006   0.000000
    133         26.467667   0.000000
    134         26.707531   0.000000
    135         26.941177   0.000000
    136         27.002856   0.000000
    137         27.204877   0.000000
    138         27.385640   0.000000
    139         27.776291   0.000000
    140         27.978867   0.000000

  0.4285714E+00  0.0000000E+00  0.1428571E+00  0.1020408E-01
      1        -25.453304   1.000000
      2        -25.448756   1.000000
      3        -25.438793   1.000000
      4        -25.438220   1.000000
      5        -25.408897   1.000000
      6        -25.408527   1.000000
      7        -25.386456   1.000000
      8        -25.385809   1.000000
      9        -25.381038   1.000000
     10        -25.380306   1.000000
     11        -12.566698   1.000000
     12        -11.714202   1.000000
     13        -11.442339   1.000000
     14        -11.220370   1.000000
     15        -11.009733   1.000000
     16        -10.893562   1.000000
     17         -6.307570   1.000000
     18         -5.288654   1.000000
     19         -2.601768   1.000000
     20         -2.351830   1.000000
     21         -2.066998   1.000000
     22         -1.807192   1.000000
     23         -1.503589   1.000000
     24         -1.380163   1.000000
     25         -1.224017   1.000000
     26         -1.108244   1.000000
     27         -0.926971   1.000000
     28         -0.794970   1.000000
     29         -0.704042   1.000000
     30         -0.612252   1.000000
     31         -0.555614   1.000000
     32         -0.531436   1.000000
     33         -0.432708   1.000000
     34         -0.364508   1.000000
     35          0.492128   1.000000
     36          0.527830   1.000000
     37          0.540999   1.000000
     38          0.619091   1.000000
     39          0.642801   1.000000
     40          0.647363   1.000000
     41          0.679904   1.000000
     42          0.744148   1.000000
     43          0.869697   1.000000
     44          1.035922   1.000000
     45          1.160271   1.000000
     46          1.246310   1.000000
     47          1.400563   1.000000
     48          1.572399   1.000000
     49          1.631045   1.000000
     50          1.864314   1.000000
     51          2.117630   1.000000
     52          2.192902   1.000000
     53          2.616891   1.000000
     54          3.068452   1.000000
     55          5.169091   0.000000
     56          5.737185   0.000000
     57          6.671883   0.000000
     58          7.004066   0.000000
     59          7.455056   0.000000
     60          7.739543   0.000000
     61          8.257335   0.000000
     62          8.554425   0.000000
     63          8.938131   0.000000
     64          9.271466   0.000000
     65          9.420033   0.000000
     66          9.784276   0.000000
     67         10.037257   0.000000
     68         10.252158   0.000000
     69         10.351579   0.000000
     70         10.676823   0.000000
     71         10.796938   0.000000
     72         11.207993   0.000000
     73         11.671129   0.000000
     74         11.918550   0.000000
     75         12.066462   0.000000
     76         12.329694   0.000000
     77         12.663328   0.000000
     78         12.957311   0.000000
     79         13.075778   0.000000
     80         13.442655   0.000000
     81         14.103404   0.000000
     82         14.531353   0.000000
     83         14.900598   0.000000
     84         15.043966   0.000000
     85         15.291146   0.000000
     86         15.849420   0.000000
     87         16.066130   0.000000
     88         16.432539   0.000000
     89         16.583297   0.000000
     90         16.913121   0.000000
     91         17.200948   0.000000
     92         17.313501   0.000000
     93         17.537763   0.000000
     94         17.749889   0.000000
     95         17.902099   0.000000
     96         18.148985   0.000000
     97         18.257924   0.000000
     98         18.646004   0.000000
     99         18.776384   0.000000
    100         19.033413   0.000000
    101         19.199885   0.000000
    102         19.416276   0.000000
    103         19.823650   0.000000
    104         20.063887   0.000000
    105         20.263706   0.000000
    106         20.343654   0.000000
    107         20.556971   0.000000
    108         21.164721   0.000000
    109         21.274553   0.000000
    110         21.558046   0.000000
    111         21.641622   0.000000
    112         22.179141   0.000000
    113         22.413387   0.000000
    114         22.809845   0.000000
    115         23.026475   0.000000
    116         23.155298   0.000000
    117         23.389818   0.000000
    118         23.585101   0.000000
    119         23.662953   0.000000
    120         23.892007   0.000000
    121         24.014709   0.000000
    122         24.264596   0.000000
    123         24.505426   0.000000
    124         24.718488   0.000000
    125         24.853279   0.000000
    126         25.015690   0.000000
    127         25.278603   0.000000
    128         25.496186   0.000000
    129         25.560752   0.000000
    130         25.719948   0.000000
    131         25.899562   0.000000
    132         26.082170   0.000000
    133         26.348941   0.000000
    134         26.544264   0.000000
    135         26.674238   0.000000
    136         26.733977   0.000000
    137         27.039084   0.000000
    138         27.296822   0.000000
    139         27.523843   0.000000
    140         27.605596   0.000000

 -0.4285714E+00  0.0000000E+00  0.1428571E+00  0.1020408E-01
      1        -25.453379   1.000000
      2        -25.448823   1.000000
      3        -25.438854   1.000000
      4        -25.438286   1.000000
      5        -25.408967   1.000000
      6        -25.408588   1.000000
      7        -25.386504   1.000000
      8        -25.385866   1.000000
      9        -25.381086   1.000000
     10        -25.380366   1.000000
     11        -12.598393   1.000000
     12        -11.670644   1.000000
     13        -11.426441   1.000000
     14        -11.204704   1.000000
     15        -11.011767   1.000000
     16        -10.919823   1.000000
     17         -6.324990   1.000000
     18         -5.337065   1.000000
     19         -2.693025   1.000000
     20         -2.401374   1.000000
     21         -2.211669   1.000000
     22         -1.604560   1.000000
     23         -1.540664   1.000000
     24         -1.343994   1.000000
     25         -1.138778   1.000000
     26         -1.015896   1.000000
     27         -0.882643   1.000000
     28         -0.806398   1.000000
     29         -0.687087   1.000000
     30         -0.604609   1.000000
     31         -0.558340   1.000000
     32         -0.530624   1.000000
     33         -0.438836   1.000000
     34         -0.385908   1.000000
     35          0.471421   1.000000
     36          0.493914   1.000000
     37          0.554911   1.000000
     38          0.614443   1.000000
     39          0.626922   1.000000
     40          0.650082   1.000000
     41          0.670293   1.000000
     42          0.732726   1.000000
     43          0.943141   1.000000
     44          1.084393   1.000000
     45          1.180140   1.000000
     46          1.223598   1.000000
     47          1.422814   1.000000
     48          1.566313   1.000000
     49          1.722186   1.000000
     50          1.762728   1.000000
     51          2.146545   1.000000
     52          2.264978   1.000000
     53          2.561751   1.000000
     54          3.258031   1.000000
     55          5.069196   0.000000
     56          5.641446   0.000000
     57          6.569214   0.000000
     58          6.905013   0.000000
     59          7.357954   0.000000
     60          7.599710   0.000000
     61          8.100341   0.000000
     62          8.369049   0.000000
     63          8.742097   0.000000
     64          9.095371   0.000000
     65          9.491073   0.000000
     66          9.707439   0.000000
     67          9.937251   0.000000
     68         10.153788   0.000000
     69         10.347689   0.000000
     70         10.646786   0.000000
     71         11.144334   0.000000
     72         11.340802   0.000000
     73         11.526042   0.000000
     74         12.181943   0.000000
     75         12.420871   0.000000
     76         12.639226   0.000000
     77         13.056417   0.000000
     78         13.214446   0.000000
     79         13.378214   0.000000
     80         13.880468   0.000000
     81         14.070862   0.000000
     82         14.313942   0.000000
     83         14.702042   0.000000
     84         15.192950   0.000000
     85         15.329938   0.000000
     86         15.784520   0.000000
     87         16.086706   0.000000
     88         16.367363   0.000000
     89         16.574516   0.000000
     90         16.774013   0.000000
     91         16.939803   0.000000
     92         17.155686   0.000000
     93         17.323051   0.000000
     94         17.579460   0.000000
     95         17.718538   0.000000
     96         18.096600   0.000000
     97         18.417674   0.000000
     98         18.704957   0.000000
     99         18.777754   0.000000
    100         19.019059   0.000000
    101         19.139040   0.000000
    102         19.294469   0.000000
    103         19.586367   0.000000
    104         19.972317   0.000000
    105         20.344391   0.000000
    106         20.551453   0.000000
    107         20.838671   0.000000
    108         21.233967   0.000000
    109         21.311255   0.000000
    110         21.630608   0.000000
    111         21.711716   0.000000
    112         21.878841   0.000000
    113         22.109678   0.000000
    114         22.446095   0.000000
    115         22.720550   0.000000
    116         23.036013   0.000000
    117         23.194938   0.000000
    118         23.276742   0.000000
    119         23.732116   0.000000
    120         23.795958   0.000000
    121         23.981047   0.000000
    122         24.027144   0.000000
    123         24.299193   0.000000
    124         24.470802   0.000000
    125         24.898751   0.000000
    126         25.046755   0.000000
    127         25.327073   0.000000
    128         25.630083   0.000000
    129         25.772407   0.000000
    130         25.927806   0.000000
    131         26.161033   0.000000
    132         26.314440   0.000000
    133         26.460809   0.000000
    134         26.802296   0.000000
    135         26.939572   0.000000
    136         27.264712   0.000000
    137         27.405692   0.000000
    138         27.556521   0.000000
    139         27.803929   0.000000
    140         27.890985   0.000000

 -0.2857143E+00  0.0000000E+00  0.1428571E+00  0.1020408E-01
      1        -25.453493   1.000000
      2        -25.448919   1.000000
      3        -25.438943   1.000000
      4        -25.438380   1.000000
      5        -25.409100   1.000000
      6        -25.408724   1.000000
      7        -25.386619   1.000000
      8        -25.385979   1.000000
      9        -25.381205   1.000000
     10        -25.380502   1.000000
     11        -12.707787   1.000000
     12        -11.619451   1.000000
     13        -11.400520   1.000000
     14        -11.164886   1.000000
     15        -10.965596   1.000000
     16        -10.880713   1.000000
     17         -6.365418   1.000000
     18         -5.475267   1.000000
     19         -2.788048   1.000000
     20         -2.544192   1.000000
     21         -2.250077   1.000000
     22         -1.751310   1.000000
     23         -1.414474   1.000000
     24         -1.262536   1.000000
     25         -1.059269   1.000000
     26         -1.008119   1.000000
     27         -0.869030   1.000000
     28         -0.758416   1.000000
     29         -0.660512   1.000000
     30         -0.642195   1.000000
     31         -0.603716   1.000000
     32         -0.539397   1.000000
     33         -0.445870   1.000000
     34         -0.403946   1.000000
     35          0.492461   1.000000
     36          0.508460   1.000000
     37          0.572533   1.000000
     38          0.597436   1.000000
     39          0.614675   1.000000
     40          0.626385   1.000000
     41          0.647980   1.000000
     42          0.718003   1.000000
     43          0.910619   1.000000
     44          1.109705   1.000000
     45          1.163841   1.000000
     46          1.304669   1.000000
     47          1.437909   1.000000
     48          1.606282   1.000000
     49          1.761853   1.000000
     50          1.949460   1.000000
     51          2.074714   1.000000
     52          2.405963   1.000000
     53          2.847894   1.000000
     54          3.343926   1.000000
     55          4.902780   0.000000
     56          5.487462   0.000000
     57          6.701186   0.000000
     58          6.869008   0.000000
     59          7.180990   0.000000
     60          7.585907   0.000000
     61          8.080741   0.000000
     62          8.277842   0.000000
     63          8.663461   0.000000
     64          9.071278   0.000000
     65          9.388867   0.000000
     66          9.657975   0.000000
     67          9.843927   0.000000
     68          9.965199   0.000000
     69         10.474843   0.000000
     70         10.813862   0.000000
     71         11.202355   0.000000
     72         11.537324   0.000000
     73         11.678791   0.000000
     74         11.872049   0.000000
     75         12.333674   0.000000
     76         12.732328   0.000000
     77         12.975545   0.000000
     78         13.570973   0.000000
     79         13.799714   0.000000
     80         14.054720   0.000000
     81         14.376551   0.000000
     82         14.664412   0.000000
     83         14.772944   0.000000
     84         15.119893   0.000000
     85         15.368695   0.000000
     86         15.451212   0.000000
     87         15.806502   0.000000
     88         16.068710   0.000000
     89         16.558657   0.000000
     90         16.715903   0.000000
     91         17.007859   0.000000
     92         17.195458   0.000000
     93         17.346295   0.000000
     94         17.495381   0.000000
     95         17.686746   0.000000
     96         17.889253   0.000000
     97         18.154523   0.000000
     98         18.233383   0.000000
     99         18.555285   0.000000
    100         18.821984   0.000000
    101         19.085091   0.000000
    102         19.323884   0.000000
    103         19.352119   0.000000
    104         19.569551   0.000000
    105         19.877066   0.000000
    106         20.257577   0.000000
    107         20.533389   0.000000
    108         20.732212   0.000000
    109         20.945269   0.000000
    110         21.585021   0.000000
    111         21.846143   0.000000
    112         22.018905   0.000000
    113         22.181636   0.000000
    114         22.261704   0.000000
    115         22.708297   0.000000
    116         23.005105   0.000000
    117         23.276144   0.000000
    118         23.601930   0.000000
    119         23.715520   0.000000
    120         23.972881   0.000000
    121         24.493269   0.000000
    122         24.624955   0.000000
    123         24.850168   0.000000
    124         25.093155   0.000000
    125         25.455501   0.000000
    126         25.573618   0.000000
    127         25.811042   0.000000
    128         25.896133   0.000000
    129         26.090463   0.000000
    130         26.330089   0.000000
    131         26.425573   0.000000
    132         26.653405   0.000000
    133         26.737214   0.000000
    134         26.930581   0.000000
    135         27.084946   0.000000
    136         27.251081   0.000000
    137         27.356177   0.000000
    138         27.500107   0.000000
    139         27.809380   0.000000
    140         28.093148   0.000000

 -0.1428571E+00  0.0000000E+00  0.1428571E+00  0.1020408E-01
      1        -25.453557   1.000000
      2        -25.448975   1.000000
      3        -25.438991   1.000000
      4        -25.438425   1.000000
      5        -25.409195   1.000000
      6        -25.408830   1.000000
      7        -25.386709   1.000000
      8        -25.386056   1.000000
      9        -25.381301   1.000000
     10        -25.380604   1.000000
     11        -12.797727   1.000000
     12        -11.640468   1.000000
     13        -11.354459   1.000000
     14        -11.131985   1.000000
     15        -10.884364   1.000000
     16        -10.829191   1.000000
     17         -6.393807   1.000000
     18         -5.592688   1.000000
     19         -2.839391   1.000000
     20         -2.540425   1.000000
     21         -2.191525   1.000000
     22         -1.955294   1.000000
     23         -1.598049   1.000000
     24         -1.305462   1.000000
     25         -1.200340   1.000000
     26         -0.999012   1.000000
     27         -0.777012   1.000000
     28         -0.712200   1.000000
     29         -0.651391   1.000000
     30         -0.619393   1.000000
     31         -0.595814   1.000000
     32         -0.537443   1.000000
     33         -0.432031   1.000000
     34         -0.409575   1.000000
     35          0.538441   1.000000
     36          0.553376   1.000000
     37          0.576985   1.000000
     38          0.597351   1.000000
     39          0.623023   1.000000
     40          0.629348   1.000000
     41          0.670219   1.000000
     42          0.709672   1.000000
     43          0.817416   1.000000
     44          1.000428   1.000000
     45          1.048469   1.000000
     46          1.253470   1.000000
     47          1.366245   1.000000
     48          1.706322   1.000000
     49          1.940123   1.000000
     50          2.211747   1.000000
     51          2.334650   1.000000
     52          2.731730   1.000000
     53          3.177890   1.000000
     54          3.265185   1.000000
     55          4.672139   0.000000
     56          5.203281   0.000000
     57          6.483851   0.000000
     58          6.716085   0.000000
     59          7.284340   0.000000
     60          7.461208   0.000000
     61          8.274529   0.000000
     62          8.489403   0.000000
     63          8.656592   0.000000
     64          9.248901   0.000000
     65          9.317872   0.000000
     66          9.599557   0.000000
     67          9.768863   0.000000
     68         10.280733   0.000000
     69         10.516386   0.000000
     70         10.959299   0.000000
     71         11.407738   0.000000
     72         11.538745   0.000000
     73         12.022350   0.000000
     74         12.074756   0.000000
     75         12.517767   0.000000
     76         12.628944   0.000000
     77         12.746382   0.000000
     78         13.335128   0.000000
     79         13.828182   0.000000
     80         14.107368   0.000000
     81         14.226800   0.000000
     82         14.363507   0.000000
     83         14.534257   0.000000
     84         14.935970   0.000000
     85         15.161871   0.000000
     86         15.237772   0.000000
     87         15.356364   0.000000
     88         15.781605   0.000000
     89         16.076151   0.000000
     90         16.522777   0.000000
     91         16.781161   0.000000
     92         16.901704   0.000000
     93         17.335442   0.000000
     94         17.397924   0.000000
     95         17.619382   0.000000
     96         17.727719   0.000000
     97         18.145720   0.000000
     98         18.301010   0.000000
     99         18.673013   0.000000
    100         18.800219   0.000000
    101         19.190396   0.000000
    102         19.325279   0.000000
    103         19.546747   0.000000
    104         19.919465   0.000000
    105         20.085094   0.000000
    106         20.348456   0.000000
    107         20.661263   0.000000
    108         20.830163   0.000000
    109         20.960423   0.000000
    110         21.302862   0.000000
    111         21.622399   0.000000
    112         22.072658   0.000000
    113         22.504045   0.000000
    114         22.552054   0.000000
    115         23.054173   0.000000
    116         23.161789   0.000000
    117         23.395153   0.000000
    118         23.622318   0.000000
    119         23.745526   0.000000
    120         24.091603   0.000000
    121         24.331386   0.000000
    122         24.571279   0.000000
    123         24.953553   0.000000
    124         25.220948   0.000000
    125         25.403078   0.000000
    126         25.729032   0.000000
    127         25.837684   0.000000
    128         25.922294   0.000000
    129         26.206263   0.000000
    130         26.262621   0.000000
    131         26.518385   0.000000
    132         26.682613   0.000000
    133         27.097312   0.000000
    134         27.239786   0.000000
    135         27.304459   0.000000
    136         27.627494   0.000000
    137         27.709638   0.000000
    138         27.976957   0.000000
    139         28.064861   0.000000
    140         28.250409   0.000000

  0.0000000E+00  0.2500000E+00  0.1428571E+00  0.2040816E-01
      1        -25.453521   1.000000
      2        -25.448942   1.000000
      3        -25.438965   1.000000
      4        -25.438400   1.000000
      5        -25.409132   1.000000
      6        -25.408759   1.000000
      7        -25.386649   1.000000
      8        -25.386005   1.000000
      9        -25.381236   1.000000
     10        -25.380537   1.000000
     11        -12.734937   1.000000
     12        -11.617792   1.000000
     13        -11.392240   1.000000
     14        -11.153446   1.000000
     15        -10.946672   1.000000
     16        -10.865980   1.000000
     17         -6.374974   1.000000
     18         -5.510994   1.000000
     19         -2.806141   1.000000
     20         -2.560192   1.000000
     21         -2.239017   1.000000
     22         -1.808536   1.000000
     23         -1.457394   1.000000
     24         -1.236081   1.000000
     25         -1.075573   1.000000
     26         -1.001620   1.000000
     27         -0.855619   1.000000
     28         -0.751700   1.000000
     29         -0.654148   1.000000
     30         -0.634463   1.000000
     31         -0.607995   1.000000
     32         -0.541328   1.000000
     33         -0.446195   1.000000
     34         -0.406159   1.000000
     35          0.507143   1.000000
     36          0.517597   1.000000
     37          0.573323   1.000000
     38          0.593475   1.000000
     39          0.612966   1.000000
     40          0.625160   1.000000
     41          0.651802   1.000000
     42          0.718224   1.000000
     43          0.876720   1.000000
     44          1.083506   1.000000
     45          1.156198   1.000000
     46          1.286649   1.000000
     47          1.441814   1.000000
     48          1.693427   1.000000
     49          1.737879   1.000000
     50          2.000251   1.000000
     51          2.136458   1.000000
     52          2.458140   1.000000
     53          2.941653   1.000000
     54          3.338914   1.000000
     55          4.850870   0.000000
     56          5.423022   0.000000
     57          6.640846   0.000000
     58          6.862510   0.000000
     59          7.213310   0.000000
     60          7.526374   0.000000
     61          8.148960   0.000000
     62          8.294330   0.000000
     63          8.676917   0.000000
     64          9.088640   0.000000
     65          9.364014   0.000000
     66          9.680875   0.000000
     67          9.788791   0.000000
     68          9.981975   0.000000
     69         10.471195   0.000000
     70         10.856070   0.000000
     71         11.225924   0.000000
     72         11.629246   0.000000
     73         11.717517   0.000000
     74         11.859476   0.000000
     75         12.339857   0.000000
     76         12.765605   0.000000
     77         12.870190   0.000000
     78         13.641073   0.000000
     79         13.751820   0.000000
     80         14.086629   0.000000
     81         14.396957   0.000000
     82         14.673226   0.000000
     83         14.826220   0.000000
     84         15.058160   0.000000
     85         15.275499   0.000000
     86         15.458245   0.000000
     87         15.688897   0.000000
     88         15.979769   0.000000
     89         16.434185   0.000000
     90         16.673374   0.000000
     91         16.944835   0.000000
     92         17.190987   0.000000
     93         17.337904   0.000000
     94         17.473233   0.000000
     95         17.687906   0.000000
     96         17.977337   0.000000
     97         18.167322   0.000000
     98         18.207384   0.000000
     99         18.527284   0.000000
    100         18.699413   0.000000
    101         19.141059   0.000000
    102         19.252825   0.000000
    103         19.395197   0.000000
    104         19.485218   0.000000
    105         19.746614   0.000000
    106         20.242408   0.000000
    107         20.319435   0.000000
    108         20.845847   0.000000
    109         21.084632   0.000000
    110         21.461366   0.000000
    111         21.829800   0.000000
    112         22.007783   0.000000
    113         22.175342   0.000000
    114         22.387914   0.000000
    115         22.689102   0.000000
    116         23.041827   0.000000
    117         23.318801   0.000000
    118         23.824332   0.000000
    119         24.012986   0.000000
    120         24.069434   0.000000
    121         24.373808   0.000000
    122         24.716947   0.000000
    123         24.766468   0.000000
    124         25.011069   0.000000
    125         25.564408   0.000000
    126         25.644228   0.000000
    127         25.802911   0.000000
    128         25.924504   0.000000
    129         26.187889   0.000000
    130         26.419542   0.000000
    131         26.552480   0.000000
    132         26.677108   0.000000
    133         26.789972   0.000000
    134         26.924459   0.000000
    135         27.162658   0.000000
    136         27.362669   0.000000
    137         27.485513   0.000000
    138         27.638658   0.000000
    139         27.935316   0.000000
    140         28.114410   0.000000

  0.1428571E+00  0.2500000E+00  0.1428571E+00  0.2040816E-01
      1        -25.453486   1.000000
      2        -25.448919   1.000000
      3        -25.438934   1.000000
      4        -25.438377   1.000000
      5        -25.409171   1.000000
      6        -25.408789   1.000000
      7        -25.386683   1.000000
      8        -25.386023   1.000000
      9        -25.381278   1.000000
     10        -25.380566   1.000000
     11        -12.747284   1.000000
     12        -11.664517   1.000000
     13        -11.423309   1.000000
     14        -11.107931   1.000000
     15        -10.924984   1.000000
     16        -10.804780   1.000000
     17         -6.395650   1.000000
     18         -5.556775   1.000000
     19         -2.795096   1.000000
     20         -2.560321   1.000000
     21         -2.083574   1.000000
     22         -1.935925   1.000000
     23         -1.611162   1.000000
     24         -1.367258   1.000000
     25         -1.100994   1.000000
     26         -0.998619   1.000000
     27         -0.830282   1.000000
     28         -0.738091   1.000000
     29         -0.639364   1.000000
     30         -0.608886   1.000000
     31         -0.589251   1.000000
     32         -0.500488   1.000000
     33         -0.427927   1.000000
     34         -0.377831   1.000000
     35          0.494893   1.000000
     36          0.541320   1.000000
     37          0.549675   1.000000
     38          0.606163   1.000000
     39          0.625909   1.000000
     40          0.643978   1.000000
     41          0.665544   1.000000
     42          0.715012   1.000000
     43          0.880212   1.000000
     44          0.995219   1.000000
     45          1.147264   1.000000
     46          1.249115   1.000000
     47          1.490668   1.000000
     48          1.674365   1.000000
     49          1.826622   1.000000
     50          2.024943   1.000000
     51          2.205166   1.000000
     52          2.535233   1.000000
     53          3.176709   1.000000
     54          3.277418   1.000000
     55          4.705555   0.000000
     56          5.321558   0.000000
     57          6.485807   0.000000
     58          6.863551   0.000000
     59          7.331332   0.000000
     60          7.555883   0.000000
     61          8.080767   0.000000
     62          8.425263   0.000000
     63          8.639026   0.000000
     64          9.203214   0.000000
     65          9.360060   0.000000
     66          9.485219   0.000000
     67          9.910932   0.000000
     68         10.090485   0.000000
     69         10.306205   0.000000
     70         10.817386   0.000000
     71         11.468755   0.000000
     72         11.704677   0.000000
     73         11.940367   0.000000
     74         12.016015   0.000000
     75         12.204829   0.000000
     76         12.450852   0.000000
     77         12.798589   0.000000
     78         13.342270   0.000000
     79         13.890156   0.000000
     80         14.101124   0.000000
     81         14.414179   0.000000
     82         14.648848   0.000000
     83         14.784230   0.000000
     84         15.005472   0.000000
     85         15.215793   0.000000
     86         15.483667   0.000000
     87         15.676564   0.000000
     88         16.089795   0.000000
     89         16.287567   0.000000
     90         16.441340   0.000000
     91         16.870816   0.000000
     92         16.975215   0.000000
     93         17.338376   0.000000
     94         17.589638   0.000000
     95         17.773625   0.000000
     96         18.015769   0.000000
     97         18.130407   0.000000
     98         18.365107   0.000000
     99         18.567725   0.000000
    100         18.735457   0.000000
    101         18.953715   0.000000
    102         19.135150   0.000000
    103         19.308811   0.000000
    104         19.409960   0.000000
    105         19.930780   0.000000
    106         20.029244   0.000000
    107         20.508299   0.000000
    108         21.120028   0.000000
    109         21.327218   0.000000
    110         21.550727   0.000000
    111         21.837270   0.000000
    112         22.217660   0.000000
    113         22.406747   0.000000
    114         22.633944   0.000000
    115         22.946087   0.000000
    116         23.164069   0.000000
    117         23.280621   0.000000
    118         23.772526   0.000000
    119         23.908630   0.000000
    120         24.102190   0.000000
    121         24.225477   0.000000
    122         24.456667   0.000000
    123         24.637415   0.000000
    124         24.801139   0.000000
    125         24.880542   0.000000
    126         25.195782   0.000000
    127         25.359144   0.000000
    128         25.709129   0.000000
    129         25.987936   0.000000
    130         26.088382   0.000000
    131         26.551301   0.000000
    132         26.944224   0.000000
    133         27.083538   0.000000
    134         27.235311   0.000000
    135         27.540092   0.000000
    136         27.623061   0.000000
    137         27.740963   0.000000
    138         27.872118   0.000000
    139         27.965197   0.000000
    140         28.198323   0.000000

  0.2857143E+00  0.2500000E+00  0.1428571E+00  0.2040816E-01
      1        -25.453422   1.000000
      2        -25.448868   1.000000
      3        -25.438900   1.000000
      4        -25.438344   1.000000
      5        -25.409147   1.000000
      6        -25.408750   1.000000
      7        -25.386664   1.000000
      8        -25.385997   1.000000
      9        -25.381257   1.000000
     10        -25.380533   1.000000
     11        -12.690668   1.000000
     12        -11.712477   1.000000
     13        -11.450304   1.000000
     14        -11.124563   1.000000
     15        -10.945539   1.000000
     16        -10.788112   1.000000
     17         -6.389321   1.000000
     18         -5.492386   1.000000
     19         -2.709410   1.000000
     20         -2.510533   1.000000
     21         -2.119115   1.000000
     22         -1.755407   1.000000
     23         -1.700906   1.000000
     24         -1.369055   1.000000
     25         -1.117806   1.000000
     26         -1.020420   1.000000
     27         -0.868132   1.000000
     28         -0.784830   1.000000
     29         -0.647283   1.000000
     30         -0.592060   1.000000
     31         -0.584607   1.000000
     32         -0.482563   1.000000
     33         -0.441981   1.000000
     34         -0.340852   1.000000
     35          0.488165   1.000000
     36          0.517213   1.000000
     37          0.550765   1.000000
     38          0.612215   1.000000
     39          0.620294   1.000000
     40          0.641183   1.000000
     41          0.662336   1.000000
     42          0.705592   1.000000
     43          0.903082   1.000000
     44          1.029762   1.000000
     45          1.150784   1.000000
     46          1.276374   1.000000
     47          1.463139   1.000000
     48          1.581444   1.000000
     49          1.686544   1.000000
     50          2.022582   1.000000
     51          2.239108   1.000000
     52          2.463226   1.000000
     53          2.921627   1.000000
     54          3.086444   1.000000
     55          4.945656   0.000000
     56          5.535616   0.000000
     57          6.580935   0.000000
     58          6.984334   0.000000
     59          7.286667   0.000000
     60          7.746212   0.000000
     61          8.132675   0.000000
     62          8.333493   0.000000
     63          8.772615   0.000000
     64          9.172256   0.000000
     65          9.318084   0.000000
     66          9.672329   0.000000
     67          9.889997   0.000000
     68         10.159353   0.000000
     69         10.375050   0.000000
     70         10.755759   0.000000
     71         10.912605   0.000000
     72         11.329369   0.000000
     73         11.797028   0.000000
     74         12.117199   0.000000
     75         12.325308   0.000000
     76         12.513929   0.000000
     77         12.965531   0.000000
     78         13.138534   0.000000
     79         13.556558   0.000000
     80         13.838381   0.000000
     81         14.334765   0.000000
     82         14.556275   0.000000
     83         14.944448   0.000000
     84         15.128846   0.000000
     85         15.280048   0.000000
     86         15.603356   0.000000
     87         15.859081   0.000000
     88         16.069703   0.000000
     89         16.467598   0.000000
     90         16.709777   0.000000
     91         16.970358   0.000000
     92         17.107104   0.000000
     93         17.467023   0.000000
     94         17.664682   0.000000
     95         17.810836   0.000000
     96         17.924099   0.000000
     97         18.255563   0.000000
     98         18.514987   0.000000
     99         18.554843   0.000000
    100         18.715057   0.000000
    101         18.886597   0.000000
    102         19.150160   0.000000
    103         19.395172   0.000000
    104         19.747626   0.000000
    105         19.952686   0.000000
    106         20.410469   0.000000
    107         20.630868   0.000000
    108         20.996223   0.000000
    109         21.307841   0.000000
    110         21.419353   0.000000
    111         21.931034   0.000000
    112         22.181791   0.000000
    113         22.351621   0.000000
    114         22.555165   0.000000
    115         22.775874   0.000000
    116         22.898044   0.000000
    117         23.115282   0.000000
    118         23.384304   0.000000
    119         23.466037   0.000000
    120         23.623258   0.000000
    121         24.182269   0.000000
    122         24.325326   0.000000
    123         24.574534   0.000000
    124         24.709212   0.000000
    125         25.400229   0.000000
    126         25.571539   0.000000
    127         25.786557   0.000000
    128         25.974040   0.000000
    129         26.057533   0.000000
    130         26.247415   0.000000
    131         26.347434   0.000000
    132         26.593594   0.000000
    133         26.909422   0.000000
    134         26.962838   0.000000
    135         27.113039   0.000000
    136         27.344239   0.000000
    137         27.516270   0.000000
    138         27.780213   0.000000
    139         28.055177   0.000000
    140         28.121186   0.000000

  0.4285714E+00  0.2500000E+00  0.1428571E+00  0.2040816E-01
      1        -25.453376   1.000000
      2        -25.448833   1.000000
      3        -25.438873   1.000000
      4        -25.438320   1.000000
      5        -25.409078   1.000000
      6        -25.408677   1.000000
      7        -25.386613   1.000000
      8        -25.385951   1.000000
      9        -25.381197   1.000000
     10        -25.380463   1.000000
     11        -12.595167   1.000000
     12        -11.737374   1.000000
     13        -11.454400   1.000000
     14        -11.209308   1.000000
     15        -10.989679   1.000000
     16        -10.813154   1.000000
     17         -6.356617   1.000000
     18         -5.349019   1.000000
     19         -2.574576   1.000000
     20         -2.448179   1.000000
     21         -2.162143   1.000000
     22         -1.758914   1.000000
     23         -1.504272   1.000000
     24         -1.376807   1.000000
     25         -1.271972   1.000000
     26         -1.056843   1.000000
     27         -0.948450   1.000000
     28         -0.728139   1.000000
     29         -0.674396   1.000000
     30         -0.576941   1.000000
     31         -0.545361   1.000000
     32         -0.525810   1.000000
     33         -0.417133   1.000000
     34         -0.334698   1.000000
     35          0.474808   1.000000
     36          0.530591   1.000000
     37          0.568501   1.000000
     38          0.592662   1.000000
     39          0.628473   1.000000
     40          0.652312   1.000000
     41          0.660186   1.000000
     42          0.712028   1.000000
     43          0.908945   1.000000
     44          1.038115   1.000000
     45          1.134762   1.000000
     46          1.214603   1.000000
     47          1.359587   1.000000
     48          1.469003   1.000000
     49          1.790263   1.000000
     50          2.040886   1.000000
     51          2.194835   1.000000
     52          2.329556   1.000000
     53          2.688540   1.000000
     54          2.937878   1.000000
     55          5.051845   0.000000
     56          5.684391   0.000000
     57          6.700396   0.000000
     58          6.898709   0.000000
     59          7.246726   0.000000
     60          7.797153   0.000000
     61          7.940777   0.000000
     62          8.131047   0.000000
     63          8.932727   0.000000
     64          9.214879   0.000000
     65          9.525568   0.000000
     66          9.858504   0.000000
     67         10.125523   0.000000
     68         10.481689   0.000000
     69         10.556530   0.000000
     70         10.807336   0.000000
     71         10.998763   0.000000
     72         11.332157   0.000000
     73         11.633588   0.000000
     74         11.911793   0.000000
     75         12.340954   0.000000
     76         12.474346   0.000000
     77         12.863347   0.000000
     78         13.203976   0.000000
     79         13.401917   0.000000
     80         13.443809   0.000000
     81         13.768750   0.000000
     82         14.295768   0.000000
     83         14.604255   0.000000
     84         14.849335   0.000000
     85         15.167221   0.000000
     86         15.653824   0.000000
     87         15.793973   0.000000
     88         16.191179   0.000000
     89         16.647747   0.000000
     90         16.972019   0.000000
     91         17.178194   0.000000
     92         17.355503   0.000000
     93         17.562441   0.000000
     94         17.894877   0.000000
     95         18.099216   0.000000
     96         18.362885   0.000000
     97         18.411155   0.000000
     98         18.636198   0.000000
     99         18.823533   0.000000
    100         18.973298   0.000000
    101         19.084452   0.000000
    102         19.291751   0.000000
    103         19.487425   0.000000
    104         19.671800   0.000000
    105         19.863003   0.000000
    106         20.644730   0.000000
    107         20.955800   0.000000
    108         21.443962   0.000000
    109         21.553962   0.000000
    110         21.787177   0.000000
    111         21.846926   0.000000
    112         22.081738   0.000000
    113         22.323107   0.000000
    114         22.557017   0.000000
    115         22.703377   0.000000
    116         22.833122   0.000000
    117         22.953433   0.000000
    118         23.160962   0.000000
    119         23.408398   0.000000
    120         23.517121   0.000000
    121         23.868484   0.000000
    122         24.060767   0.000000
    123         24.241873   0.000000
    124         24.428178   0.000000
    125         24.848965   0.000000
    126         24.986363   0.000000
    127         25.225064   0.000000
    128         25.526336   0.000000
    129         25.679015   0.000000
    130         26.030971   0.000000
    131         26.063785   0.000000
    132         26.313296   0.000000
    133         26.605334   0.000000
    134         26.810222   0.000000
    135         27.152598   0.000000
    136         27.315601   0.000000
    137         27.503198   0.000000
    138         27.789135   0.000000
    139         27.925384   0.000000
    140         28.078026   0.000000

 -0.4285714E+00  0.2500000E+00  0.1428571E+00  0.2040816E-01
      1        -25.453390   1.000000
      2        -25.448836   1.000000
      3        -25.438886   1.000000
      4        -25.438325   1.000000
      5        -25.408994   1.000000
      6        -25.408630   1.000000
      7        -25.386569   1.000000
      8        -25.385914   1.000000
      9        -25.381141   1.000000
     10        -25.380409   1.000000
     11        -12.534401   1.000000
     12        -11.702810   1.000000
     13        -11.441023   1.000000
     14        -11.301643   1.000000
     15        -11.015562   1.000000
     16        -10.873328   1.000000
     17         -6.321319   1.000000
     18         -5.234091   1.000000
     19         -2.503705   1.000000
     20         -2.386650   1.000000
     21         -2.026380   1.000000
     22         -1.845233   1.000000
     23         -1.630460   1.000000
     24         -1.493282   1.000000
     25         -1.340537   1.000000
     26         -0.983292   1.000000
     27         -0.912662   1.000000
     28         -0.671422   1.000000
     29         -0.638203   1.000000
     30         -0.617340   1.000000
     31         -0.532767   1.000000
     32         -0.492915   1.000000
     33         -0.428389   1.000000
     34         -0.356779   1.000000
     35          0.498829   1.000000
     36          0.540478   1.000000
     37          0.605426   1.000000
     38          0.610836   1.000000
     39          0.635819   1.000000
     40          0.657238   1.000000
     41          0.693838   1.000000
     42          0.757034   1.000000
     43          0.813388   1.000000
     44          0.929131   1.000000
     45          0.987612   1.000000
     46          1.290090   1.000000
     47          1.422692   1.000000
     48          1.560842   1.000000
     49          1.669631   1.000000
     50          1.894141   1.000000
     51          2.220726   1.000000
     52          2.398377   1.000000
     53          2.600624   1.000000
     54          2.994553   1.000000
     55          5.034620   0.000000
     56          5.565672   0.000000
     57          6.452729   0.000000
     58          6.911433   0.000000
     59          7.167349   0.000000
     60          7.447295   0.000000
     61          7.924875   0.000000
     62          7.986878   0.000000
     63          9.099563   0.000000
     64          9.211473   0.000000
     65          9.909906   0.000000
     66         10.220410   0.000000
     67         10.495452   0.000000
     68         10.681151   0.000000
     69         10.732181   0.000000
     70         11.061751   0.000000
     71         11.247958   0.000000
     72         11.444759   0.000000
     73         11.678965   0.000000
     74         11.832036   0.000000
     75         12.152342   0.000000
     76         12.565696   0.000000
     77         12.793241   0.000000
     78         12.895651   0.000000
     79         13.348894   0.000000
     80         13.541229   0.000000
     81         13.771137   0.000000
     82         14.005489   0.000000
     83         14.434353   0.000000
     84         14.509373   0.000000
     85         14.739790   0.000000
     86         15.197558   0.000000
     87         15.358362   0.000000
     88         15.587438   0.000000
     89         16.217180   0.000000
     90         16.734845   0.000000
     91         16.994498   0.000000
     92         17.670110   0.000000
     93         17.956939   0.000000
     94         18.230938   0.000000
     95         18.504554   0.000000
     96         18.618823   0.000000
     97         18.772570   0.000000
     98         18.951569   0.000000
     99         19.093534   0.000000
    100         19.516294   0.000000
    101         19.679532   0.000000
    102         19.893678   0.000000
    103         20.166453   0.000000
    104         20.301927   0.000000
    105         20.670370   0.000000
    106         20.867030   0.000000
    107         20.983854   0.000000
    108         21.287057   0.000000
    109         21.415298   0.000000
    110         21.563597   0.000000
    111         21.654171   0.000000
    112         21.957413   0.000000
    113         22.041214   0.000000
    114         22.358791   0.000000
    115         22.444204   0.000000
    116         22.724277   0.000000
    117         22.906779   0.000000
    118         23.152802   0.000000
    119         23.281491   0.000000
    120         23.476879   0.000000
    121         23.648428   0.000000
    122         23.773169   0.000000
    123         23.884352   0.000000
    124         24.035400   0.000000
    125         24.084263   0.000000
    126         24.558581   0.000000
    127         25.001473   0.000000
    128         25.213396   0.000000
    129         25.395242   0.000000
    130         25.769309   0.000000
    131         25.893091   0.000000
    132         26.023446   0.000000
    133         26.260424   0.000000
    134         26.433113   0.000000
    135         26.767858   0.000000
    136         27.016485   0.000000
    137         27.175931   0.000000
    138         27.446578   0.000000
    139         27.781338   0.000000
    140         27.917478   0.000000

 -0.2857143E+00  0.2500000E+00  0.1428571E+00  0.2040816E-01
      1        -25.453449   1.000000
      2        -25.448882   1.000000
      3        -25.438918   1.000000
      4        -25.438359   1.000000
      5        -25.408993   1.000000
      6        -25.408630   1.000000
      7        -25.386560   1.000000
      8        -25.385918   1.000000
      9        -25.381126   1.000000
     10        -25.380416   1.000000
     11        -12.569416   1.000000
     12        -11.625056   1.000000
     13        -11.401677   1.000000
     14        -11.328351   1.000000
     15        -11.008747   1.000000
     16        -10.934598   1.000000
     17         -6.315014   1.000000
     18         -5.252649   1.000000
     19         -2.533828   1.000000
     20         -2.498501   1.000000
     21         -2.094943   1.000000
     22         -1.691793   1.000000
     23         -1.572310   1.000000
     24         -1.466027   1.000000
     25         -1.232317   1.000000
     26         -1.033375   1.000000
     27         -0.925710   1.000000
     28         -0.642093   1.000000
     29         -0.632342   1.000000
     30         -0.575444   1.000000
     31         -0.560976   1.000000
     32         -0.513306   1.000000
     33         -0.487711   1.000000
     34         -0.391641   1.000000
     35          0.517129   1.000000
     36          0.529539   1.000000
     37          0.590704   1.000000
     38          0.609568   1.000000
     39          0.635285   1.000000
     40          0.638044   1.000000
     41          0.687193   1.000000
     42          0.752006   1.000000
     43          0.860942   1.000000
     44          0.895987   1.000000
     45          1.076530   1.000000
     46          1.389481   1.000000
     47          1.440923   1.000000
     48          1.569519   1.000000
     49          1.670886   1.000000
     50          1.684512   1.000000
     51          2.062396   1.000000
     52          2.423659   1.000000
     53          2.763102   1.000000
     54          3.053702   1.000000
     55          5.054313   0.000000
     56          5.558210   0.000000
     57          6.389196   0.000000
     58          6.840200   0.000000
     59          7.292968   0.000000
     60          7.514815   0.000000
     61          7.896698   0.000000
     62          8.051316   0.000000
     63          8.988891   0.000000
     64          9.005662   0.000000
     65          9.986227   0.000000
     66         10.101976   0.000000
     67         10.212727   0.000000
     68         10.463302   0.000000
     69         10.744071   0.000000
     70         11.043106   0.000000
     71         11.353455   0.000000
     72         11.447864   0.000000
     73         11.901103   0.000000
     74         11.967426   0.000000
     75         12.323728   0.000000
     76         12.427530   0.000000
     77         12.848968   0.000000
     78         13.058194   0.000000
     79         13.355938   0.000000
     80         13.610115   0.000000
     81         13.849419   0.000000
     82         14.251367   0.000000
     83         14.416097   0.000000
     84         14.667241   0.000000
     85         14.779815   0.000000
     86         15.042877   0.000000
     87         15.417295   0.000000
     88         15.693941   0.000000
     89         16.082650   0.000000
     90         16.817138   0.000000
     91         17.017048   0.000000
     92         17.512347   0.000000
     93         17.629977   0.000000
     94         17.883946   0.000000
     95         18.135146   0.000000
     96         18.577372   0.000000
     97         18.866026   0.000000
     98         19.221170   0.000000
     99         19.396309   0.000000
    100         19.484809   0.000000
    101         19.703560   0.000000
    102         19.857389   0.000000
    103         20.209500   0.000000
    104         20.548039   0.000000
    105         20.832075   0.000000
    106         20.906416   0.000000
    107         20.974392   0.000000
    108         21.015314   0.000000
    109         21.254172   0.000000
    110         21.370306   0.000000
    111         21.544568   0.000000
    112         21.744606   0.000000
    113         21.913726   0.000000
    114         22.142631   0.000000
    115         22.363761   0.000000
    116         22.545843   0.000000
    117         22.708681   0.000000
    118         23.023637   0.000000
    119         23.244597   0.000000
    120         23.370014   0.000000
    121         23.696449   0.000000
    122         23.817181   0.000000
    123         24.065031   0.000000
    124         24.382093   0.000000
    125         24.658902   0.000000
    126         24.758313   0.000000
    127         24.892914   0.000000
    128         25.135922   0.000000
    129         25.263245   0.000000
    130         25.756918   0.000000
    131         25.838028   0.000000
    132         26.124136   0.000000
    133         26.222504   0.000000
    134         26.829355   0.000000
    135         26.903681   0.000000
    136         26.986352   0.000000
    137         27.230048   0.000000
    138         27.790534   0.000000
    139         28.076808   0.000000
    140         28.214809   0.000000

 -0.1428571E+00  0.2500000E+00  0.1428571E+00  0.2040816E-01
      1        -25.453498   1.000000
      2        -25.448926   1.000000
      3        -25.438955   1.000000
      4        -25.438387   1.000000
      5        -25.409051   1.000000
      6        -25.408687   1.000000
      7        -25.386591   1.000000
      8        -25.385957   1.000000
      9        -25.381169   1.000000
     10        -25.380464   1.000000
     11        -12.661153   1.000000
     12        -11.595449   1.000000
     13        -11.378633   1.000000
     14        -11.244763   1.000000
     15        -10.980966   1.000000
     16        -10.936598   1.000000
     17         -6.340673   1.000000
     18         -5.381973   1.000000
     19         -2.701207   1.000000
     20         -2.561024   1.000000
     21         -2.236010   1.000000
     22         -1.627822   1.000000
     23         -1.366156   1.000000
     24         -1.302007   1.000000
     25         -1.149576   1.000000
     26         -1.006198   1.000000
     27         -0.915102   1.000000
     28         -0.724573   1.000000
     29         -0.656406   1.000000
     30         -0.625242   1.000000
     31         -0.604714   1.000000
     32         -0.538540   1.000000
     33         -0.494384   1.000000
     34         -0.404697   1.000000
     35          0.490977   1.000000
     36          0.528502   1.000000
     37          0.567996   1.000000
     38          0.581341   1.000000
     39          0.622648   1.000000
     40          0.632360   1.000000
     41          0.656571   1.000000
     42          0.719896   1.000000
     43          0.929558   1.000000
     44          1.064044   1.000000
     45          1.163873   1.000000
     46          1.265610   1.000000
     47          1.472012   1.000000
     48          1.575847   1.000000
     49          1.659243   1.000000
     50          1.913053   1.000000
     51          1.993387   1.000000
     52          2.351775   1.000000
     53          2.775220   1.000000
     54          3.215765   1.000000
     55          5.046621   0.000000
     56          5.598915   0.000000
     57          6.602309   0.000000
     58          6.861983   0.000000
     59          7.268171   0.000000
     60          7.641114   0.000000
     61          8.038057   0.000000
     62          8.381030   0.000000
     63          8.661457   0.000000
     64          8.907139   0.000000
     65          9.605280   0.000000
     66          9.759246   0.000000
     67          9.916170   0.000000
     68          9.994249   0.000000
     69         10.498915   0.000000
     70         10.835678   0.000000
     71         11.163149   0.000000
     72         11.679671   0.000000
     73         11.815990   0.000000
     74         11.961735   0.000000
     75         12.428695   0.000000
     76         12.596199   0.000000
     77         12.953407   0.000000
     78         13.257944   0.000000
     79         13.536789   0.000000
     80         14.015628   0.000000
     81         14.184158   0.000000
     82         14.403659   0.000000
     83         14.608438   0.000000
     84         14.887889   0.000000
     85         15.201217   0.000000
     86         15.385206   0.000000
     87         15.900039   0.000000
     88         16.102375   0.000000
     89         16.483261   0.000000
     90         16.719711   0.000000
     91         16.908583   0.000000
     92         17.069658   0.000000
     93         17.511341   0.000000
     94         17.767306   0.000000
     95         18.031865   0.000000
     96         18.225137   0.000000
     97         18.396630   0.000000
     98         18.539600   0.000000
     99         18.813539   0.000000
    100         18.943681   0.000000
    101         19.161589   0.000000
    102         19.354546   0.000000
    103         19.813960   0.000000
    104         19.932744   0.000000
    105         20.249941   0.000000
    106         20.570962   0.000000
    107         20.642795   0.000000
    108         20.814385   0.000000
    109         20.925999   0.000000
    110         21.214881   0.000000
    111         21.262721   0.000000
    112         21.864590   0.000000
    113         22.073806   0.000000
    114         22.252546   0.000000
    115         22.655485   0.000000
    116         22.799204   0.000000
    117         23.252022   0.000000
    118         23.469800   0.000000
    119         23.509598   0.000000
    120         23.906877   0.000000
    121         24.108247   0.000000
    122         24.293432   0.000000
    123         24.613162   0.000000
    124         24.978715   0.000000
    125         25.072042   0.000000
    126         25.271891   0.000000
    127         25.426756   0.000000
    128         25.649912   0.000000
    129         25.922305   0.000000
    130         26.167129   0.000000
    131         26.492421   0.000000
    132         26.620730   0.000000
    133         26.775465   0.000000
    134         26.932128   0.000000
    135         27.113790   0.000000
    136         27.436402   0.000000
    137         27.645612   0.000000
    138         27.738060   0.000000
    139         27.878165   0.000000
    140         28.109825   0.000000

  0.0000000E+00  0.5000000E+00  0.1428571E+00  0.1020408E-01
      1        -25.453331   1.000000
      2        -25.448783   1.000000
      3        -25.438815   1.000000
      4        -25.438246   1.000000
      5        -25.408920   1.000000
      6        -25.408547   1.000000
      7        -25.386471   1.000000
      8        -25.385830   1.000000
      9        -25.381054   1.000000
     10        -25.380323   1.000000
     11        -12.566682   1.000000
     12        -11.699508   1.000000
     13        -11.439646   1.000000
     14        -11.214528   1.000000
     15        -11.016931   1.000000
     16        -10.914071   1.000000
     17         -6.311788   1.000000
     18         -5.296525   1.000000
     19         -2.639504   1.000000
     20         -2.357439   1.000000
     21         -2.128517   1.000000
     22         -1.730405   1.000000
     23         -1.515297   1.000000
     24         -1.381115   1.000000
     25         -1.166801   1.000000
     26         -1.071065   1.000000
     27         -0.908037   1.000000
     28         -0.799459   1.000000
     29         -0.693503   1.000000
     30         -0.597461   1.000000
     31         -0.550274   1.000000
     32         -0.531322   1.000000
     33         -0.432636   1.000000
     34         -0.373487   1.000000
     35          0.484171   1.000000
     36          0.503956   1.000000
     37          0.544890   1.000000
     38          0.621630   1.000000
     39          0.634583   1.000000
     40          0.651998   1.000000
     41          0.677824   1.000000
     42          0.760906   1.000000
     43          0.888301   1.000000
     44          1.027763   1.000000
     45          1.142725   1.000000
     46          1.263690   1.000000
     47          1.435677   1.000000
     48          1.546713   1.000000
     49          1.683531   1.000000
     50          1.807360   1.000000
     51          2.140666   1.000000
     52          2.212249   1.000000
     53          2.559978   1.000000
     54          3.167502   1.000000
     55          5.126567   0.000000
     56          5.682111   0.000000
     57          6.545127   0.000000
     58          6.961904   0.000000
     59          7.409343   0.000000
     60          7.637779   0.000000
     61          8.246995   0.000000
     62          8.455355   0.000000
     63          8.813028   0.000000
     64          9.195289   0.000000
     65          9.498588   0.000000
     66          9.744406   0.000000
     67          9.953251   0.000000
     68         10.159123   0.000000
     69         10.357022   0.000000
     70         10.677310   0.000000
     71         11.010181   0.000000
     72         11.215995   0.000000
     73         11.548419   0.000000
     74         12.105758   0.000000
     75         12.447703   0.000000
     76         12.597204   0.000000
     77         12.822779   0.000000
     78         13.076483   0.000000
     79         13.239963   0.000000
     80         13.540718   0.000000
     81         14.042243   0.000000
     82         14.207582   0.000000
     83         14.856182   0.000000
     84         15.150855   0.000000
     85         15.399895   0.000000
     86         15.792971   0.000000
     87         15.986119   0.000000
     88         16.373911   0.000000
     89         16.546453   0.000000
     90         16.823809   0.000000
     91         17.118687   0.000000
     92         17.308140   0.000000
     93         17.412602   0.000000
     94         17.683395   0.000000
     95         17.807188   0.000000
     96         18.175797   0.000000
     97         18.453753   0.000000
     98         18.612704   0.000000
     99         18.901631   0.000000
    100         19.033244   0.000000
    101         19.370948   0.000000
    102         19.486767   0.000000
    103         19.702177   0.000000
    104         19.774394   0.000000
    105         20.128118   0.000000
    106         20.280972   0.000000
    107         20.586327   0.000000
    108         21.563044   0.000000
    109         21.659742   0.000000
    110         21.846969   0.000000
    111         21.948935   0.000000
    112         22.185462   0.000000
    113         22.345836   0.000000
    114         22.580819   0.000000
    115         22.792246   0.000000
    116         22.838531   0.000000
    117         22.954799   0.000000
    118         23.203986   0.000000
    119         23.512988   0.000000
    120         23.598907   0.000000
    121         23.878244   0.000000
    122         24.184434   0.000000
    123         24.385840   0.000000
    124         24.629437   0.000000
    125         24.847829   0.000000
    126         24.971222   0.000000
    127         25.335671   0.000000
    128         25.517094   0.000000
    129         25.738356   0.000000
    130         25.848444   0.000000
    131         25.948831   0.000000
    132         26.098006   0.000000
    133         26.341180   0.000000
    134         26.533073   0.000000
    135         26.925471   0.000000
    136         27.043257   0.000000
    137         27.230297   0.000000
    138         27.368850   0.000000
    139         27.588020   0.000000
    140         27.844678   0.000000

  0.1428571E+00  0.5000000E+00  0.1428571E+00  0.1020408E-01
      1        -25.453308   1.000000
      2        -25.448755   1.000000
      3        -25.438790   1.000000
      4        -25.438227   1.000000
      5        -25.408951   1.000000
      6        -25.408566   1.000000
      7        -25.386479   1.000000
      8        -25.385834   1.000000
      9        -25.381067   1.000000
     10        -25.380338   1.000000
     11        -12.581741   1.000000
     12        -11.724735   1.000000
     13        -11.410807   1.000000
     14        -11.230365   1.000000
     15        -10.985710   1.000000
     16        -10.891352   1.000000
     17         -6.337236   1.000000
     18         -5.352439   1.000000
     19         -2.638655   1.000000
     20         -2.375372   1.000000
     21         -2.173259   1.000000
     22         -1.772660   1.000000
     23         -1.650933   1.000000
     24         -1.509594   1.000000
     25         -1.213354   1.000000
     26         -0.867374   1.000000
     27         -0.780568   1.000000
     28         -0.700674   1.000000
     29         -0.668053   1.000000
     30         -0.625112   1.000000
     31         -0.562621   1.000000
     32         -0.529195   1.000000
     33         -0.413342   1.000000
     34         -0.353599   1.000000
     35          0.451912   1.000000
     36          0.511293   1.000000
     37          0.566328   1.000000
     38          0.624567   1.000000
     39          0.636025   1.000000
     40          0.646475   1.000000
     41          0.717061   1.000000
     42          0.726636   1.000000
     43          0.946278   1.000000
     44          0.970832   1.000000
     45          1.193455   1.000000
     46          1.280572   1.000000
     47          1.425931   1.000000
     48          1.536937   1.000000
     49          1.711709   1.000000
     50          1.843097   1.000000
     51          2.175857   1.000000
     52          2.469991   1.000000
     53          2.790514   1.000000
     54          3.142690   1.000000
     55          4.864639   0.000000
     56          5.517653   0.000000
     57          6.570192   0.000000
     58          6.810086   0.000000
     59          7.056010   0.000000
     60          7.485186   0.000000
     61          7.892438   0.000000
     62          8.080440   0.000000
     63          8.778001   0.000000
     64          9.131610   0.000000
     65          9.443087   0.000000
     66          9.789418   0.000000
     67         10.134307   0.000000
     68         10.267788   0.000000
     69         10.723490   0.000000
     70         10.970309   0.000000
     71         11.059727   0.000000
     72         11.430370   0.000000
     73         11.685437   0.000000
     74         11.871830   0.000000
     75         12.374680   0.000000
     76         12.659979   0.000000
     77         13.377835   0.000000
     78         13.439558   0.000000
     79         13.524971   0.000000
     80         14.083960   0.000000
     81         14.291469   0.000000
     82         14.387415   0.000000
     83         14.553856   0.000000
     84         14.942632   0.000000
     85         15.050212   0.000000
     86         15.401832   0.000000
     87         15.742081   0.000000
     88         16.116387   0.000000
     89         16.231501   0.000000
     90         16.485435   0.000000
     91         16.570366   0.000000
     92         17.016012   0.000000
     93         17.406236   0.000000
     94         17.718015   0.000000
     95         17.970387   0.000000
     96         18.273303   0.000000
     97         18.667267   0.000000
     98         18.844168   0.000000
     99         19.010678   0.000000
    100         19.237192   0.000000
    101         19.454844   0.000000
    102         19.751383   0.000000
    103         19.996087   0.000000
    104         20.221985   0.000000
    105         20.299001   0.000000
    106         20.759136   0.000000
    107         21.126377   0.000000
    108         21.221831   0.000000
    109         21.480805   0.000000
    110         21.706465   0.000000
    111         21.860346   0.000000
    112         22.143620   0.000000
    113         22.366344   0.000000
    114         22.461863   0.000000
    115         22.484727   0.000000
    116         22.909349   0.000000
    117         22.960648   0.000000
    118         23.224378   0.000000
    119         23.526914   0.000000
    120         23.626231   0.000000
    121         23.809723   0.000000
    122         23.856476   0.000000
    123         24.084143   0.000000
    124         24.239483   0.000000
    125         24.386520   0.000000
    126         24.616485   0.000000
    127         24.808080   0.000000
    128         25.017309   0.000000
    129         25.384798   0.000000
    130         25.470935   0.000000
    131         25.613952   0.000000
    132         25.919344   0.000000
    133         26.312772   0.000000
    134         26.598090   0.000000
    135         26.727077   0.000000
    136         26.926465   0.000000
    137         27.208285   0.000000
    138         27.684953   0.000000
    139         27.741491   0.000000
    140         28.090125   0.000000

  0.2857143E+00  0.5000000E+00  0.1428571E+00  0.1020408E-01
      1        -25.453311   1.000000
      2        -25.448774   1.000000
      3        -25.438795   1.000000
      4        -25.438241   1.000000
      5        -25.409034   1.000000
      6        -25.408628   1.000000
      7        -25.386545   1.000000
      8        -25.385892   1.000000
      9        -25.381140   1.000000
     10        -25.380405   1.000000
     11        -12.583176   1.000000
     12        -11.792708   1.000000
     13        -11.406983   1.000000
     14        -11.186012   1.000000
     15        -10.957841   1.000000
     16        -10.866776   1.000000
     17         -6.372310   1.000000
     18         -5.415182   1.000000
     19         -2.605281   1.000000
     20         -2.431071   1.000000
     21         -2.069900   1.000000
     22         -1.900485   1.000000
     23         -1.705083   1.000000
     24         -1.575521   1.000000
     25         -1.186351   1.000000
     26         -0.833598   1.000000
     27         -0.771465   1.000000
     28         -0.735283   1.000000
     29         -0.629426   1.000000
     30         -0.588077   1.000000
     31         -0.551662   1.000000
     32         -0.462568   1.000000
     33         -0.419702   1.000000
     34         -0.292669   1.000000
     35          0.437054   1.000000
     36          0.535100   1.000000
     37          0.576242   1.000000
     38          0.622805   1.000000
     39          0.640915   1.000000
     40          0.658103   1.000000
     41          0.684388   1.000000
     42          0.775358   1.000000
     43          0.871927   1.000000
     44          0.981255   1.000000
     45          1.109579   1.000000
     46          1.375321   1.000000
     47          1.439020   1.000000
     48          1.569952   1.000000
     49          1.708544   1.000000
     50          1.855606   1.000000
     51          2.286529   1.000000
     52          2.680915   1.000000
     53          2.894997   1.000000
     54          3.164832   1.000000
     55          4.624678   0.000000
     56          5.371659   0.000000
     57          6.181626   0.000000
     58          6.860828   0.000000
     59          7.062841   0.000000
     60          7.382673   0.000000
     61          7.727962   0.000000
     62          7.868962   0.000000
     63          8.924070   0.000000
     64          9.054335   0.000000
     65          9.436523   0.000000
     66          9.860226   0.000000
     67         10.159418   0.000000
     68         10.260534   0.000000
     69         10.655860   0.000000
     70         10.810551   0.000000
     71         11.238294   0.000000
     72         11.583011   0.000000
     73         11.971198   0.000000
     74         12.082618   0.000000
     75         12.389249   0.000000
     76         12.790333   0.000000
     77         13.281779   0.000000
     78         13.569374   0.000000
     79         13.704244   0.000000
     80         14.163199   0.000000
     81         14.325919   0.000000
     82         14.503843   0.000000
     83         14.711255   0.000000
     84         14.919832   0.000000
     85         15.077946   0.000000
     86         15.256113   0.000000
     87         15.550837   0.000000
     88         15.972739   0.000000
     89         16.198057   0.000000
     90         16.586120   0.000000
     91         16.772977   0.000000
     92         17.017074   0.000000
     93         17.454086   0.000000
     94         17.672610   0.000000
     95         17.915823   0.000000
     96         18.139145   0.000000
     97         18.318318   0.000000
     98         18.726059   0.000000
     99         19.119903   0.000000
    100         19.290982   0.000000
    101         19.620407   0.000000
    102         19.777375   0.000000
    103         19.922335   0.000000
    104         20.311847   0.000000
    105         20.553991   0.000000
    106         20.677827   0.000000
    107         20.791921   0.000000
    108         21.071979   0.000000
    109         21.173800   0.000000
    110         21.645637   0.000000
    111         21.728566   0.000000
    112         22.111006   0.000000
    113         22.367814   0.000000
    114         22.491397   0.000000
    115         22.683303   0.000000
    116         22.911084   0.000000
    117         23.028002   0.000000
    118         23.372219   0.000000
    119         23.507381   0.000000
    120         23.766496   0.000000
    121         23.835973   0.000000
    122         23.957055   0.000000
    123         24.111695   0.000000
    124         24.297786   0.000000
    125         24.412167   0.000000
    126         24.543147   0.000000
    127         24.633919   0.000000
    128         24.837047   0.000000
    129         25.112159   0.000000
    130         25.204900   0.000000
    131         25.416340   0.000000
    132         25.876883   0.000000
    133         26.025060   0.000000
    134         26.333172   0.000000
    135         26.506563   0.000000
    136         26.844651   0.000000
    137         27.167638   0.000000
    138         27.374435   0.000000
    139         27.571621   0.000000
    140         27.970822   0.000000

  0.4285714E+00  0.5000000E+00  0.1428571E+00  0.1020408E-01
      1        -25.453338   1.000000
      2        -25.448799   1.000000
      3        -25.438832   1.000000
      4        -25.438285   1.000000
      5        -25.409101   1.000000
      6        -25.408686   1.000000
      7        -25.386615   1.000000
      8        -25.385951   1.000000
      9        -25.381201   1.000000
     10        -25.380469   1.000000
     11        -12.568924   1.000000
     12        -11.847574   1.000000
     13        -11.420561   1.000000
     14        -11.140680   1.000000
     15        -10.975955   1.000000
     16        -10.825820   1.000000
     17         -6.393286   1.000000
     18         -5.445369   1.000000
     19         -2.597810   1.000000
     20         -2.425518   1.000000
     21         -2.071979   1.000000
     22         -1.936893   1.000000
     23         -1.517984   1.000000
     24         -1.455903   1.000000
     25         -1.172371   1.000000
     26         -0.979678   1.000000
     27         -0.947593   1.000000
     28         -0.709159   1.000000
     29         -0.619213   1.000000
     30         -0.570350   1.000000
     31         -0.542880   1.000000
     32         -0.424439   1.000000
     33         -0.420380   1.000000
     34         -0.256562   1.000000
     35          0.442643   1.000000
     36          0.520831   1.000000
     37          0.587146   1.000000
     38          0.602472   1.000000
     39          0.632547   1.000000
     40          0.655694   1.000000
     41          0.682501   1.000000
     42          0.702755   1.000000
     43          0.918472   1.000000
     44          1.006275   1.000000
     45          1.137782   1.000000
     46          1.323521   1.000000
     47          1.455148   1.000000
     48          1.524826   1.000000
     49          1.751573   1.000000
     50          1.899842   1.000000
     51          2.078846   1.000000
     52          2.627517   1.000000
     53          2.863726   1.000000
     54          3.202614   1.000000
     55          4.658147   0.000000
     56          5.494190   0.000000
     57          6.008454   0.000000
     58          7.035499   0.000000
     59          7.300348   0.000000
     60          7.429217   0.000000
     61          7.835676   0.000000
     62          8.044455   0.000000
     63          9.018412   0.000000
     64          9.149276   0.000000
     65          9.333419   0.000000
     66          9.772680   0.000000
     67          9.871848   0.000000
     68         10.211371   0.000000
     69         10.543749   0.000000
     70         10.703647   0.000000
     71         10.889475   0.000000
     72         11.104128   0.000000
     73         11.431420   0.000000
     74         12.515242   0.000000
     75         12.700935   0.000000
     76         12.899474   0.000000
     77         13.163753   0.000000
     78         13.416401   0.000000
     79         13.776196   0.000000
     80         13.993323   0.000000
     81         14.445982   0.000000
     82         14.730529   0.000000
     83         15.054491   0.000000
     84         15.100697   0.000000
     85         15.366708   0.000000
     86         15.581177   0.000000
     87         15.856941   0.000000
     88         16.120860   0.000000
     89         16.574072   0.000000
     90         16.653296   0.000000
     91         16.898453   0.000000
     92         17.266379   0.000000
     93         17.487624   0.000000
     94         17.591746   0.000000
     95         17.745568   0.000000
     96         18.286497   0.000000
     97         18.345117   0.000000
     98         18.588956   0.000000
     99         18.822511   0.000000
    100         18.898275   0.000000
    101         19.115608   0.000000
    102         19.378670   0.000000
    103         19.646284   0.000000
    104         19.945515   0.000000
    105         20.125743   0.000000
    106         20.304057   0.000000
    107         20.783447   0.000000
    108         20.875531   0.000000
    109         21.058835   0.000000
    110         21.357425   0.000000
    111         21.582987   0.000000
    112         21.823233   0.000000
    113         22.177390   0.000000
    114         22.384469   0.000000
    115         22.479789   0.000000
    116         22.905056   0.000000
    117         23.079058   0.000000
    118         23.197811   0.000000
    119         23.465217   0.000000
    120         23.740162   0.000000
    121         24.134786   0.000000
    122         24.211386   0.000000
    123         24.440168   0.000000
    124         24.688679   0.000000
    125         24.767410   0.000000
    126         25.035743   0.000000
    127         25.179173   0.000000
    128         25.532386   0.000000
    129         25.652879   0.000000
    130         25.996456   0.000000
    131         26.293667   0.000000
    132         26.354213   0.000000
    133         26.622113   0.000000
    134         26.741759   0.000000
    135         26.972769   0.000000
    136         27.066366   0.000000
    137         27.223579   0.000000
    138         27.440438   0.000000
    139         27.489253   0.000000
    140         27.579492   0.000000

 -0.4285714E+00  0.5000000E+00  0.1428571E+00  0.1020408E-01
      1        -25.453361   1.000000
      2        -25.448826   1.000000
      3        -25.438866   1.000000
      4        -25.438325   1.000000
      5        -25.409119   1.000000
      6        -25.408709   1.000000
      7        -25.386644   1.000000
      8        -25.385971   1.000000
      9        -25.381219   1.000000
     10        -25.380481   1.000000
     11        -12.557474   1.000000
     12        -11.824748   1.000000
     13        -11.441127   1.000000
     14        -11.175597   1.000000
     15        -10.994848   1.000000
     16        -10.803034   1.000000
     17         -6.382708   1.000000
     18         -5.391360   1.000000
     19         -2.576599   1.000000
     20         -2.411153   1.000000
     21         -2.056997   1.000000
     22         -1.941879   1.000000
     23         -1.461970   1.000000
     24         -1.310166   1.000000
     25         -1.226951   1.000000
     26         -1.099484   1.000000
     27         -1.022800   1.000000
     28         -0.684466   1.000000
     29         -0.642749   1.000000
     30         -0.566247   1.000000
     31         -0.536833   1.000000
     32         -0.444186   1.000000
     33         -0.414604   1.000000
     34         -0.278360   1.000000
     35          0.489176   1.000000
     36          0.507250   1.000000
     37          0.559388   1.000000
     38          0.572438   1.000000
     39          0.623175   1.000000
     40          0.642159   1.000000
     41          0.678049   1.000000
     42          0.722607   1.000000
     43          0.976838   1.000000
     44          1.029785   1.000000
     45          1.086927   1.000000
     46          1.200146   1.000000
     47          1.438076   1.000000
     48          1.497066   1.000000
     49          1.773959   1.000000
     50          1.966505   1.000000
     51          2.045991   1.000000
     52          2.517145   1.000000
     53          2.811833   1.000000
     54          2.964341   1.000000
     55          4.845806   0.000000
     56          5.680363   0.000000
     57          6.222952   0.000000
     58          7.015611   0.000000
     59          7.374168   0.000000
     60          7.483869   0.000000
     61          7.957735   0.000000
     62          8.035727   0.000000
     63          8.942508   0.000000
     64          9.266532   0.000000
     65          9.525159   0.000000
     66          9.751883   0.000000
     67          9.934709   0.000000
     68         10.336671   0.000000
     69         10.404576   0.000000
     70         10.819074   0.000000
     71         10.937273   0.000000
     72         10.995558   0.000000
     73         11.465611   0.000000
     74         12.400965   0.000000
     75         12.510465   0.000000
     76         12.824147   0.000000
     77         13.162414   0.000000
     78         13.226119   0.000000
     79         13.571867   0.000000
     80         13.818742   0.000000
     81         14.238089   0.000000
     82         14.635471   0.000000
     83         14.931147   0.000000
     84         15.109569   0.000000
     85         15.318702   0.000000
     86         15.530427   0.000000
     87         15.714723   0.000000
     88         15.961043   0.000000
     89         16.331948   0.000000
     90         16.583996   0.000000
     91         17.005639   0.000000
     92         17.320281   0.000000
     93         17.528450   0.000000
     94         18.028491   0.000000
     95         18.192215   0.000000
     96         18.324339   0.000000
     97         18.531740   0.000000
     98         18.711348   0.000000
     99         18.899437   0.000000
    100         19.081346   0.000000
    101         19.326504   0.000000
    102         19.455377   0.000000
    103         19.567429   0.000000
    104         19.918743   0.000000
    105         20.391717   0.000000
    106         20.487959   0.000000
    107         20.617387   0.000000
    108         20.883276   0.000000
    109         20.998643   0.000000
    110         21.283284   0.000000
    111         21.352667   0.000000
    112         21.472558   0.000000
    113         21.913885   0.000000
    114         22.120446   0.000000
    115         22.415655   0.000000
    116         22.682798   0.000000
    117         22.926702   0.000000
    118         23.268037   0.000000
    119         23.363676   0.000000
    120         23.668469   0.000000
    121         23.883275   0.000000
    122         24.274577   0.000000
    123         24.694722   0.000000
    124         24.866917   0.000000
    125         25.358141   0.000000
    126         25.464248   0.000000
    127         25.674248   0.000000
    128         25.792106   0.000000
    129         25.883107   0.000000
    130         26.077725   0.000000
    131         26.203345   0.000000
    132         26.540688   0.000000
    133         26.617639   0.000000
    134         26.755670   0.000000
    135         26.950712   0.000000
    136         27.066696   0.000000
    137         27.254002   0.000000
    138         27.375158   0.000000
    139         27.629364   0.000000
    140         27.764784   0.000000

 -0.2857143E+00  0.5000000E+00  0.1428571E+00  0.1020408E-01
      1        -25.453376   1.000000
      2        -25.448830   1.000000
      3        -25.438876   1.000000
      4        -25.438328   1.000000
      5        -25.409063   1.000000
      6        -25.408667   1.000000
      7        -25.386606   1.000000
      8        -25.385947   1.000000
      9        -25.381183   1.000000
     10        -25.380447   1.000000
     11        -12.554905   1.000000
     12        -11.746005   1.000000
     13        -11.451327   1.000000
     14        -11.248515   1.000000
     15        -11.004194   1.000000
     16        -10.827387   1.000000
     17         -6.346647   1.000000
     18         -5.296565   1.000000
     19         -2.524656   1.000000
     20         -2.414269   1.000000
     21         -2.114225   1.000000
     22         -1.808810   1.000000
     23         -1.515426   1.000000
     24         -1.470540   1.000000
     25         -1.320769   1.000000
     26         -1.011357   1.000000
     27         -0.939476   1.000000
     28         -0.692199   1.000000
     29         -0.657828   1.000000
     30         -0.594235   1.000000
     31         -0.525290   1.000000
     32         -0.504997   1.000000
     33         -0.414128   1.000000
     34         -0.330663   1.000000
     35          0.486548   1.000000
     36          0.536438   1.000000
     37          0.572790   1.000000
     38          0.597835   1.000000
     39          0.634297   1.000000
     40          0.650801   1.000000
     41          0.677018   1.000000
     42          0.717386   1.000000
     43          0.904407   1.000000
     44          0.973939   1.000000
     45          1.059975   1.000000
     46          1.259225   1.000000
     47          1.323829   1.000000
     48          1.525087   1.000000
     49          1.744394   1.000000
     50          2.020995   1.000000
     51          2.259463   1.000000
     52          2.345237   1.000000
     53          2.632726   1.000000
     54          2.921884   1.000000
     55          5.010847   0.000000
     56          5.640528   0.000000
     57          6.626474   0.000000
     58          6.840389   0.000000
     59          7.168665   0.000000
     60          7.671175   0.000000
     61          7.843254   0.000000
     62          7.995902   0.000000
     63          8.978590   0.000000
     64          9.250738   0.000000
     65          9.713312   0.000000
     66         10.053440   0.000000
     67         10.294898   0.000000
     68         10.594808   0.000000
     69         10.730361   0.000000
     70         10.921781   0.000000
     71         11.150509   0.000000
     72         11.287320   0.000000
     73         11.616884   0.000000
     74         11.834112   0.000000
     75         12.340928   0.000000
     76         12.487496   0.000000
     77         12.812263   0.000000
     78         13.233736   0.000000
     79         13.376850   0.000000
     80         13.614367   0.000000
     81         13.874954   0.000000
     82         14.149672   0.000000
     83         14.403353   0.000000
     84         14.717842   0.000000
     85         14.869797   0.000000
     86         15.390273   0.000000
     87         15.531772   0.000000
     88         15.938713   0.000000
     89         16.389042   0.000000
     90         16.976752   0.000000
     91         17.116385   0.000000
     92         17.265451   0.000000
     93         17.739098   0.000000
     94         18.046920   0.000000
     95         18.313397   0.000000
     96         18.511963   0.000000
     97         18.661252   0.000000
     98         18.843649   0.000000
     99         19.024610   0.000000
    100         19.305035   0.000000
    101         19.558016   0.000000
    102         19.647702   0.000000
    103         19.886146   0.000000
    104         20.024773   0.000000
    105         20.267600   0.000000
    106         20.511033   0.000000
    107         20.808498   0.000000
    108         21.247350   0.000000
    109         21.356557   0.000000
    110         21.463956   0.000000
    111         21.749806   0.000000
    112         22.054564   0.000000
    113         22.350566   0.000000
    114         22.484843   0.000000
    115         22.630608   0.000000
    116         22.844255   0.000000
    117         22.951965   0.000000
    118         23.021090   0.000000
    119         23.282147   0.000000
    120         23.395428   0.000000
    121         23.605081   0.000000
    122         23.758827   0.000000
    123         24.005171   0.000000
    124         24.397673   0.000000
    125         24.746286   0.000000
    126         24.951609   0.000000
    127         25.211859   0.000000
    128         25.346224   0.000000
    129         25.599948   0.000000
    130         25.861042   0.000000
    131         26.040469   0.000000
    132         26.175170   0.000000
    133         26.516831   0.000000
    134         26.629169   0.000000
    135         26.967343   0.000000
    136         27.026843   0.000000
    137         27.144274   0.000000
    138         27.567477   0.000000
    139         27.850448   0.000000
    140         28.068005   0.000000

 -0.1428571E+00  0.5000000E+00  0.1428571E+00  0.1020408E-01
      1        -25.453361   1.000000
      2        -25.448811   1.000000
      3        -25.438862   1.000000
      4        -25.438292   1.000000
      5        -25.408961   1.000000
      6        -25.408589   1.000000
      7        -25.386531   1.000000
      8        -25.385877   1.000000
      9        -25.381102   1.000000
     10        -25.380372   1.000000
     11        -12.556258   1.000000
     12        -11.702581   1.000000
     13        -11.445466   1.000000
     14        -11.251704   1.000000
     15        -11.015664   1.000000
     16        -10.884230   1.000000
     17         -6.314967   1.000000
     18         -5.261543   1.000000
     19         -2.575460   1.000000
     20         -2.380132   1.000000
     21         -2.064824   1.000000
     22         -1.819722   1.000000
     23         -1.485510   1.000000
     24         -1.369821   1.000000
     25         -1.303075   1.000000
     26         -1.071207   1.000000
     27         -0.965098   1.000000
     28         -0.721848   1.000000
     29         -0.690634   1.000000
     30         -0.615862   1.000000
     31         -0.546613   1.000000
     32         -0.516072   1.000000
     33         -0.422936   1.000000
     34         -0.367477   1.000000
     35          0.483376   1.000000
     36          0.536234   1.000000
     37          0.573369   1.000000
     38          0.605444   1.000000
     39          0.636223   1.000000
     40          0.653819   1.000000
     41          0.688707   1.000000
     42          0.767616   1.000000
     43          0.834986   1.000000
     44          0.961320   1.000000
     45          1.056685   1.000000
     46          1.286033   1.000000
     47          1.423434   1.000000
     48          1.550430   1.000000
     49          1.731293   1.000000
     50          1.809951   1.000000
     51          2.201006   1.000000
     52          2.303615   1.000000
     53          2.489856   1.000000
     54          3.073320   1.000000
     55          5.137974   0.000000
     56          5.666310   0.000000
     57          6.573729   0.000000
     58          6.891087   0.000000
     59          7.448467   0.000000
     60          7.549009   0.000000
     61          8.101143   0.000000
     62          8.330365   0.000000
     63          9.054933   0.000000
     64          9.167530   0.000000
     65          9.710944   0.000000
     66         10.022157   0.000000
     67         10.116548   0.000000
     68         10.331430   0.000000
     69         10.572474   0.000000
     70         10.915980   0.000000
     71         11.082904   0.000000
     72         11.435600   0.000000
     73         11.645716   0.000000
     74         11.879091   0.000000
     75         12.187865   0.000000
     76         12.314785   0.000000
     77         12.653294   0.000000
     78         12.914370   0.000000
     79         13.230524   0.000000
     80         13.399625   0.000000
     81         13.724002   0.000000
     82         14.374878   0.000000
     83         14.449727   0.000000
     84         14.925061   0.000000
     85         15.093328   0.000000
     86         15.502004   0.000000
     87         15.910608   0.000000
     88         16.140998   0.000000
     89         16.453651   0.000000
     90         16.988779   0.000000
     91         17.310076   0.000000
     92         17.475698   0.000000
     93         17.620630   0.000000
     94         17.864870   0.000000
     95         18.140629   0.000000
     96         18.266883   0.000000
     97         18.609100   0.000000
     98         18.761075   0.000000
     99         18.906823   0.000000
    100         19.167701   0.000000
    101         19.308518   0.000000
    102         19.545991   0.000000
    103         19.739720   0.000000
    104         19.943062   0.000000
    105         20.436708   0.000000
    106         20.654701   0.000000
    107         20.887321   0.000000
    108         21.017261   0.000000
    109         21.352709   0.000000
    110         21.516989   0.000000
    111         21.650076   0.000000
    112         22.170057   0.000000
    113         22.352483   0.000000
    114         22.567825   0.000000
    115         22.810566   0.000000
    116         23.088419   0.000000
    117         23.192497   0.000000
    118         23.468077   0.000000
    119         23.627996   0.000000
    120         23.804567   0.000000
    121         23.996669   0.000000
    122         24.115284   0.000000
    123         24.250535   0.000000
    124         24.377516   0.000000
    125         24.611847   0.000000
    126         24.879358   0.000000
    127         25.056467   0.000000
    128         25.188487   0.000000
    129         25.570479   0.000000
    130         25.744858   0.000000
    131         25.903675   0.000000
    132         26.143164   0.000000
    133         26.220262   0.000000
    134         26.353754   0.000000
    135         26.807111   0.000000
    136         26.864694   0.000000
    137         27.254509   0.000000
    138         27.356934   0.000000
    139         27.504863   0.000000
    140         27.751220   0.000000

  0.0000000E+00  0.0000000E+00  0.2857143E+00  0.1020408E-01
      1        -25.452797   1.000000
      2        -25.449662   1.000000
      3        -25.438686   1.000000
      4        -25.438267   1.000000
      5        -25.409037   1.000000
      6        -25.408775   1.000000
      7        -25.386523   1.000000
      8        -25.386057   1.000000
      9        -25.381118   1.000000
     10        -25.380628   1.000000
     11        -12.685797   1.000000
     12        -11.939233   1.000000
     13        -11.235070   1.000000
     14        -11.147959   1.000000
     15        -10.829051   1.000000
     16        -10.825850   1.000000
     17         -6.216772   1.000000
     18         -5.689867   1.000000
     19         -2.569484   1.000000
     20         -2.489014   1.000000
     21         -2.168718   1.000000
     22         -1.881459   1.000000
     23         -1.655527   1.000000
     24         -1.483655   1.000000
     25         -1.414676   1.000000
     26         -1.215788   1.000000
     27         -0.829218   1.000000
     28         -0.705819   1.000000
     29         -0.628214   1.000000
     30         -0.620252   1.000000
     31         -0.546934   1.000000
     32         -0.537313   1.000000
     33         -0.422283   1.000000
     34         -0.420058   1.000000
     35          0.525329   1.000000
     36          0.579615   1.000000
     37          0.588430   1.000000
     38          0.589401   1.000000
     39          0.649374   1.000000
     40          0.650913   1.000000
     41          0.691489   1.000000
     42          0.741051   1.000000
     43          0.834613   1.000000
     44          0.891549   1.000000
     45          0.973112   1.000000
     46          1.139585   1.000000
     47          1.259421   1.000000
     48          1.837338   1.000000
     49          1.938004   1.000000
     50          2.271067   1.000000
     51          2.553918   1.000000
     52          2.556369   1.000000
     53          3.108646   1.000000
     54          3.149522   1.000000
     55          4.909181   0.000000
     56          5.069526   0.000000
     57          6.548282   0.000000
     58          6.635999   0.000000
     59          7.490234   0.000000
     60          7.820102   0.000000
     61          8.537912   0.000000
     62          8.611083   0.000000
     63          9.043257   0.000000
     64          9.423850   0.000000
     65          9.563654   0.000000
     66          9.603606   0.000000
     67          9.920461   0.000000
     68         10.273301   0.000000
     69         10.346623   0.000000
     70         10.924788   0.000000
     71         11.430921   0.000000
     72         11.715263   0.000000
     73         11.950398   0.000000
     74         12.195343   0.000000
     75         12.343108   0.000000
     76         12.582486   0.000000
     77         12.983001   0.000000
     78         12.989744   0.000000
     79         13.400995   0.000000
     80         13.473148   0.000000
     81         13.803017   0.000000
     82         13.922320   0.000000
     83         14.229536   0.000000
     84         14.485746   0.000000
     85         14.654385   0.000000
     86         14.909724   0.000000
     87         15.100029   0.000000
     88         15.263298   0.000000
     89         15.545442   0.000000
     90         15.653017   0.000000
     91         16.275754   0.000000
     92         16.822512   0.000000
     93         17.020137   0.000000
     94         17.888910   0.000000
     95         18.324443   0.000000
     96         18.463386   0.000000
     97         18.646465   0.000000
     98         18.810487   0.000000
     99         19.423890   0.000000
    100         19.575146   0.000000
    101         19.747896   0.000000
    102         20.130509   0.000000
    103         20.224565   0.000000
    104         20.690263   0.000000
    105         20.954906   0.000000
    106         21.028935   0.000000
    107         21.369669   0.000000
    108         21.405537   0.000000
    109         21.610500   0.000000
    110         21.835433   0.000000
    111         22.009698   0.000000
    112         22.149385   0.000000
    113         22.263817   0.000000
    114         22.461290   0.000000
    115         22.504346   0.000000
    116         22.785406   0.000000
    117         22.823276   0.000000
    118         23.127904   0.000000
    119         23.355529   0.000000
    120         23.379718   0.000000
    121         23.836642   0.000000
    122         23.851243   0.000000
    123         24.162637   0.000000
    124         24.494886   0.000000
    125         24.951021   0.000000
    126         25.030379   0.000000
    127         25.710124   0.000000
    128         25.852840   0.000000
    129         26.289392   0.000000
    130         26.632576   0.000000
    131         26.832165   0.000000
    132         26.921331   0.000000
    133         26.977264   0.000000
    134         27.134539   0.000000
    135         27.270520   0.000000
    136         27.401979   0.000000
    137         27.525952   0.000000
    138         27.710154   0.000000
    139         27.866467   0.000000
    140         27.984688   0.000000

  0.1428571E+00  0.0000000E+00  0.2857143E+00  0.1020408E-01
      1        -25.452696   1.000000
      2        -25.449570   1.000000
      3        -25.438608   1.000000
      4        -25.438188   1.000000
      5        -25.408933   1.000000
      6        -25.408683   1.000000
      7        -25.386431   1.000000
      8        -25.385969   1.000000
      9        -25.381033   1.000000
     10        -25.380530   1.000000
     11        -12.614390   1.000000
     12        -11.971452   1.000000
     13        -11.253010   1.000000
     14        -11.186284   1.000000
     15        -10.884204   1.000000
     16        -10.811686   1.000000
     17         -6.194925   1.000000
     18         -5.598527   1.000000
     19         -2.490490   1.000000
     20         -2.375379   1.000000
     21         -2.100490   1.000000
     22         -1.919147   1.000000
     23         -1.753888   1.000000
     24         -1.460303   1.000000
     25         -1.291662   1.000000
     26         -1.170931   1.000000
     27         -0.998127   1.000000
     28         -0.763650   1.000000
     29         -0.639159   1.000000
     30         -0.608616   1.000000
     31         -0.552570   1.000000
     32         -0.528127   1.000000
     33         -0.452024   1.000000
     34         -0.401412   1.000000
     35          0.532055   1.000000
     36          0.563980   1.000000
     37          0.566543   1.000000
     38          0.601406   1.000000
     39          0.622751   1.000000
     40          0.675381   1.000000
     41          0.696238   1.000000
     42          0.735811   1.000000
     43          0.828886   1.000000
     44          0.934760   1.000000
     45          1.058143   1.000000
     46          1.106280   1.000000
     47          1.268481   1.000000
     48          1.734481   1.000000
     49          1.948518   1.000000
     50          2.125094   1.000000
     51          2.242583   1.000000
     52          2.570987   1.000000
     53          2.819199   1.000000
     54          3.077624   1.000000
     55          5.116969   0.000000
     56          5.354076   0.000000
     57          6.778416   0.000000
     58          6.831832   0.000000
     59          7.781360   0.000000
     60          8.108885   0.000000
     61          8.411764   0.000000
     62          8.603527   0.000000
     63          8.998913   0.000000
     64          9.257695   0.000000
     65          9.578623   0.000000
     66          9.840259   0.000000
     67         10.170326   0.000000
     68         10.422892   0.000000
     69         10.635155   0.000000
     70         10.701208   0.000000
     71         11.103696   0.000000
     72         11.199144   0.000000
     73         11.337283   0.000000
     74         11.706364   0.000000
     75         11.853299   0.000000
     76         12.125875   0.000000
     77         12.504462   0.000000
     78         13.061836   0.000000
     79         13.245865   0.000000
     80         13.639401   0.000000
     81         13.837521   0.000000
     82         14.126496   0.000000
     83         14.192825   0.000000
     84         14.730388   0.000000
     85         15.020689   0.000000
     86         15.211163   0.000000
     87         15.368158   0.000000
     88         15.513788   0.000000
     89         16.003840   0.000000
     90         16.240298   0.000000
     91         16.807426   0.000000
     92         17.176836   0.000000
     93         17.483958   0.000000
     94         17.789872   0.000000
     95         18.163545   0.000000
     96         18.436540   0.000000
     97         18.679304   0.000000
     98         18.873953   0.000000
     99         19.106037   0.000000
    100         19.415495   0.000000
    101         19.765582   0.000000
    102         19.856738   0.000000
    103         20.156639   0.000000
    104         20.311168   0.000000
    105         20.469874   0.000000
    106         20.792244   0.000000
    107         21.147604   0.000000
    108         21.398832   0.000000
    109         21.557691   0.000000
    110         21.807295   0.000000
    111         21.984787   0.000000
    112         22.098641   0.000000
    113         22.255072   0.000000
    114         22.554831   0.000000
    115         22.874423   0.000000
    116         22.962154   0.000000
    117         23.095153   0.000000
    118         23.240929   0.000000
    119         23.504791   0.000000
    120         23.698409   0.000000
    121         23.957807   0.000000
    122         24.075192   0.000000
    123         24.463667   0.000000
    124         24.711440   0.000000
    125         24.913056   0.000000
    126         25.184682   0.000000
    127         25.374527   0.000000
    128         25.627010   0.000000
    129         25.755633   0.000000
    130         25.965277   0.000000
    131         26.043988   0.000000
    132         26.461917   0.000000
    133         26.669193   0.000000
    134         26.934224   0.000000
    135         27.006293   0.000000
    136         27.305052   0.000000
    137         27.359214   0.000000
    138         27.439420   0.000000
    139         27.597419   0.000000
    140         27.853698   0.000000

  0.2857143E+00  0.0000000E+00  0.2857143E+00  0.1020408E-01
      1        -25.452655   1.000000
      2        -25.449540   1.000000
      3        -25.438568   1.000000
      4        -25.438150   1.000000
      5        -25.408851   1.000000
      6        -25.408605   1.000000
      7        -25.386359   1.000000
      8        -25.385899   1.000000
      9        -25.380952   1.000000
     10        -25.380446   1.000000
     11        -12.507390   1.000000
     12        -11.959293   1.000000
     13        -11.353703   1.000000
     14        -11.198334   1.000000
     15        -10.961879   1.000000
     16        -10.833339   1.000000
     17         -6.174568   1.000000
     18         -5.498783   1.000000
     19         -2.511967   1.000000
     20         -2.298141   1.000000
     21         -2.039248   1.000000
     22         -1.960686   1.000000
     23         -1.628646   1.000000
     24         -1.419080   1.000000
     25         -1.267645   1.000000
     26         -1.077825   1.000000
     27         -0.905986   1.000000
     28         -0.836950   1.000000
     29         -0.670977   1.000000
     30         -0.628802   1.000000
     31         -0.537929   1.000000
     32         -0.518033   1.000000
     33         -0.470229   1.000000
     34         -0.385442   1.000000
     35          0.526930   1.000000
     36          0.537616   1.000000
     37          0.566109   1.000000
     38          0.608766   1.000000
     39          0.619761   1.000000
     40          0.640428   1.000000
     41          0.683086   1.000000
     42          0.740317   1.000000
     43          0.912017   1.000000
     44          1.043548   1.000000
     45          1.150873   1.000000
     46          1.237697   1.000000
     47          1.448932   1.000000
     48          1.603080   1.000000
     49          1.688811   1.000000
     50          1.742421   1.000000
     51          2.172852   1.000000
     52          2.428662   1.000000
     53          2.656408   1.000000
     54          2.933909   1.000000
     55          5.239869   0.000000
     56          5.605729   0.000000
     57          6.789542   0.000000
     58          6.997526   0.000000
     59          7.641225   0.000000
     60          7.955036   0.000000
     61          8.291693   0.000000
     62          8.510553   0.000000
     63          9.035775   0.000000
     64          9.244087   0.000000
     65          9.395355   0.000000
     66          9.806758   0.000000
     67         10.089051   0.000000
     68         10.313837   0.000000
     69         10.449879   0.000000
     70         10.542255   0.000000
     71         10.931128   0.000000
     72         11.179470   0.000000
     73         11.278913   0.000000
     74         11.654709   0.000000
     75         11.888935   0.000000
     76         12.145455   0.000000
     77         12.230770   0.000000
     78         12.926788   0.000000
     79         13.380661   0.000000
     80         13.648392   0.000000
     81         13.815166   0.000000
     82         14.281562   0.000000
     83         14.685834   0.000000
     84         15.368104   0.000000
     85         15.645121   0.000000
     86         15.914049   0.000000
     87         16.145867   0.000000
     88         16.366780   0.000000
     89         16.506457   0.000000
     90         16.646875   0.000000
     91         17.183999   0.000000
     92         17.324682   0.000000
     93         17.633367   0.000000
     94         17.791708   0.000000
     95         18.036043   0.000000
     96         18.152980   0.000000
     97         18.434396   0.000000
     98         18.536706   0.000000
     99         18.879414   0.000000
    100         19.111283   0.000000
    101         19.173462   0.000000
    102         19.474454   0.000000
    103         19.526905   0.000000
    104         19.737028   0.000000
    105         20.367871   0.000000
    106         20.593523   0.000000
    107         20.882924   0.000000
    108         21.031133   0.000000
    109         21.403352   0.000000
    110         21.738253   0.000000
    111         21.974757   0.000000
    112         22.146301   0.000000
    113         22.283721   0.000000
    114         22.637708   0.000000
    115         22.847641   0.000000
    116         22.999984   0.000000
    117         23.313608   0.000000
    118         23.482268   0.000000
    119         23.702798   0.000000
    120         23.918792   0.000000
    121         24.040992   0.000000
    122         24.176836   0.000000
    123         24.297803   0.000000
    124         24.621652   0.000000
    125         24.846661   0.000000
    126         25.070330   0.000000
    127         25.300024   0.000000
    128         25.558151   0.000000
    129         25.743067   0.000000
    130         25.958603   0.000000
    131         26.040222   0.000000
    132         26.133419   0.000000
    133         26.265939   0.000000
    134         26.509949   0.000000
    135         26.555864   0.000000
    136         26.906713   0.000000
    137         27.123954   0.000000
    138         27.326367   0.000000
    139         27.472349   0.000000
    140         27.755715   0.000000

  0.4285714E+00  0.0000000E+00  0.2857143E+00  0.1020408E-01
      1        -25.452711   1.000000
      2        -25.449591   1.000000
      3        -25.438613   1.000000
      4        -25.438193   1.000000
      5        -25.408858   1.000000
      6        -25.408608   1.000000
      7        -25.386346   1.000000
      8        -25.385904   1.000000
      9        -25.380944   1.000000
     10        -25.380440   1.000000
     11        -12.450609   1.000000
     12        -11.911403   1.000000
     13        -11.401743   1.000000
     14        -11.199359   1.000000
     15        -11.026420   1.000000
     16        -10.884841   1.000000
     17         -6.165282   1.000000
     18         -5.465409   1.000000
     19         -2.639363   1.000000
     20         -2.231189   1.000000
     21         -2.062125   1.000000
     22         -1.914208   1.000000
     23         -1.648460   1.000000
     24         -1.275106   1.000000
     25         -1.206686   1.000000
     26         -1.043110   1.000000
     27         -0.875764   1.000000
     28         -0.743576   1.000000
     29         -0.702502   1.000000
     30         -0.575790   1.000000
     31         -0.527831   1.000000
     32         -0.506676   1.000000
     33         -0.458142   1.000000
     34         -0.389749   1.000000
     35          0.487579   1.000000
     36          0.516093   1.000000
     37          0.553847   1.000000
     38          0.606198   1.000000
     39          0.630947   1.000000
     40          0.648555   1.000000
     41          0.665552   1.000000
     42          0.748913   1.000000
     43          0.979087   1.000000
     44          1.126399   1.000000
     45          1.184788   1.000000
     46          1.290686   1.000000
     47          1.387666   1.000000
     48          1.540890   1.000000
     49          1.675686   1.000000
     50          1.818305   1.000000
     51          2.147223   1.000000
     52          2.265953   1.000000
     53          2.656737   1.000000
     54          2.983593   1.000000
     55          5.130999   0.000000
     56          5.496261   0.000000
     57          6.358268   0.000000
     58          6.942333   0.000000
     59          7.431077   0.000000
     60          7.741903   0.000000
     61          8.091629   0.000000
     62          8.298893   0.000000
     63          8.867573   0.000000
     64          9.113207   0.000000
     65          9.588479   0.000000
     66          9.627255   0.000000
     67          9.910435   0.000000
     68         10.090642   0.000000
     69         10.335950   0.000000
     70         10.624679   0.000000
     71         10.890394   0.000000
     72         11.005520   0.000000
     73         11.794120   0.000000
     74         12.000126   0.000000
     75         12.325199   0.000000
     76         12.608842   0.000000
     77         12.955670   0.000000
     78         13.200382   0.000000
     79         13.437916   0.000000
     80         13.676987   0.000000
     81         14.182223   0.000000
     82         14.646465   0.000000
     83         14.925213   0.000000
     84         15.262263   0.000000
     85         15.428751   0.000000
     86         15.852301   0.000000
     87         16.190780   0.000000
     88         16.359899   0.000000
     89         16.802131   0.000000
     90         16.974586   0.000000
     91         17.161168   0.000000
     92         17.303889   0.000000
     93         17.521821   0.000000
     94         17.798280   0.000000
     95         17.965039   0.000000
     96         18.274339   0.000000
     97         18.386857   0.000000
     98         18.630665   0.000000
     99         18.855316   0.000000
    100         19.025505   0.000000
    101         19.195937   0.000000
    102         19.349856   0.000000
    103         19.722515   0.000000
    104         20.136681   0.000000
    105         20.281858   0.000000
    106         20.482717   0.000000
    107         20.765700   0.000000
    108         20.920049   0.000000
    109         21.153304   0.000000
    110         21.254185   0.000000
    111         21.548487   0.000000
    112         21.822636   0.000000
    113         22.216767   0.000000
    114         22.405415   0.000000
    115         22.554361   0.000000
    116         22.803394   0.000000
    117         22.991262   0.000000
    118         23.292046   0.000000
    119         23.574006   0.000000
    120         23.710134   0.000000
    121         23.929616   0.000000
    122         24.052823   0.000000
    123         24.131258   0.000000
    124         24.495851   0.000000
    125         24.871958   0.000000
    126         25.065126   0.000000
    127         25.199571   0.000000
    128         25.363283   0.000000
    129         25.593206   0.000000
    130         25.873199   0.000000
    131         26.123990   0.000000
    132         26.313153   0.000000
    133         26.443855   0.000000
    134         26.598404   0.000000
    135         26.723189   0.000000
    136         26.985482   0.000000
    137         27.166682   0.000000
    138         27.254811   0.000000
    139         27.686045   0.000000
    140         27.766275   0.000000

 -0.4285714E+00  0.0000000E+00  0.2857143E+00  0.1020408E-01
      1        -25.452815   1.000000
      2        -25.449687   1.000000
      3        -25.438695   1.000000
      4        -25.438282   1.000000
      5        -25.408949   1.000000
      6        -25.408686   1.000000
      7        -25.386417   1.000000
      8        -25.385974   1.000000
      9        -25.381013   1.000000
     10        -25.380517   1.000000
     11        -12.507448   1.000000
     12        -11.849419   1.000000
     13        -11.361249   1.000000
     14        -11.164498   1.000000
     15        -11.070015   1.000000
     16        -10.903674   1.000000
     17         -6.177940   1.000000
     18         -5.530335   1.000000
     19         -2.764364   1.000000
     20         -2.353516   1.000000
     21         -2.216375   1.000000
     22         -1.676436   1.000000
     23         -1.467485   1.000000
     24         -1.310329   1.000000
     25         -1.150484   1.000000
     26         -1.007599   1.000000
     27         -0.843614   1.000000
     28         -0.705619   1.000000
     29         -0.690864   1.000000
     30         -0.578063   1.000000
     31         -0.558361   1.000000
     32         -0.513881   1.000000
     33         -0.444113   1.000000
     34         -0.390868   1.000000
     35          0.431651   1.000000
     36          0.505675   1.000000
     37          0.588076   1.000000
     38          0.597399   1.000000
     39          0.616716   1.000000
     40          0.653258   1.000000
     41          0.688000   1.000000
     42          0.712175   1.000000
     43          0.989073   1.000000
     44          1.034082   1.000000
     45          1.273064   1.000000
     46          1.348331   1.000000
     47          1.435305   1.000000
     48          1.575161   1.000000
     49          1.740710   1.000000
     50          1.846594   1.000000
     51          2.197325   1.000000
     52          2.313816   1.000000
     53          2.698520   1.000000
     54          3.035501   1.000000
     55          5.005249   0.000000
     56          5.354290   0.000000
     57          6.308442   0.000000
     58          6.781669   0.000000
     59          7.192631   0.000000
     60          7.503073   0.000000
     61          7.887355   0.000000
     62          8.253256   0.000000
     63          8.711886   0.000000
     64          8.999568   0.000000
     65          9.397150   0.000000
     66          9.715062   0.000000
     67         10.032515   0.000000
     68         10.199391   0.000000
     69         10.310969   0.000000
     70         10.596001   0.000000
     71         10.895536   0.000000
     72         11.111895   0.000000
     73         11.840016   0.000000
     74         12.328933   0.000000
     75         12.539519   0.000000
     76         12.720329   0.000000
     77         13.059074   0.000000
     78         13.501669   0.000000
     79         13.948957   0.000000
     80         14.144338   0.000000
     81         14.440219   0.000000
     82         14.741154   0.000000
     83         14.945665   0.000000
     84         15.230867   0.000000
     85         15.419585   0.000000
     86         15.936757   0.000000
     87         16.028733   0.000000
     88         16.357306   0.000000
     89         16.568801   0.000000
     90         16.861140   0.000000
     91         17.200751   0.000000
     92         17.319776   0.000000
     93         17.548467   0.000000
     94         17.599977   0.000000
     95         18.001166   0.000000
     96         18.092808   0.000000
     97         18.378579   0.000000
     98         18.603818   0.000000
     99         18.729318   0.000000
    100         18.782198   0.000000
    101         19.072957   0.000000
    102         19.130899   0.000000
    103         19.227533   0.000000
    104         19.526095   0.000000
    105         20.147425   0.000000
    106         20.497624   0.000000
    107         20.765170   0.000000
    108         20.964534   0.000000
    109         21.065032   0.000000
    110         21.238202   0.000000
    111         21.527951   0.000000
    112         21.662413   0.000000
    113         22.139549   0.000000
    114         22.252000   0.000000
    115         22.454069   0.000000
    116         22.689727   0.000000
    117         23.294748   0.000000
    118         23.314757   0.000000
    119         23.655369   0.000000
    120         23.978816   0.000000
    121         24.153979   0.000000
    122         24.220581   0.000000
    123         24.357295   0.000000
    124         24.688721   0.000000
    125         24.861469   0.000000
    126         25.163074   0.000000
    127         25.228549   0.000000
    128         25.464838   0.000000
    129         25.676373   0.000000
    130         25.823158   0.000000
    131         26.027218   0.000000
    132         26.172482   0.000000
    133         26.309467   0.000000
    134         26.635313   0.000000
    135         26.795655   0.000000
    136         26.981826   0.000000
    137         27.184424   0.000000
    138         27.351321   0.000000
    139         27.583179   0.000000
    140         27.684778   0.000000

 -0.2857143E+00  0.0000000E+00  0.2857143E+00  0.1020408E-01
      1        -25.452888   1.000000
      2        -25.449744   1.000000
      3        -25.438755   1.000000
      4        -25.438342   1.000000
      5        -25.409042   1.000000
      6        -25.408780   1.000000
      7        -25.386508   1.000000
      8        -25.386055   1.000000
      9        -25.381103   1.000000
     10        -25.380614   1.000000
     11        -12.613155   1.000000
     12        -11.828524   1.000000
     13        -11.327853   1.000000
     14        -11.137543   1.000000
     15        -10.995417   1.000000
     16        -10.868425   1.000000
     17         -6.206515   1.000000
     18         -5.642305   1.000000
     19         -2.784110   1.000000
     20         -2.547794   1.000000
     21         -2.232730   1.000000
     22         -1.686821   1.000000
     23         -1.346969   1.000000
     24         -1.243306   1.000000
     25         -1.191376   1.000000
     26         -1.007720   1.000000
     27         -0.871068   1.000000
     28         -0.750669   1.000000
     29         -0.646435   1.000000
     30         -0.611235   1.000000
     31         -0.598580   1.000000
     32         -0.533429   1.000000
     33         -0.438735   1.000000
     34         -0.395059   1.000000
     35          0.480298   1.000000
     36          0.509771   1.000000
     37          0.588339   1.000000
     38          0.600491   1.000000
     39          0.606153   1.000000
     40          0.632543   1.000000
     41          0.654918   1.000000
     42          0.731345   1.000000
     43          0.898668   1.000000
     44          1.099886   1.000000
     45          1.143901   1.000000
     46          1.368209   1.000000
     47          1.472094   1.000000
     48          1.714595   1.000000
     49          1.849230   1.000000
     50          1.969594   1.000000
     51          2.205537   1.000000
     52          2.381692   1.000000
     53          2.882338   1.000000
     54          2.953884   1.000000
     55          5.011205   0.000000
     56          5.294699   0.000000
     57          6.569815   0.000000
     58          6.744922   0.000000
     59          6.998250   0.000000
     60          7.319958   0.000000
     61          8.053728   0.000000
     62          8.361003   0.000000
     63          8.765579   0.000000
     64          9.041935   0.000000
     65          9.372170   0.000000
     66          9.706477   0.000000
     67          9.819439   0.000000
     68         10.088643   0.000000
     69         10.281726   0.000000
     70         10.703331   0.000000
     71         11.229322   0.000000
     72         11.482572   0.000000
     73         11.915267   0.000000
     74         12.018425   0.000000
     75         12.219852   0.000000
     76         12.688822   0.000000
     77         12.978614   0.000000
     78         13.230609   0.000000
     79         14.089399   0.000000
     80         14.453753   0.000000
     81         14.735023   0.000000
     82         14.844754   0.000000
     83         15.019248   0.000000
     84         15.213540   0.000000
     85         15.515705   0.000000
     86         15.683579   0.000000
     87         15.809577   0.000000
     88         16.156355   0.000000
     89         16.579041   0.000000
     90         16.615701   0.000000
     91         16.970436   0.000000
     92         17.090762   0.000000
     93         17.453904   0.000000
     94         17.673031   0.000000
     95         17.789822   0.000000
     96         18.064644   0.000000
     97         18.223956   0.000000
     98         18.426610   0.000000
     99         18.549411   0.000000
    100         18.742203   0.000000
    101         18.952012   0.000000
    102         19.093873   0.000000
    103         19.224637   0.000000
    104         19.356148   0.000000
    105         19.523992   0.000000
    106         19.865149   0.000000
    107         20.142183   0.000000
    108         20.644142   0.000000
    109         20.794298   0.000000
    110         21.283757   0.000000
    111         22.082299   0.000000
    112         22.303429   0.000000
    113         22.836851   0.000000
    114         23.005837   0.000000
    115         23.163384   0.000000
    116         23.269667   0.000000
    117         23.547477   0.000000
    118         23.630098   0.000000
    119         23.744604   0.000000
    120         23.912828   0.000000
    121         24.100476   0.000000
    122         24.213825   0.000000
    123         24.428643   0.000000
    124         24.745517   0.000000
    125         24.843535   0.000000
    126         25.393997   0.000000
    127         25.670231   0.000000
    128         25.821236   0.000000
    129         26.009635   0.000000
    130         26.165999   0.000000
    131         26.300278   0.000000
    132         26.465328   0.000000
    133         26.627078   0.000000
    134         26.739643   0.000000
    135         26.835126   0.000000
    136         26.897036   0.000000
    137         27.081913   0.000000
    138         27.188378   0.000000
    139         27.350532   0.000000
    140         27.608629   0.000000

 -0.1428571E+00  0.0000000E+00  0.2857143E+00  0.1020408E-01
      1        -25.452878   1.000000
      2        -25.449737   1.000000
      3        -25.438752   1.000000
      4        -25.438336   1.000000
      5        -25.409081   1.000000
      6        -25.408826   1.000000
      7        -25.386552   1.000000
      8        -25.386092   1.000000
      9        -25.381152   1.000000
     10        -25.380666   1.000000
     11        -12.685030   1.000000
     12        -11.875101   1.000000
     13        -11.287501   1.000000
     14        -11.124211   1.000000
     15        -10.887287   1.000000
     16        -10.824968   1.000000
     17         -6.224600   1.000000
     18         -5.711250   1.000000
     19         -2.689915   1.000000
     20         -2.585147   1.000000
     21         -2.173162   1.000000
     22         -1.895568   1.000000
     23         -1.526634   1.000000
     24         -1.357058   1.000000
     25         -1.230049   1.000000
     26         -1.089372   1.000000
     27         -0.826774   1.000000
     28         -0.727745   1.000000
     29         -0.641978   1.000000
     30         -0.612117   1.000000
     31         -0.575031   1.000000
     32         -0.532747   1.000000
     33         -0.427984   1.000000
     34         -0.413420   1.000000
     35          0.525522   1.000000
     36          0.550366   1.000000
     37          0.579983   1.000000
     38          0.602262   1.000000
     39          0.614494   1.000000
     40          0.628984   1.000000
     41          0.664505   1.000000
     42          0.761480   1.000000
     43          0.856927   1.000000
     44          0.943437   1.000000
     45          1.058466   1.000000
     46          1.284747   1.000000
     47          1.387362   1.000000
     48          1.755321   1.000000
     49          1.948220   1.000000
     50          2.261111   1.000000
     51          2.399773   1.000000
     52          2.492589   1.000000
     53          2.890250   1.000000
     54          3.124616   1.000000
     55          4.998339   0.000000
     56          5.203881   0.000000
     57          6.497245   0.000000
     58          6.608399   0.000000
     59          7.169393   0.000000
     60          7.425524   0.000000
     61          8.380708   0.000000
     62          8.647110   0.000000
     63          8.836095   0.000000
     64          9.320386   0.000000
     65          9.395688   0.000000
     66          9.565726   0.000000
     67          9.738727   0.000000
     68         10.169338   0.000000
     69         10.369432   0.000000
     70         10.736563   0.000000
     71         11.442618   0.000000
     72         11.887659   0.000000
     73         11.972233   0.000000
     74         12.220131   0.000000
     75         12.339178   0.000000
     76         12.618632   0.000000
     77         12.781727   0.000000
     78         13.457241   0.000000
     79         13.551293   0.000000
     80         13.921398   0.000000
     81         14.196633   0.000000
     82         14.329114   0.000000
     83         14.455519   0.000000
     84         14.800976   0.000000
     85         14.988544   0.000000
     86         15.305005   0.000000
     87         15.412413   0.000000
     88         15.940743   0.000000
     89         16.141079   0.000000
     90         16.325370   0.000000
     91         16.547729   0.000000
     92         16.875543   0.000000
     93         17.053899   0.000000
     94         17.266611   0.000000
     95         17.693226   0.000000
     96         18.066436   0.000000
     97         18.282987   0.000000
     98         18.500641   0.000000
     99         18.871983   0.000000
    100         19.186750   0.000000
    101         19.235669   0.000000
    102         19.409376   0.000000
    103         19.894382   0.000000
    104         20.165747   0.000000
    105         20.392431   0.000000
    106         20.684229   0.000000
    107         20.808168   0.000000
    108         21.163063   0.000000
    109         21.333484   0.000000
    110         21.837363   0.000000
    111         21.919250   0.000000
    112         22.109951   0.000000
    113         22.440702   0.000000
    114         22.629615   0.000000
    115         22.850300   0.000000
    116         23.058573   0.000000
    117         23.232690   0.000000
    118         23.503639   0.000000
    119         23.628004   0.000000
    120         23.903636   0.000000
    121         24.095317   0.000000
    122         24.186503   0.000000
    123         24.519761   0.000000
    124         24.993732   0.000000
    125         25.104128   0.000000
    126         25.246560   0.000000
    127         25.591217   0.000000
    128         25.788085   0.000000
    129         25.882058   0.000000
    130         26.183410   0.000000
    131         26.333263   0.000000
    132         26.534373   0.000000
    133         26.744941   0.000000
    134         26.949875   0.000000
    135         27.060110   0.000000
    136         27.328509   0.000000
    137         27.549001   0.000000
    138         27.740781   0.000000
    139         28.026128   0.000000
    140         28.081793   0.000000

  0.0000000E+00  0.2500000E+00  0.2857143E+00  0.2040816E-01
      1        -25.452897   1.000000
      2        -25.449752   1.000000
      3        -25.438764   1.000000
      4        -25.438349   1.000000
      5        -25.409065   1.000000
      6        -25.408800   1.000000
      7        -25.386528   1.000000
      8        -25.386072   1.000000
      9        -25.381124   1.000000
     10        -25.380637   1.000000
     11        -12.636480   1.000000
     12        -11.834828   1.000000
     13        -11.320872   1.000000
     14        -11.132409   1.000000
     15        -10.965610   1.000000
     16        -10.856026   1.000000
     17         -6.213097   1.000000
     18         -5.666660   1.000000
     19         -2.768320   1.000000
     20         -2.574894   1.000000
     21         -2.219320   1.000000
     22         -1.747853   1.000000
     23         -1.382070   1.000000
     24         -1.247357   1.000000
     25         -1.176488   1.000000
     26         -1.007666   1.000000
     27         -0.877296   1.000000
     28         -0.759326   1.000000
     29         -0.649641   1.000000
     30         -0.609187   1.000000
     31         -0.590579   1.000000
     32         -0.535687   1.000000
     33         -0.438016   1.000000
     34         -0.398958   1.000000
     35          0.497150   1.000000
     36          0.516140   1.000000
     37          0.583447   1.000000
     38          0.599463   1.000000
     39          0.605963   1.000000
     40          0.633421   1.000000
     41          0.654505   1.000000
     42          0.739407   1.000000
     43          0.881078   1.000000
     44          1.060132   1.000000
     45          1.132021   1.000000
     46          1.354654   1.000000
     47          1.492822   1.000000
     48          1.702786   1.000000
     49          1.878744   1.000000
     50          2.030518   1.000000
     51          2.248882   1.000000
     52          2.400865   1.000000
     53          2.921019   1.000000
     54          2.950974   1.000000
     55          5.019064   0.000000
     56          5.284136   0.000000
     57          6.547847   0.000000
     58          6.764340   0.000000
     59          7.001431   0.000000
     60          7.310903   0.000000
     61          8.115785   0.000000
     62          8.442670   0.000000
     63          8.804423   0.000000
     64          9.076090   0.000000
     65          9.382809   0.000000
     66          9.678843   0.000000
     67          9.778728   0.000000
     68         10.082845   0.000000
     69         10.242888   0.000000
     70         10.742253   0.000000
     71         11.327203   0.000000
     72         11.579183   0.000000
     73         11.892399   0.000000
     74         12.082802   0.000000
     75         12.199157   0.000000
     76         12.651680   0.000000
     77         12.899072   0.000000
     78         13.263359   0.000000
     79         13.949441   0.000000
     80         14.422516   0.000000
     81         14.676683   0.000000
     82         14.769854   0.000000
     83         14.934831   0.000000
     84         15.045606   0.000000
     85         15.473168   0.000000
     86         15.668414   0.000000
     87         15.772162   0.000000
     88         16.137363   0.000000
     89         16.429364   0.000000
     90         16.569911   0.000000
     91         16.880507   0.000000
     92         17.034594   0.000000
     93         17.327813   0.000000
     94         17.643300   0.000000
     95         17.784532   0.000000
     96         18.024438   0.000000
     97         18.203361   0.000000
     98         18.477966   0.000000
     99         18.567086   0.000000
    100         18.708404   0.000000
    101         19.003395   0.000000
    102         19.112795   0.000000
    103         19.215456   0.000000
    104         19.389590   0.000000
    105         19.727223   0.000000
    106         19.864772   0.000000
    107         20.213415   0.000000
    108         20.746751   0.000000
    109         21.090543   0.000000
    110         21.347781   0.000000
    111         22.062794   0.000000
    112         22.384362   0.000000
    113         22.756962   0.000000
    114         22.934735   0.000000
    115         23.234676   0.000000
    116         23.323989   0.000000
    117         23.574849   0.000000
    118         23.803555   0.000000
    119         23.880720   0.000000
    120         23.993874   0.000000
    121         24.076255   0.000000
    122         24.190881   0.000000
    123         24.325524   0.000000
    124         24.630284   0.000000
    125         24.756782   0.000000
    126         25.546953   0.000000
    127         25.679536   0.000000
    128         25.768143   0.000000
    129         25.978919   0.000000
    130         26.226335   0.000000
    131         26.320045   0.000000
    132         26.498057   0.000000
    133         26.603423   0.000000
    134         26.700371   0.000000
    135         26.800220   0.000000
    136         26.963849   0.000000
    137         27.172720   0.000000
    138         27.307183   0.000000
    139         27.610393   0.000000
    140         27.859359   0.000000

  0.1428571E+00  0.2500000E+00  0.2857143E+00  0.2040816E-01
      1        -25.452836   1.000000
      2        -25.449710   1.000000
      3        -25.438724   1.000000
      4        -25.438309   1.000000
      5        -25.409079   1.000000
      6        -25.408802   1.000000
      7        -25.386543   1.000000
      8        -25.386080   1.000000
      9        -25.381148   1.000000
     10        -25.380650   1.000000
     11        -12.631815   1.000000
     12        -11.875258   1.000000
     13        -11.356888   1.000000
     14        -11.118399   1.000000
     15        -10.919504   1.000000
     16        -10.828377   1.000000
     17         -6.207745   1.000000
     18         -5.662315   1.000000
     19         -2.707001   1.000000
     20         -2.527765   1.000000
     21         -2.065047   1.000000
     22         -1.949354   1.000000
     23         -1.498383   1.000000
     24         -1.346473   1.000000
     25         -1.164657   1.000000
     26         -1.054695   1.000000
     27         -0.908935   1.000000
     28         -0.779112   1.000000
     29         -0.618194   1.000000
     30         -0.590974   1.000000
     31         -0.575571   1.000000
     32         -0.523665   1.000000
     33         -0.417313   1.000000
     34         -0.397462   1.000000
     35          0.502899   1.000000
     36          0.531465   1.000000
     37          0.572426   1.000000
     38          0.600365   1.000000
     39          0.623030   1.000000
     40          0.636435   1.000000
     41          0.660787   1.000000
     42          0.780348   1.000000
     43          0.897409   1.000000
     44          0.996198   1.000000
     45          1.089362   1.000000
     46          1.246902   1.000000
     47          1.517784   1.000000
     48          1.660343   1.000000
     49          1.839093   1.000000
     50          2.082280   1.000000
     51          2.204840   1.000000
     52          2.411345   1.000000
     53          2.815656   1.000000
     54          3.167087   1.000000
     55          4.992024   0.000000
     56          5.350718   0.000000
     57          6.618955   0.000000
     58          6.838609   0.000000
     59          7.150147   0.000000
     60          7.607921   0.000000
     61          8.038675   0.000000
     62          8.568097   0.000000
     63          8.967200   0.000000
     64          9.149572   0.000000
     65          9.425185   0.000000
     66          9.614809   0.000000
     67          9.750084   0.000000
     68         10.104966   0.000000
     69         10.268346   0.000000
     70         10.843217   0.000000
     71         11.262945   0.000000
     72         11.463948   0.000000
     73         11.673664   0.000000
     74         12.198844   0.000000
     75         12.329616   0.000000
     76         12.502859   0.000000
     77         12.900109   0.000000
     78         13.384573   0.000000
     79         13.572070   0.000000
     80         14.147077   0.000000
     81         14.358553   0.000000
     82         14.470274   0.000000
     83         14.694284   0.000000
     84         14.783280   0.000000
     85         15.170870   0.000000
     86         15.625495   0.000000
     87         15.831415   0.000000
     88         16.141159   0.000000
     89         16.214512   0.000000
     90         16.526753   0.000000
     91         16.602245   0.000000
     92         17.029751   0.000000
     93         17.267231   0.000000
     94         17.484300   0.000000
     95         17.683289   0.000000
     96         17.897703   0.000000
     97         18.346757   0.000000
     98         18.685297   0.000000
     99         18.781580   0.000000
    100         18.887209   0.000000
    101         19.165990   0.000000
    102         19.601640   0.000000
    103         19.780976   0.000000
    104         19.871354   0.000000
    105         20.092448   0.000000
    106         20.423983   0.000000
    107         20.575953   0.000000
    108         21.018118   0.000000
    109         21.222758   0.000000
    110         21.728983   0.000000
    111         22.062686   0.000000
    112         22.294527   0.000000
    113         22.484118   0.000000
    114         22.589840   0.000000
    115         22.870664   0.000000
    116         23.072635   0.000000
    117         23.208897   0.000000
    118         23.332242   0.000000
    119         23.622352   0.000000
    120         23.738675   0.000000
    121         23.973646   0.000000
    122         24.025067   0.000000
    123         24.708552   0.000000
    124         24.854137   0.000000
    125         24.969553   0.000000
    126         25.268247   0.000000
    127         25.355571   0.000000
    128         25.670918   0.000000
    129         25.769323   0.000000
    130         26.011146   0.000000
    131         26.206887   0.000000
    132         26.489676   0.000000
    133         26.771614   0.000000
    134         26.955828   0.000000
    135         27.058185   0.000000
    136         27.494518   0.000000
    137         27.629048   0.000000
    138         27.741826   0.000000
    139         27.836470   0.000000
    140         28.084847   0.000000

  0.2857143E+00  0.2500000E+00  0.2857143E+00  0.2040816E-01
      1        -25.452791   1.000000
      2        -25.449673   1.000000
      3        -25.438698   1.000000
      4        -25.438292   1.000000
      5        -25.409061   1.000000
      6        -25.408777   1.000000
      7        -25.386535   1.000000
      8        -25.386065   1.000000
      9        -25.381134   1.000000
     10        -25.380627   1.000000
     11        -12.561632   1.000000
     12        -11.901917   1.000000
     13        -11.393358   1.000000
     14        -11.155567   1.000000
     15        -10.951345   1.000000
     16        -10.819535   1.000000
     17         -6.187887   1.000000
     18         -5.565680   1.000000
     19         -2.632214   1.000000
     20         -2.396896   1.000000
     21         -2.208687   1.000000
     22         -1.687184   1.000000
     23         -1.571861   1.000000
     24         -1.357978   1.000000
     25         -1.209839   1.000000
     26         -1.106865   1.000000
     27         -0.913443   1.000000
     28         -0.859687   1.000000
     29         -0.626637   1.000000
     30         -0.599385   1.000000
     31         -0.557853   1.000000
     32         -0.503380   1.000000
     33         -0.441885   1.000000
     34         -0.379272   1.000000
     35          0.503473   1.000000
     36          0.529720   1.000000
     37          0.562358   1.000000
     38          0.597325   1.000000
     39          0.626700   1.000000
     40          0.638846   1.000000
     41          0.664242   1.000000
     42          0.728156   1.000000
     43          0.953659   1.000000
     44          1.054977   1.000000
     45          1.150356   1.000000
     46          1.216422   1.000000
     47          1.418272   1.000000
     48          1.596310   1.000000
     49          1.714482   1.000000
     50          1.882819   1.000000
     51          2.342369   1.000000
     52          2.423167   1.000000
     53          2.591634   1.000000
     54          2.845027   1.000000
     55          5.223228   0.000000
     56          5.562697   0.000000
     57          6.855579   0.000000
     58          6.922089   0.000000
     59          7.298405   0.000000
     60          7.886010   0.000000
     61          8.108574   0.000000
     62          8.467012   0.000000
     63          8.906847   0.000000
     64          9.122652   0.000000
     65          9.462607   0.000000
     66          9.836801   0.000000
     67         10.027461   0.000000
     68         10.100629   0.000000
     69         10.313515   0.000000
     70         10.704000   0.000000
     71         11.072263   0.000000
     72         11.405180   0.000000
     73         11.528586   0.000000
     74         11.736325   0.000000
     75         11.963390   0.000000
     76         12.341834   0.000000
     77         12.726593   0.000000
     78         13.228440   0.000000
     79         13.498015   0.000000
     80         13.853967   0.000000
     81         14.082550   0.000000
     82         14.492277   0.000000
     83         14.666939   0.000000
     84         15.064370   0.000000
     85         15.297118   0.000000
     86         15.582191   0.000000
     87         16.100690   0.000000
     88         16.226124   0.000000
     89         16.738751   0.000000
     90         16.834913   0.000000
     91         17.056127   0.000000
     92         17.285542   0.000000
     93         17.424011   0.000000
     94         17.725657   0.000000
     95         17.885366   0.000000
     96         18.030329   0.000000
     97         18.161192   0.000000
     98         18.494141   0.000000
     99         18.700148   0.000000
    100         18.788070   0.000000
    101         19.111676   0.000000
    102         19.283196   0.000000
    103         19.474900   0.000000
    104         20.006732   0.000000
    105         20.341237   0.000000
    106         20.627773   0.000000
    107         20.818998   0.000000
    108         21.029521   0.000000
    109         21.236755   0.000000
    110         21.453755   0.000000
    111         21.833622   0.000000
    112         22.154376   0.000000
    113         22.262802   0.000000
    114         22.505813   0.000000
    115         22.626453   0.000000
    116         22.900522   0.000000
    117         23.350624   0.000000
    118         23.519631   0.000000
    119         23.624766   0.000000
    120         23.768674   0.000000
    121         24.183341   0.000000
    122         24.356622   0.000000
    123         24.505290   0.000000
    124         24.845862   0.000000
    125         25.082829   0.000000
    126         25.212666   0.000000
    127         25.462193   0.000000
    128         25.552306   0.000000
    129         25.802584   0.000000
    130         25.949562   0.000000
    131         26.111164   0.000000
    132         26.425769   0.000000
    133         26.514772   0.000000
    134         26.880417   0.000000
    135         26.952664   0.000000
    136         27.284798   0.000000
    137         27.475420   0.000000
    138         27.764525   0.000000
    139         27.889018   0.000000
    140         27.962953   0.000000

  0.4285714E+00  0.2500000E+00  0.2857143E+00  0.2040816E-01
      1        -25.452804   1.000000
      2        -25.449679   1.000000
      3        -25.438723   1.000000
      4        -25.438316   1.000000
      5        -25.409021   1.000000
      6        -25.408756   1.000000
      7        -25.386511   1.000000
      8        -25.386055   1.000000
      9        -25.381108   1.000000
     10        -25.380598   1.000000
     11        -12.465917   1.000000
     12        -11.897470   1.000000
     13        -11.413285   1.000000
     14        -11.223653   1.000000
     15        -11.033801   1.000000
     16        -10.831833   1.000000
     17         -6.164129   1.000000
     18         -5.436704   1.000000
     19         -2.557403   1.000000
     20         -2.348654   1.000000
     21         -2.133246   1.000000
     22         -1.774339   1.000000
     23         -1.517709   1.000000
     24         -1.354757   1.000000
     25         -1.228642   1.000000
     26         -1.150463   1.000000
     27         -0.977521   1.000000
     28         -0.741158   1.000000
     29         -0.654607   1.000000
     30         -0.610630   1.000000
     31         -0.539227   1.000000
     32         -0.481420   1.000000
     33         -0.435994   1.000000
     34         -0.384626   1.000000
     35          0.507401   1.000000
     36          0.518723   1.000000
     37          0.579149   1.000000
     38          0.603041   1.000000
     39          0.638003   1.000000
     40          0.663250   1.000000
     41          0.671774   1.000000
     42          0.729867   1.000000
     43          0.950603   1.000000
     44          1.026962   1.000000
     45          1.086489   1.000000
     46          1.283769   1.000000
     47          1.419326   1.000000
     48          1.557766   1.000000
     49          1.684946   1.000000
     50          1.890820   1.000000
     51          2.136158   1.000000
     52          2.353144   1.000000
     53          2.528421   1.000000
     54          2.722728   1.000000
     55          5.285130   0.000000
     56          5.567268   0.000000
     57          6.641719   0.000000
     58          6.842783   0.000000
     59          7.373262   0.000000
     60          7.905732   0.000000
     61          8.070880   0.000000
     62          8.292810   0.000000
     63          9.051558   0.000000
     64          9.165177   0.000000
     65          9.431511   0.000000
     66          9.965828   0.000000
     67         10.110189   0.000000
     68         10.428024   0.000000
     69         10.589426   0.000000
     70         10.790254   0.000000
     71         11.066989   0.000000
     72         11.221994   0.000000
     73         11.599894   0.000000
     74         11.877912   0.000000
     75         12.140778   0.000000
     76         12.272836   0.000000
     77         12.603325   0.000000
     78         12.785778   0.000000
     79         13.121487   0.000000
     80         13.644827   0.000000
     81         14.077436   0.000000
     82         14.279800   0.000000
     83         14.584739   0.000000
     84         14.873258   0.000000
     85         15.514832   0.000000
     86         15.804203   0.000000
     87         15.974352   0.000000
     88         16.532161   0.000000
     89         16.857808   0.000000
     90         17.127348   0.000000
     91         17.306539   0.000000
     92         17.459256   0.000000
     93         17.544944   0.000000
     94         17.784461   0.000000
     95         18.150239   0.000000
     96         18.378282   0.000000
     97         18.549289   0.000000
     98         18.657372   0.000000
     99         18.912345   0.000000
    100         19.063941   0.000000
    101         19.172335   0.000000
    102         19.404390   0.000000
    103         19.485028   0.000000
    104         19.753704   0.000000
    105         20.030232   0.000000
    106         20.516450   0.000000
    107         20.687773   0.000000
    108         20.818990   0.000000
    109         20.991093   0.000000
    110         21.450858   0.000000
    111         21.765331   0.000000
    112         22.000225   0.000000
    113         22.292888   0.000000
    114         22.596374   0.000000
    115         22.971366   0.000000
    116         23.203075   0.000000
    117         23.293412   0.000000
    118         23.482830   0.000000
    119         23.574842   0.000000
    120         23.753656   0.000000
    121         24.007713   0.000000
    122         24.234433   0.000000
    123         24.279207   0.000000
    124         24.440777   0.000000
    125         24.527841   0.000000
    126         24.847918   0.000000
    127         25.051457   0.000000
    128         25.327188   0.000000
    129         25.519969   0.000000
    130         25.872272   0.000000
    131         25.926548   0.000000
    132         26.107526   0.000000
    133         26.263962   0.000000
    134         26.421265   0.000000
    135         26.590365   0.000000
    136         26.761257   0.000000
    137         27.121900   0.000000
    138         27.304042   0.000000
    139         27.671847   0.000000
    140         27.766312   0.000000

 -0.4285714E+00  0.2500000E+00  0.2857143E+00  0.2040816E-01
      1        -25.452866   1.000000
      2        -25.449729   1.000000
      3        -25.438767   1.000000
      4        -25.438357   1.000000
      5        -25.408990   1.000000
      6        -25.408745   1.000000
      7        -25.386497   1.000000
      8        -25.386051   1.000000
      9        -25.381082   1.000000
     10        -25.380580   1.000000
     11        -12.425613   1.000000
     12        -11.860205   1.000000
     13        -11.386613   1.000000
     14        -11.258638   1.000000
     15        -11.100372   1.000000
     16        -10.885971   1.000000
     17         -6.150739   1.000000
     18         -5.375777   1.000000
     19         -2.542475   1.000000
     20         -2.258453   1.000000
     21         -2.116402   1.000000
     22         -1.946973   1.000000
     23         -1.678131   1.000000
     24         -1.334479   1.000000
     25         -1.146763   1.000000
     26         -1.027962   1.000000
     27         -0.948524   1.000000
     28         -0.671170   1.000000
     29         -0.642900   1.000000
     30         -0.593121   1.000000
     31         -0.515588   1.000000
     32         -0.462256   1.000000
     33         -0.438171   1.000000
     34         -0.412548   1.000000
     35          0.499081   1.000000
     36          0.527269   1.000000
     37          0.606930   1.000000
     38          0.621449   1.000000
     39          0.646711   1.000000
     40          0.668448   1.000000
     41          0.677903   1.000000
     42          0.750388   1.000000
     43          0.831296   1.000000
     44          0.905111   1.000000
     45          1.165598   1.000000
     46          1.346202   1.000000
     47          1.540269   1.000000
     48          1.606617   1.000000
     49          1.664862   1.000000
     50          1.686132   1.000000
     51          2.163236   1.000000
     52          2.387851   1.000000
     53          2.645465   1.000000
     54          2.760097   1.000000
     55          5.209912   0.000000
     56          5.357806   0.000000
     57          6.274725   0.000000
     58          6.597798   0.000000
     59          7.329780   0.000000
     60          7.661102   0.000000
     61          7.842507   0.000000
     62          8.123222   0.000000
     63          8.877854   0.000000
     64          8.924563   0.000000
     65          9.896531   0.000000
     66         10.196149   0.000000
     67         10.320389   0.000000
     68         10.508769   0.000000
     69         10.634838   0.000000
     70         10.958695   0.000000
     71         11.065441   0.000000
     72         11.722405   0.000000
     73         11.969531   0.000000
     74         12.203594   0.000000
     75         12.366086   0.000000
     76         12.522388   0.000000
     77         12.770672   0.000000
     78         13.052069   0.000000
     79         13.284750   0.000000
     80         13.410737   0.000000
     81         13.763184   0.000000
     82         13.985816   0.000000
     83         14.336782   0.000000
     84         14.701642   0.000000
     85         15.279798   0.000000
     86         15.448020   0.000000
     87         15.698591   0.000000
     88         16.046170   0.000000
     89         16.527562   0.000000
     90         16.770567   0.000000
     91         16.892757   0.000000
     92         17.184390   0.000000
     93         17.603925   0.000000
     94         18.189168   0.000000
     95         18.405702   0.000000
     96         18.814376   0.000000
     97         18.925923   0.000000
     98         19.136696   0.000000
     99         19.440518   0.000000
    100         19.670991   0.000000
    101         19.960918   0.000000
    102         20.060710   0.000000
    103         20.189267   0.000000
    104         20.312084   0.000000
    105         20.598805   0.000000
    106         20.775106   0.000000
    107         20.908970   0.000000
    108         21.072057   0.000000
    109         21.209502   0.000000
    110         21.462963   0.000000
    111         21.520956   0.000000
    112         21.607355   0.000000
    113         21.947546   0.000000
    114         22.025842   0.000000
    115         22.338348   0.000000
    116         22.428577   0.000000
    117         22.716582   0.000000
    118         22.861632   0.000000
    119         22.915326   0.000000
    120         23.108467   0.000000
    121         23.284157   0.000000
    122         23.486579   0.000000
    123         23.745116   0.000000
    124         24.068999   0.000000
    125         24.221178   0.000000
    126         24.438919   0.000000
    127         24.659756   0.000000
    128         24.874793   0.000000
    129         25.004271   0.000000
    130         25.775172   0.000000
    131         25.814121   0.000000
    132         26.192830   0.000000
    133         26.553420   0.000000
    134         26.761659   0.000000
    135         26.884540   0.000000
    136         27.239295   0.000000
    137         27.567318   0.000000
    138         27.768860   0.000000
    139         27.974267   0.000000
    140         28.190483   0.000000

 -0.2857143E+00  0.2500000E+00  0.2857143E+00  0.2040816E-01
      1        -25.452925   1.000000
      2        -25.449782   1.000000
      3        -25.438810   1.000000
      4        -25.438397   1.000000
      5        -25.409007   1.000000
      6        -25.408759   1.000000
      7        -25.386498   1.000000
      8        -25.386055   1.000000
      9        -25.381076   1.000000
     10        -25.380588   1.000000
     11        -12.481664   1.000000
     12        -11.820806   1.000000
     13        -11.295529   1.000000
     14        -11.249838   1.000000
     15        -11.106370   1.000000
     16        -10.943796   1.000000
     17         -6.164111   1.000000
     18         -5.440141   1.000000
     19         -2.615190   1.000000
     20         -2.464989   1.000000
     21         -2.199991   1.000000
     22         -1.690085   1.000000
     23         -1.610609   1.000000
     24         -1.267379   1.000000
     25         -1.064427   1.000000
     26         -1.035507   1.000000
     27         -0.885493   1.000000
     28         -0.649253   1.000000
     29         -0.624323   1.000000
     30         -0.602945   1.000000
     31         -0.555184   1.000000
     32         -0.531164   1.000000
     33         -0.435638   1.000000
     34         -0.420270   1.000000
     35          0.432341   1.000000
     36          0.560358   1.000000
     37          0.608441   1.000000
     38          0.616708   1.000000
     39          0.636145   1.000000
     40          0.653759   1.000000
     41          0.664438   1.000000
     42          0.753030   1.000000
     43          0.870897   1.000000
     44          0.882986   1.000000
     45          1.237811   1.000000
     46          1.339908   1.000000
     47          1.453615   1.000000
     48          1.611047   1.000000
     49          1.719419   1.000000
     50          1.933663   1.000000
     51          2.102199   1.000000
     52          2.527994   1.000000
     53          2.620494   1.000000
     54          2.793936   1.000000
     55          5.175453   0.000000
     56          5.266935   0.000000
     57          6.237270   0.000000
     58          6.512914   0.000000
     59          7.207629   0.000000
     60          7.486985   0.000000
     61          7.852311   0.000000
     62          8.184522   0.000000
     63          8.545734   0.000000
     64          8.666060   0.000000
     65          9.689337   0.000000
     66         10.104819   0.000000
     67         10.336865   0.000000
     68         10.415013   0.000000
     69         10.555159   0.000000
     70         11.050657   0.000000
     71         11.340707   0.000000
     72         11.771208   0.000000
     73         12.058448   0.000000
     74         12.127150   0.000000
     75         12.554259   0.000000
     76         12.720063   0.000000
     77         12.954622   0.000000
     78         13.179269   0.000000
     79         13.305038   0.000000
     80         13.950558   0.000000
     81         14.125101   0.000000
     82         14.276002   0.000000
     83         14.566346   0.000000
     84         14.649459   0.000000
     85         15.191429   0.000000
     86         15.306309   0.000000
     87         15.895712   0.000000
     88         15.962948   0.000000
     89         16.538894   0.000000
     90         16.713979   0.000000
     91         17.040229   0.000000
     92         17.241521   0.000000
     93         17.367126   0.000000
     94         17.661003   0.000000
     95         17.874887   0.000000
     96         18.617144   0.000000
     97         18.753643   0.000000
     98         19.056469   0.000000
     99         19.208694   0.000000
    100         19.665240   0.000000
    101         19.890958   0.000000
    102         20.033779   0.000000
    103         20.307497   0.000000
    104         20.625116   0.000000
    105         20.739702   0.000000
    106         20.818468   0.000000
    107         21.010593   0.000000
    108         21.087375   0.000000
    109         21.192766   0.000000
    110         21.257917   0.000000
    111         21.453595   0.000000
    112         21.556854   0.000000
    113         21.710652   0.000000
    114         21.820557   0.000000
    115         22.065200   0.000000
    116         22.417976   0.000000
    117         22.618368   0.000000
    118         22.705708   0.000000
    119         22.877233   0.000000
    120         22.998864   0.000000
    121         23.268384   0.000000
    122         23.590774   0.000000
    123         23.733712   0.000000
    124         24.038350   0.000000
    125         24.245664   0.000000
    126         24.385610   0.000000
    127         24.488778   0.000000
    128         25.149828   0.000000
    129         25.456218   0.000000
    130         25.803709   0.000000
    131         25.945400   0.000000
    132         26.270853   0.000000
    133         26.926026   0.000000
    134         27.149894   0.000000
    135         27.381734   0.000000
    136         27.462874   0.000000
    137         27.615953   0.000000
    138         27.757324   0.000000
    139         28.034385   0.000000
    140         28.497557   0.000000

 -0.1428571E+00  0.2500000E+00  0.2857143E+00  0.2040816E-01
      1        -25.452937   1.000000
      2        -25.449793   1.000000
      3        -25.438804   1.000000
      4        -25.438390   1.000000
      5        -25.409040   1.000000
      6        -25.408783   1.000000
      7        -25.386508   1.000000
      8        -25.386065   1.000000
      9        -25.381092   1.000000
     10        -25.380610   1.000000
     11        -12.575096   1.000000
     12        -11.810559   1.000000
     13        -11.287220   1.000000
     14        -11.177060   1.000000
     15        -11.047790   1.000000
     16        -10.923383   1.000000
     17         -6.194571   1.000000
     18         -5.572669   1.000000
     19         -2.723939   1.000000
     20         -2.592724   1.000000
     21         -2.266145   1.000000
     22         -1.509000   1.000000
     23         -1.376403   1.000000
     24         -1.253437   1.000000
     25         -1.150472   1.000000
     26         -1.009858   1.000000
     27         -0.820597   1.000000
     28         -0.760766   1.000000
     29         -0.664385   1.000000
     30         -0.616419   1.000000
     31         -0.596746   1.000000
     32         -0.553091   1.000000
     33         -0.447613   1.000000
     34         -0.405658   1.000000
     35          0.440257   1.000000
     36          0.543678   1.000000
     37          0.593612   1.000000
     38          0.604638   1.000000
     39          0.605527   1.000000
     40          0.635831   1.000000
     41          0.669446   1.000000
     42          0.707777   1.000000
     43          0.919031   1.000000
     44          1.006027   1.000000
     45          1.132020   1.000000
     46          1.326000   1.000000
     47          1.597718   1.000000
     48          1.715368   1.000000
     49          1.823431   1.000000
     50          1.941895   1.000000
     51          2.192085   1.000000
     52          2.443389   1.000000
     53          2.622358   1.000000
     54          2.884316   1.000000
     55          5.130518   0.000000
     56          5.289711   0.000000
     57          6.486881   0.000000
     58          6.621139   0.000000
     59          7.051354   0.000000
     60          7.303415   0.000000
     61          8.151690   0.000000
     62          8.358838   0.000000
     63          8.578491   0.000000
     64          8.772750   0.000000
     65          9.218900   0.000000
     66          9.755389   0.000000
     67         10.088237   0.000000
     68         10.204457   0.000000
     69         10.424268   0.000000
     70         10.847510   0.000000
     71         11.368477   0.000000
     72         11.640920   0.000000
     73         11.860148   0.000000
     74         12.106881   0.000000
     75         12.406032   0.000000
     76         12.579525   0.000000
     77         12.809105   0.000000
     78         13.229725   0.000000
     79         13.737141   0.000000
     80         14.424428   0.000000
     81         14.627639   0.000000
     82         14.835579   0.000000
     83         14.993891   0.000000
     84         15.217894   0.000000
     85         15.358752   0.000000
     86         15.644803   0.000000
     87         16.029477   0.000000
     88         16.254805   0.000000
     89         16.467846   0.000000
     90         16.742365   0.000000
     91         17.194645   0.000000
     92         17.227761   0.000000
     93         17.482745   0.000000
     94         17.735153   0.000000
     95         17.846745   0.000000
     96         18.121394   0.000000
     97         18.244789   0.000000
     98         18.413246   0.000000
     99         18.588265   0.000000
    100         18.780838   0.000000
    101         18.966776   0.000000
    102         19.258994   0.000000
    103         19.558242   0.000000
    104         19.672801   0.000000
    105         19.747474   0.000000
    106         19.991749   0.000000
    107         20.163929   0.000000
    108         20.613175   0.000000
    109         21.162964   0.000000
    110         21.621341   0.000000
    111         21.674723   0.000000
    112         22.046387   0.000000
    113         22.267619   0.000000
    114         22.512546   0.000000
    115         22.712964   0.000000
    116         22.766830   0.000000
    117         22.999565   0.000000
    118         23.439563   0.000000
    119         23.588352   0.000000
    120         23.677363   0.000000
    121         24.177686   0.000000
    122         24.313284   0.000000
    123         24.543275   0.000000
    124         24.785157   0.000000
    125         24.844757   0.000000
    126         25.174383   0.000000
    127         25.257361   0.000000
    128         25.518200   0.000000
    129         25.732272   0.000000
    130         25.979278   0.000000
    131         26.153493   0.000000
    132         26.380397   0.000000
    133         26.604161   0.000000
    134         26.769731   0.000000
    135         27.126101   0.000000
    136         27.304412   0.000000
    137         27.504770   0.000000
    138         27.752427   0.000000
    139         27.893405   0.000000
    140         28.043466   0.000000

  0.0000000E+00  0.5000000E+00  0.2857143E+00  0.1020408E-01
      1        -25.452766   1.000000
      2        -25.449641   1.000000
      3        -25.438656   1.000000
      4        -25.438237   1.000000
      5        -25.408900   1.000000
      6        -25.408647   1.000000
      7        -25.386380   1.000000
      8        -25.385939   1.000000
      9        -25.380974   1.000000
     10        -25.380478   1.000000
     11        -12.466514   1.000000
     12        -11.879286   1.000000
     13        -11.387512   1.000000
     14        -11.185916   1.000000
     15        -11.054650   1.000000
     16        -10.902152   1.000000
     17         -6.168585   1.000000
     18         -5.486933   1.000000
     19         -2.709405   1.000000
     20         -2.260569   1.000000
     21         -2.153918   1.000000
     22         -1.799754   1.000000
     23         -1.591499   1.000000
     24         -1.283254   1.000000
     25         -1.150455   1.000000
     26         -1.018525   1.000000
     27         -0.858911   1.000000
     28         -0.722963   1.000000
     29         -0.699482   1.000000
     30         -0.562030   1.000000
     31         -0.531127   1.000000
     32         -0.507428   1.000000
     33         -0.454691   1.000000
     34         -0.391160   1.000000
     35          0.445100   1.000000
     36          0.509937   1.000000
     37          0.570659   1.000000
     38          0.601591   1.000000
     39          0.623363   1.000000
     40          0.652461   1.000000
     41          0.676544   1.000000
     42          0.759614   1.000000
     43          0.954440   1.000000
     44          1.073724   1.000000
     45          1.260191   1.000000
     46          1.316114   1.000000
     47          1.407791   1.000000
     48          1.561395   1.000000
     49          1.697972   1.000000
     50          1.816081   1.000000
     51          2.169710   1.000000
     52          2.286033   1.000000
     53          2.675104   1.000000
     54          3.024364   1.000000
     55          5.052543   0.000000
     56          5.413691   0.000000
     57          6.253449   0.000000
     58          6.867536   0.000000
     59          7.311419   0.000000
     60          7.615021   0.000000
     61          7.944485   0.000000
     62          8.272400   0.000000
     63          8.774113   0.000000
     64          9.044328   0.000000
     65          9.470177   0.000000
     66          9.740096   0.000000
     67          9.912465   0.000000
     68         10.183228   0.000000
     69         10.293377   0.000000
     70         10.643412   0.000000
     71         10.831281   0.000000
     72         11.013375   0.000000
     73         11.828692   0.000000
     74         12.264368   0.000000
     75         12.544596   0.000000
     76         12.825108   0.000000
     77         13.063967   0.000000
     78         13.415038   0.000000
     79         13.691968   0.000000
     80         13.983490   0.000000
     81         14.086442   0.000000
     82         14.547716   0.000000
     83         15.010128   0.000000
     84         15.070787   0.000000
     85         15.422119   0.000000
     86         15.985018   0.000000
     87         16.168102   0.000000
     88         16.365436   0.000000
     89         16.722971   0.000000
     90         16.920186   0.000000
     91         17.087646   0.000000
     92         17.358213   0.000000
     93         17.474216   0.000000
     94         17.810782   0.000000
     95         18.011105   0.000000
     96         18.060467   0.000000
     97         18.451467   0.000000
     98         18.629111   0.000000
     99         18.854181   0.000000
    100         18.964841   0.000000
    101         19.071644   0.000000
    102         19.400447   0.000000
    103         19.698146   0.000000
    104         19.808023   0.000000
    105         20.005694   0.000000
    106         20.501038   0.000000
    107         20.640634   0.000000
    108         20.829577   0.000000
    109         21.395089   0.000000
    110         21.468749   0.000000
    111         21.711684   0.000000
    112         22.003721   0.000000
    113         22.200371   0.000000
    114         22.313762   0.000000
    115         22.402583   0.000000
    116         22.531142   0.000000
    117         22.817671   0.000000
    118         23.100392   0.000000
    119         23.348462   0.000000
    120         23.469769   0.000000
    121         23.915016   0.000000
    122         24.212150   0.000000
    123         24.432612   0.000000
    124         24.582051   0.000000
    125         24.639343   0.000000
    126         25.070820   0.000000
    127         25.346734   0.000000
    128         25.457662   0.000000
    129         25.590959   0.000000
    130         25.825695   0.000000
    131         25.964771   0.000000
    132         26.278677   0.000000
    133         26.399702   0.000000
    134         26.643554   0.000000
    135         26.833777   0.000000
    136         26.970835   0.000000
    137         27.302136   0.000000
    138         27.405764   0.000000
    139         27.665816   0.000000
    140         27.839497   0.000000

  0.1428571E+00  0.5000000E+00  0.2857143E+00  0.1020408E-01
      1        -25.452738   1.000000
      2        -25.449620   1.000000
      3        -25.438627   1.000000
      4        -25.438209   1.000000
      5        -25.408928   1.000000
      6        -25.408650   1.000000
      7        -25.386379   1.000000
      8        -25.385937   1.000000
      9        -25.380991   1.000000
     10        -25.380479   1.000000
     11        -12.486655   1.000000
     12        -11.875611   1.000000
     13        -11.379965   1.000000
     14        -11.185030   1.000000
     15        -11.040055   1.000000
     16        -10.889678   1.000000
     17         -6.173057   1.000000
     18         -5.538216   1.000000
     19         -2.727049   1.000000
     20         -2.328584   1.000000
     21         -2.136815   1.000000
     22         -1.886454   1.000000
     23         -1.524961   1.000000
     24         -1.415858   1.000000
     25         -1.155052   1.000000
     26         -1.017438   1.000000
     27         -0.755631   1.000000
     28         -0.684637   1.000000
     29         -0.651285   1.000000
     30         -0.575978   1.000000
     31         -0.546148   1.000000
     32         -0.502704   1.000000
     33         -0.409147   1.000000
     34         -0.376550   1.000000
     35          0.425064   1.000000
     36          0.527307   1.000000
     37          0.590391   1.000000
     38          0.611332   1.000000
     39          0.619168   1.000000
     40          0.657867   1.000000
     41          0.698350   1.000000
     42          0.721897   1.000000
     43          0.913158   1.000000
     44          1.131090   1.000000
     45          1.166508   1.000000
     46          1.340267   1.000000
     47          1.442301   1.000000
     48          1.595357   1.000000
     49          1.702478   1.000000
     50          1.848833   1.000000
     51          2.246894   1.000000
     52          2.533539   1.000000
     53          2.912478   1.000000
     54          3.051119   1.000000
     55          4.737041   0.000000
     56          5.239857   0.000000
     57          6.315189   0.000000
     58          6.632402   0.000000
     59          6.997918   0.000000
     60          7.495133   0.000000
     61          7.760537   0.000000
     62          8.080452   0.000000
     63          8.554307   0.000000
     64          9.095414   0.000000
     65          9.436598   0.000000
     66          9.665830   0.000000
     67         10.086759   0.000000
     68         10.329156   0.000000
     69         10.554009   0.000000
     70         10.702748   0.000000
     71         11.037776   0.000000
     72         11.470536   0.000000
     73         11.846774   0.000000
     74         12.292793   0.000000
     75         12.528290   0.000000
     76         12.805162   0.000000
     77         13.213643   0.000000
     78         13.733573   0.000000
     79         14.016300   0.000000
     80         14.072709   0.000000
     81         14.426674   0.000000
     82         14.533212   0.000000
     83         14.845435   0.000000
     84         14.956981   0.000000
     85         15.248975   0.000000
     86         15.450271   0.000000
     87         15.627291   0.000000
     88         16.317449   0.000000
     89         16.648124   0.000000
     90         16.820708   0.000000
     91         17.035010   0.000000
     92         17.194667   0.000000
     93         17.461560   0.000000
     94         17.613438   0.000000
     95         17.812188   0.000000
     96         18.178559   0.000000
     97         18.402603   0.000000
     98         18.798367   0.000000
     99         18.997940   0.000000
    100         19.176582   0.000000
    101         19.304517   0.000000
    102         19.507571   0.000000
    103         19.946030   0.000000
    104         20.000921   0.000000
    105         20.194746   0.000000
    106         20.572966   0.000000
    107         20.705864   0.000000
    108         20.999832   0.000000
    109         21.271688   0.000000
    110         21.397971   0.000000
    111         21.714988   0.000000
    112         21.944272   0.000000
    113         22.091011   0.000000
    114         22.370865   0.000000
    115         22.721398   0.000000
    116         23.005566   0.000000
    117         23.110538   0.000000
    118         23.242646   0.000000
    119         23.490501   0.000000
    120         23.684639   0.000000
    121         23.866236   0.000000
    122         23.999496   0.000000
    123         24.224749   0.000000
    124         24.392925   0.000000
    125         24.608825   0.000000
    126         24.694387   0.000000
    127         24.771574   0.000000
    128         24.942008   0.000000
    129         25.123179   0.000000
    130         25.371743   0.000000
    131         25.679866   0.000000
    132         25.797369   0.000000
    133         25.932534   0.000000
    134         26.131714   0.000000
    135         26.251858   0.000000
    136         26.515028   0.000000
    137         26.882982   0.000000
    138         27.010412   0.000000
    139         27.444775   0.000000
    140         27.717124   0.000000

  0.2857143E+00  0.5000000E+00  0.2857143E+00  0.1020408E-01
      1        -25.452743   1.000000
      2        -25.449632   1.000000
      3        -25.438638   1.000000
      4        -25.438233   1.000000
      5        -25.409003   1.000000
      6        -25.408709   1.000000
      7        -25.386446   1.000000
      8        -25.385991   1.000000
      9        -25.381059   1.000000
     10        -25.380546   1.000000
     11        -12.482277   1.000000
     12        -11.891031   1.000000
     13        -11.423586   1.000000
     14        -11.140722   1.000000
     15        -11.001999   1.000000
     16        -10.910428   1.000000
     17         -6.169424   1.000000
     18         -5.556805   1.000000
     19         -2.685756   1.000000
     20         -2.343083   1.000000
     21         -2.141639   1.000000
     22         -1.880486   1.000000
     23         -1.585119   1.000000
     24         -1.461663   1.000000
     25         -1.116153   1.000000
     26         -0.999046   1.000000
     27         -0.792501   1.000000
     28         -0.758697   1.000000
     29         -0.600875   1.000000
     30         -0.574754   1.000000
     31         -0.540525   1.000000
     32         -0.465016   1.000000
     33         -0.409412   1.000000
     34         -0.335183   1.000000
     35          0.410836   1.000000
     36          0.567360   1.000000
     37          0.587419   1.000000
     38          0.610209   1.000000
     39          0.629081   1.000000
     40          0.664613   1.000000
     41          0.682297   1.000000
     42          0.753928   1.000000
     43          0.848274   1.000000
     44          1.015128   1.000000
     45          1.246383   1.000000
     46          1.350807   1.000000
     47          1.430423   1.000000
     48          1.600105   1.000000
     49          1.684882   1.000000
     50          1.888136   1.000000
     51          2.286290   1.000000
     52          2.609777   1.000000
     53          2.911091   1.000000
     54          3.037133   1.000000
     55          4.640874   0.000000
     56          5.242702   0.000000
     57          6.255984   0.000000
     58          6.804563   0.000000
     59          6.865805   0.000000
     60          7.375586   0.000000
     61          7.770171   0.000000
     62          8.030622   0.000000
     63          8.570748   0.000000
     64          9.231824   0.000000
     65          9.304257   0.000000
     66          9.633073   0.000000
     67         10.077681   0.000000
     68         10.232310   0.000000
     69         10.538451   0.000000
     70         10.924552   0.000000
     71         11.387778   0.000000
     72         11.581450   0.000000
     73         12.023206   0.000000
     74         12.280485   0.000000
     75         12.457995   0.000000
     76         12.870282   0.000000
     77         13.333780   0.000000
     78         13.608017   0.000000
     79         13.892344   0.000000
     80         14.083714   0.000000
     81         14.428942   0.000000
     82         14.634315   0.000000
     83         14.776221   0.000000
     84         14.823757   0.000000
     85         14.948210   0.000000
     86         15.338260   0.000000
     87         15.547663   0.000000
     88         16.033576   0.000000
     89         16.349647   0.000000
     90         16.724111   0.000000
     91         17.000884   0.000000
     92         17.128133   0.000000
     93         17.357082   0.000000
     94         17.638756   0.000000
     95         17.931275   0.000000
     96         18.270894   0.000000
     97         18.704759   0.000000
     98         18.857181   0.000000
     99         19.144418   0.000000
    100         19.333758   0.000000
    101         19.505079   0.000000
    102         19.698587   0.000000
    103         20.117708   0.000000
    104         20.216621   0.000000
    105         20.450238   0.000000
    106         20.789641   0.000000
    107         21.006571   0.000000
    108         21.053781   0.000000
    109         21.178561   0.000000
    110         21.384355   0.000000
    111         21.766305   0.000000
    112         21.900228   0.000000
    113         22.095205   0.000000
    114         22.341378   0.000000
    115         22.601047   0.000000
    116         22.794171   0.000000
    117         22.936466   0.000000
    118         23.076445   0.000000
    119         23.365971   0.000000
    120         23.530239   0.000000
    121         23.645252   0.000000
    122         23.934093   0.000000
    123         24.031182   0.000000
    124         24.129396   0.000000
    125         24.303990   0.000000
    126         24.495993   0.000000
    127         24.547306   0.000000
    128         24.744134   0.000000
    129         24.870570   0.000000
    130         25.184880   0.000000
    131         25.364088   0.000000
    132         25.683027   0.000000
    133         25.988723   0.000000
    134         26.379766   0.000000
    135         26.502795   0.000000
    136         26.783361   0.000000
    137         26.960880   0.000000
    138         27.161360   0.000000
    139         27.466366   0.000000
    140         27.594647   0.000000

  0.4285714E+00  0.5000000E+00  0.2857143E+00  0.1020408E-01
      1        -25.452779   1.000000
      2        -25.449665   1.000000
      3        -25.438690   1.000000
      4        -25.438292   1.000000
      5        -25.409067   1.000000
      6        -25.408777   1.000000
      7        -25.386526   1.000000
      8        -25.386060   1.000000
      9        -25.381124   1.000000
     10        -25.380616   1.000000
     11        -12.457775   1.000000
     12        -11.905103   1.000000
     13        -11.462210   1.000000
     14        -11.149847   1.000000
     15        -11.003871   1.000000
     16        -10.879767   1.000000
     17         -6.165533   1.000000
     18         -5.531382   1.000000
     19         -2.668158   1.000000
     20         -2.333703   1.000000
     21         -2.046756   1.000000
     22         -1.880142   1.000000
     23         -1.513083   1.000000
     24         -1.368990   1.000000
     25         -1.110917   1.000000
     26         -1.045938   1.000000
     27         -0.952072   1.000000
     28         -0.822980   1.000000
     29         -0.612636   1.000000
     30         -0.571094   1.000000
     31         -0.510565   1.000000
     32         -0.456343   1.000000
     33         -0.438930   1.000000
     34         -0.320806   1.000000
     35          0.434922   1.000000
     36          0.532280   1.000000
     37          0.568891   1.000000
     38          0.594746   1.000000
     39          0.648321   1.000000
     40          0.660175   1.000000
     41          0.685089   1.000000
     42          0.697748   1.000000
     43          0.873070   1.000000
     44          1.022989   1.000000
     45          1.271099   1.000000
     46          1.342635   1.000000
     47          1.445520   1.000000
     48          1.499950   1.000000
     49          1.764713   1.000000
     50          1.965256   1.000000
     51          2.062025   1.000000
     52          2.527535   1.000000
     53          2.630864   1.000000
     54          2.797893   1.000000
     55          4.959667   0.000000
     56          5.523316   0.000000
     57          6.337704   0.000000
     58          7.075722   0.000000
     59          7.115579   0.000000
     60          7.334078   0.000000
     61          7.995467   0.000000
     62          8.163227   0.000000
     63          8.915960   0.000000
     64          9.115734   0.000000
     65          9.451058   0.000000
     66          9.567433   0.000000
     67          9.863648   0.000000
     68         10.195778   0.000000
     69         10.469158   0.000000
     70         10.574644   0.000000
     71         11.011554   0.000000
     72         11.200589   0.000000
     73         11.520064   0.000000
     74         12.502700   0.000000
     75         12.680698   0.000000
     76         12.920240   0.000000
     77         13.096428   0.000000
     78         13.572127   0.000000
     79         13.880603   0.000000
     80         13.985087   0.000000
     81         14.172612   0.000000
     82         14.490884   0.000000
     83         15.140799   0.000000
     84         15.271643   0.000000
     85         15.321335   0.000000
     86         15.539214   0.000000
     87         15.664399   0.000000
     88         15.939801   0.000000
     89         16.312646   0.000000
     90         16.493889   0.000000
     91         16.964188   0.000000
     92         17.100317   0.000000
     93         17.728538   0.000000
     94         17.817173   0.000000
     95         18.012285   0.000000
     96         18.450456   0.000000
     97         18.702126   0.000000
     98         18.828742   0.000000
     99         18.949818   0.000000
    100         19.141103   0.000000
    101         19.492706   0.000000
    102         19.638163   0.000000
    103         19.991193   0.000000
    104         20.280525   0.000000
    105         20.360048   0.000000
    106         20.458486   0.000000
    107         20.695003   0.000000
    108         20.941479   0.000000
    109         21.212226   0.000000
    110         21.263995   0.000000
    111         21.484362   0.000000
    112         21.634770   0.000000
    113         21.946089   0.000000
    114         22.130084   0.000000
    115         22.277251   0.000000
    116         22.468165   0.000000
    117         22.663762   0.000000
    118         22.988654   0.000000
    119         23.091208   0.000000
    120         23.452903   0.000000
    121         23.583132   0.000000
    122         23.850781   0.000000
    123         24.164700   0.000000
    124         24.368835   0.000000
    125         24.761787   0.000000
    126         25.071124   0.000000
    127         25.316030   0.000000
    128         25.593410   0.000000
    129         25.820281   0.000000
    130         25.963727   0.000000
    131         26.134679   0.000000
    132         26.334144   0.000000
    133         26.463310   0.000000
    134         26.621966   0.000000
    135         26.827135   0.000000
    136         26.902818   0.000000
    137         27.043703   0.000000
    138         27.188137   0.000000
    139         27.407057   0.000000
    140         27.508166   0.000000

 -0.4285714E+00  0.5000000E+00  0.2857143E+00  0.1020408E-01
      1        -25.452814   1.000000
      2        -25.449703   1.000000
      3        -25.438738   1.000000
      4        -25.438339   1.000000
      5        -25.409087   1.000000
      6        -25.408798   1.000000
      7        -25.386552   1.000000
      8        -25.386093   1.000000
      9        -25.381149   1.000000
     10        -25.380639   1.000000
     11        -12.437641   1.000000
     12        -11.891799   1.000000
     13        -11.465921   1.000000
     14        -11.209962   1.000000
     15        -11.035968   1.000000
     16        -10.838262   1.000000
     17         -6.160701   1.000000
     18         -5.455769   1.000000
     19         -2.614913   1.000000
     20         -2.354478   1.000000
     21         -1.999117   1.000000
     22         -1.832936   1.000000
     23         -1.453655   1.000000
     24         -1.371522   1.000000
     25         -1.180974   1.000000
     26         -1.104327   1.000000
     27         -1.044857   1.000000
     28         -0.775978   1.000000
     29         -0.632442   1.000000
     30         -0.597379   1.000000
     31         -0.495706   1.000000
     32         -0.454879   1.000000
     33         -0.441713   1.000000
     34         -0.353840   1.000000
     35          0.495083   1.000000
     36          0.523403   1.000000
     37          0.556200   1.000000
     38          0.581767   1.000000
     39          0.643758   1.000000
     40          0.662598   1.000000
     41          0.664389   1.000000
     42          0.710251   1.000000
     43          0.934726   1.000000
     44          0.985830   1.000000
     45          1.137993   1.000000
     46          1.341489   1.000000
     47          1.462651   1.000000
     48          1.511602   1.000000
     49          1.689072   1.000000
     50          2.051780   1.000000
     51          2.177443   1.000000
     52          2.350638   1.000000
     53          2.478996   1.000000
     54          2.520034   1.000000
     55          5.212329   0.000000
     56          5.620097   0.000000
     57          6.699214   0.000000
     58          6.814138   0.000000
     59          7.121264   0.000000
     60          7.626499   0.000000
     61          8.180933   0.000000
     62          8.241512   0.000000
     63          9.130006   0.000000
     64          9.218752   0.000000
     65          9.326716   0.000000
     66          9.759259   0.000000
     67          9.999141   0.000000
     68         10.100730   0.000000
     69         10.526202   0.000000
     70         10.639381   0.000000
     71         11.035437   0.000000
     72         11.184393   0.000000
     73         11.581507   0.000000
     74         11.980032   0.000000
     75         12.397405   0.000000
     76         12.775198   0.000000
     77         12.950817   0.000000
     78         13.231224   0.000000
     79         13.550705   0.000000
     80         13.808598   0.000000
     81         14.039208   0.000000
     82         14.260064   0.000000
     83         14.868155   0.000000
     84         14.992164   0.000000
     85         15.335887   0.000000
     86         15.640862   0.000000
     87         16.118851   0.000000
     88         16.253592   0.000000
     89         16.548573   0.000000
     90         17.021291   0.000000
     91         17.107922   0.000000
     92         17.361197   0.000000
     93         17.460997   0.000000
     94         18.030028   0.000000
     95         18.179993   0.000000
     96         18.364926   0.000000
     97         18.608856   0.000000
     98         18.888402   0.000000
     99         18.985035   0.000000
    100         19.220009   0.000000
    101         19.327029   0.000000
    102         19.630934   0.000000
    103         19.709485   0.000000
    104         19.813604   0.000000
    105         20.018684   0.000000
    106         20.304648   0.000000
    107         20.570916   0.000000
    108         20.871932   0.000000
    109         21.219143   0.000000
    110         21.470956   0.000000
    111         21.601839   0.000000
    112         21.957137   0.000000
    113         22.071355   0.000000
    114         22.142421   0.000000
    115         22.420369   0.000000
    116         22.562073   0.000000
    117         22.784311   0.000000
    118         22.909154   0.000000
    119         23.350555   0.000000
    120         23.537823   0.000000
    121         23.587826   0.000000
    122         24.020571   0.000000
    123         24.099967   0.000000
    124         24.455446   0.000000
    125         24.709834   0.000000
    126         24.989351   0.000000
    127         25.453318   0.000000
    128         25.661868   0.000000
    129         25.887077   0.000000
    130         26.204191   0.000000
    131         26.326567   0.000000
    132         26.528362   0.000000
    133         26.748212   0.000000
    134         26.848349   0.000000
    135         26.976107   0.000000
    136         27.048890   0.000000
    137         27.228535   0.000000
    138         27.475640   0.000000
    139         27.594971   0.000000
    140         27.743028   0.000000

 -0.2857143E+00  0.5000000E+00  0.2857143E+00  0.1020408E-01
      1        -25.452832   1.000000
      2        -25.449704   1.000000
      3        -25.438748   1.000000
      4        -25.438343   1.000000
      5        -25.409021   1.000000
      6        -25.408764   1.000000
      7        -25.386522   1.000000
      8        -25.386067   1.000000
      9        -25.381111   1.000000
     10        -25.380603   1.000000
     11        -12.432690   1.000000
     12        -11.881361   1.000000
     13        -11.418800   1.000000
     14        -11.250795   1.000000
     15        -11.068759   1.000000
     16        -10.844990   1.000000
     17         -6.155130   1.000000
     18         -5.394559   1.000000
     19         -2.537304   1.000000
     20         -2.321910   1.000000
     21         -2.084577   1.000000
     22         -1.868720   1.000000
     23         -1.573686   1.000000
     24         -1.369239   1.000000
     25         -1.208338   1.000000
     26         -1.098076   1.000000
     27         -0.970757   1.000000
     28         -0.709177   1.000000
     29         -0.650645   1.000000
     30         -0.606508   1.000000
     31         -0.516520   1.000000
     32         -0.467182   1.000000
     33         -0.427857   1.000000
     34         -0.392849   1.000000
     35          0.510530   1.000000
     36          0.526314   1.000000
     37          0.590301   1.000000
     38          0.612781   1.000000
     39          0.641390   1.000000
     40          0.663209   1.000000
     41          0.678806   1.000000
     42          0.725460   1.000000
     43          0.899609   1.000000
     44          0.962143   1.000000
     45          1.090217   1.000000
     46          1.304612   1.000000
     47          1.481085   1.000000
     48          1.587509   1.000000
     49          1.661340   1.000000
     50          1.860741   1.000000
     51          2.179842   1.000000
     52          2.318516   1.000000
     53          2.546065   1.000000
     54          2.684662   1.000000
     55          5.256085   0.000000
     56          5.488931   0.000000
     57          6.484959   0.000000
     58          6.772117   0.000000
     59          7.257081   0.000000
     60          7.830086   0.000000
     61          7.920735   0.000000
     62          8.193382   0.000000
     63          9.038840   0.000000
     64          9.147073   0.000000
     65          9.600606   0.000000
     66         10.148131   0.000000
     67         10.229494   0.000000
     68         10.432686   0.000000
     69         10.675531   0.000000
     70         10.892996   0.000000
     71         11.034075   0.000000
     72         11.340833   0.000000
     73         11.709105   0.000000
     74         12.075112   0.000000
     75         12.299353   0.000000
     76         12.415253   0.000000
     77         12.572601   0.000000
     78         12.823443   0.000000
     79         13.188435   0.000000
     80         13.586213   0.000000
     81         14.018702   0.000000
     82         14.205593   0.000000
     83         14.476419   0.000000
     84         14.656388   0.000000
     85         15.248141   0.000000
     86         15.532085   0.000000
     87         15.889439   0.000000
     88         16.462398   0.000000
     89         16.729174   0.000000
     90         16.983827   0.000000
     91         17.181187   0.000000
     92         17.304768   0.000000
     93         17.675827   0.000000
     94         17.835044   0.000000
     95         18.282476   0.000000
     96         18.579256   0.000000
     97         18.739039   0.000000
     98         19.015882   0.000000
     99         19.204057   0.000000
    100         19.375567   0.000000
    101         19.513984   0.000000
    102         19.743139   0.000000
    103         19.835582   0.000000
    104         20.041178   0.000000
    105         20.292724   0.000000
    106         20.548498   0.000000
    107         20.686040   0.000000
    108         20.881368   0.000000
    109         21.071551   0.000000
    110         21.408622   0.000000
    111         21.591382   0.000000
    112         21.798262   0.000000
    113         21.987067   0.000000
    114         22.141007   0.000000
    115         22.605341   0.000000
    116         22.930049   0.000000
    117         23.031001   0.000000
    118         23.305003   0.000000
    119         23.446062   0.000000
    120         23.615856   0.000000
    121         23.712101   0.000000
    122         23.813199   0.000000
    123         24.096452   0.000000
    124         24.254696   0.000000
    125         24.512854   0.000000
    126         24.692712   0.000000
    127         25.005657   0.000000
    128         25.252691   0.000000
    129         25.446360   0.000000
    130         25.626060   0.000000
    131         25.745831   0.000000
    132         25.918527   0.000000
    133         26.325957   0.000000
    134         26.517006   0.000000
    135         26.665861   0.000000
    136         26.757407   0.000000
    137         27.104967   0.000000
    138         27.569701   0.000000
    139         27.801163   0.000000
    140         28.123418   0.000000

 -0.1428571E+00  0.5000000E+00  0.2857143E+00  0.1020408E-01
      1        -25.452803   1.000000
      2        -25.449682   1.000000
      3        -25.438711   1.000000
      4        -25.438294   1.000000
      5        -25.408940   1.000000
      6        -25.408689   1.000000
      7        -25.386441   1.000000
      8        -25.385998   1.000000
      9        -25.381028   1.000000
     10        -25.380529   1.000000
     11        -12.442560   1.000000
     12        -11.884504   1.000000
     13        -11.401142   1.000000
     14        -11.206308   1.000000
     15        -11.070725   1.000000
     16        -10.890096   1.000000
     17         -6.158393   1.000000
     18         -5.416729   1.000000
     19         -2.605825   1.000000
     20         -2.243033   1.000000
     21         -2.069870   1.000000
     22         -1.958766   1.000000
     23         -1.585594   1.000000
     24         -1.334117   1.000000
     25         -1.175500   1.000000
     26         -1.002126   1.000000
     27         -0.957375   1.000000
     28         -0.715165   1.000000
     29         -0.675758   1.000000
     30         -0.589126   1.000000
     31         -0.530063   1.000000
     32         -0.476980   1.000000
     33         -0.448469   1.000000
     34         -0.406467   1.000000
     35          0.486031   1.000000
     36          0.518564   1.000000
     37          0.575924   1.000000
     38          0.615084   1.000000
     39          0.639150   1.000000
     40          0.655685   1.000000
     41          0.676357   1.000000
     42          0.768183   1.000000
     43          0.891096   1.000000
     44          1.019109   1.000000
     45          1.171253   1.000000
     46          1.344906   1.000000
     47          1.458639   1.000000
     48          1.559072   1.000000
     49          1.685920   1.000000
     50          1.724279   1.000000
     51          2.090285   1.000000
     52          2.333905   1.000000
     53          2.609499   1.000000
     54          2.882648   1.000000
     55          5.224186   0.000000
     56          5.452560   0.000000
     57          6.341190   0.000000
     58          6.693545   0.000000
     59          7.523248   0.000000
     60          7.739581   0.000000
     61          8.017117   0.000000
     62          8.312032   0.000000
     63          8.856382   0.000000
     64          8.935952   0.000000
     65          9.573501   0.000000
     66          9.979064   0.000000
     67         10.036579   0.000000
     68         10.395505   0.000000
     69         10.545430   0.000000
     70         10.749299   0.000000
     71         10.983434   0.000000
     72         11.552503   0.000000
     73         11.699976   0.000000
     74         11.948760   0.000000
     75         12.360597   0.000000
     76         12.499766   0.000000
     77         12.762542   0.000000
     78         13.145710   0.000000
     79         13.302450   0.000000
     80         13.440811   0.000000
     81         13.899300   0.000000
     82         14.371700   0.000000
     83         14.697342   0.000000
     84         15.102335   0.000000
     85         15.489829   0.000000
     86         15.712121   0.000000
     87         15.891300   0.000000
     88         16.246802   0.000000
     89         16.688733   0.000000
     90         16.799037   0.000000
     91         17.171057   0.000000
     92         17.410092   0.000000
     93         17.703816   0.000000
     94         18.053007   0.000000
     95         18.122172   0.000000
     96         18.296299   0.000000
     97         18.534136   0.000000
     98         18.592785   0.000000
     99         19.021912   0.000000
    100         19.467221   0.000000
    101         19.634682   0.000000
    102         19.669871   0.000000
    103         19.827045   0.000000
    104         20.152380   0.000000
    105         20.471778   0.000000
    106         20.524913   0.000000
    107         20.736301   0.000000
    108         20.900919   0.000000
    109         21.207172   0.000000
    110         21.345549   0.000000
    111         21.501668   0.000000
    112         21.588282   0.000000
    113         21.960312   0.000000
    114         22.162161   0.000000
    115         22.585883   0.000000
    116         22.743551   0.000000
    117         22.959326   0.000000
    118         23.035119   0.000000
    119         23.376717   0.000000
    120         23.577571   0.000000
    121         23.740334   0.000000
    122         23.808631   0.000000
    123         23.981395   0.000000
    124         24.489802   0.000000
    125         24.723234   0.000000
    126         24.816269   0.000000
    127         25.155256   0.000000
    128         25.362650   0.000000
    129         25.528886   0.000000
    130         25.907159   0.000000
    131         25.993267   0.000000
    132         26.156369   0.000000
    133         26.324370   0.000000
    134         26.505058   0.000000
    135         26.770811   0.000000
    136         27.002013   0.000000
    137         27.150968   0.000000
    138         27.524928   0.000000
    139         27.750606   0.000000
    140         27.811460   0.000000

  0.0000000E+00  0.0000000E+00  0.4285714E+00  0.1020408E-01
      1        -25.451765   1.000000
      2        -25.450657   1.000000
      3        -25.438402   1.000000
      4        -25.438244   1.000000
      5        -25.408881   1.000000
      6        -25.408788   1.000000
      7        -25.386309   1.000000
      8        -25.386141   1.000000
      9        -25.380897   1.000000
     10        -25.380722   1.000000
     11        -12.478401   1.000000
     12        -12.218130   1.000000
     13        -11.190345   1.000000
     14        -11.163481   1.000000
     15        -10.828265   1.000000
     16        -10.827147   1.000000
     17         -6.011770   1.000000
     18         -5.828119   1.000000
     19         -2.403886   1.000000
     20         -2.269469   1.000000
     21         -2.179598   1.000000
     22         -1.893321   1.000000
     23         -1.739709   1.000000
     24         -1.595829   1.000000
     25         -1.393795   1.000000
     26         -1.359295   1.000000
     27         -0.820166   1.000000
     28         -0.744027   1.000000
     29         -0.628286   1.000000
     30         -0.617361   1.000000
     31         -0.530297   1.000000
     32         -0.512989   1.000000
     33         -0.449669   1.000000
     34         -0.441601   1.000000
     35          0.537692   1.000000
     36          0.559778   1.000000
     37          0.584236   1.000000
     38          0.586154   1.000000
     39          0.652626   1.000000
     40          0.652791   1.000000
     41          0.701056   1.000000
     42          0.743826   1.000000
     43          0.875896   1.000000
     44          0.880919   1.000000
     45          0.973902   1.000000
     46          1.017484   1.000000
     47          1.465648   1.000000
     48          1.721769   1.000000
     49          1.920383   1.000000
     50          1.933831   1.000000
     51          2.716564   1.000000
     52          2.742559   1.000000
     53          2.958625   1.000000
     54          2.960967   1.000000
     55          5.025946   0.000000
     56          5.066432   0.000000
     57          6.530859   0.000000
     58          6.556396   0.000000
     59          7.930025   0.000000
     60          7.997942   0.000000
     61          8.509466   0.000000
     62          8.622248   0.000000
     63          9.335099   0.000000
     64          9.361640   0.000000
     65          9.650104   0.000000
     66          9.659767   0.000000
     67          9.972100   0.000000
     68         10.194422   0.000000
     69         10.574019   0.000000
     70         10.815332   0.000000
     71         11.225964   0.000000
     72         11.287295   0.000000
     73         11.725621   0.000000
     74         12.014317   0.000000
     75         12.442180   0.000000
     76         12.571453   0.000000
     77         12.997022   0.000000
     78         13.024161   0.000000
     79         13.413639   0.000000
     80         13.656344   0.000000
     81         13.877178   0.000000
     82         14.001352   0.000000
     83         14.208822   0.000000
     84         14.287575   0.000000
     85         14.489411   0.000000
     86         14.542185   0.000000
     87         14.784533   0.000000
     88         15.021791   0.000000
     89         15.293555   0.000000
     90         15.501491   0.000000
     91         16.237658   0.000000
     92         16.642659   0.000000
     93         17.344715   0.000000
     94         18.073709   0.000000
     95         18.672169   0.000000
     96         18.807085   0.000000
     97         19.068689   0.000000
     98         19.375878   0.000000
     99         19.605103   0.000000
    100         19.800600   0.000000
    101         20.000110   0.000000
    102         20.126423   0.000000
    103         20.513900   0.000000
    104         20.550107   0.000000
    105         21.261621   0.000000
    106         21.265681   0.000000
    107         21.359458   0.000000
    108         21.504391   0.000000
    109         21.930419   0.000000
    110         21.985017   0.000000
    111         22.013361   0.000000
    112         22.136977   0.000000
    113         22.456644   0.000000
    114         22.625706   0.000000
    115         22.714295   0.000000
    116         22.812036   0.000000
    117         23.101076   0.000000
    118         23.134712   0.000000
    119         23.452603   0.000000
    120         23.454368   0.000000
    121         23.623269   0.000000
    122         23.671449   0.000000
    123         24.370001   0.000000
    124         24.555916   0.000000
    125         24.895325   0.000000
    126         25.102080   0.000000
    127         25.275647   0.000000
    128         25.355476   0.000000
    129         25.426739   0.000000
    130         25.535991   0.000000
    131         25.877578   0.000000
    132         25.942506   0.000000
    133         26.544713   0.000000
    134         26.731608   0.000000
    135         27.071194   0.000000
    136         27.134538   0.000000
    137         27.259687   0.000000
    138         27.367105   0.000000
    139         27.699488   0.000000
    140         27.755928   0.000000

  0.1428571E+00  0.0000000E+00  0.4285714E+00  0.1020408E-01
      1        -25.451740   1.000000
      2        -25.450636   1.000000
      3        -25.438377   1.000000
      4        -25.438218   1.000000
      5        -25.408837   1.000000
      6        -25.408749   1.000000
      7        -25.386267   1.000000
      8        -25.386098   1.000000
      9        -25.380862   1.000000
     10        -25.380676   1.000000
     11        -12.400392   1.000000
     12        -12.246403   1.000000
     13        -11.239114   1.000000
     14        -11.166499   1.000000
     15        -10.883401   1.000000
     16        -10.812620   1.000000
     17         -6.014560   1.000000
     18         -5.772122   1.000000
     19         -2.411817   1.000000
     20         -2.260826   1.000000
     21         -2.103725   1.000000
     22         -1.968531   1.000000
     23         -1.735098   1.000000
     24         -1.575386   1.000000
     25         -1.335883   1.000000
     26         -1.135423   1.000000
     27         -0.959742   1.000000
     28         -0.706972   1.000000
     29         -0.667901   1.000000
     30         -0.609437   1.000000
     31         -0.545948   1.000000
     32         -0.515998   1.000000
     33         -0.457107   1.000000
     34         -0.428428   1.000000
     35          0.542353   1.000000
     36          0.558799   1.000000
     37          0.571979   1.000000
     38          0.580491   1.000000
     39          0.625833   1.000000
     40          0.658897   1.000000
     41          0.676091   1.000000
     42          0.789321   1.000000
     43          0.861894   1.000000
     44          0.943646   1.000000
     45          1.006450   1.000000
     46          1.115404   1.000000
     47          1.498706   1.000000
     48          1.569016   1.000000
     49          1.882917   1.000000
     50          2.073981   1.000000
     51          2.393121   1.000000
     52          2.571486   1.000000
     53          2.795394   1.000000
     54          2.934998   1.000000
     55          5.163151   0.000000
     56          5.290736   0.000000
     57          6.635471   0.000000
     58          6.726412   0.000000
     59          7.809037   0.000000
     60          8.024330   0.000000
     61          8.466567   0.000000
     62          8.581441   0.000000
     63          9.073570   0.000000
     64          9.334565   0.000000
     65          9.569621   0.000000
     66          9.856008   0.000000
     67         10.119420   0.000000
     68         10.177919   0.000000
     69         10.434188   0.000000
     70         10.562198   0.000000
     71         10.971176   0.000000
     72         11.293722   0.000000
     73         11.552535   0.000000
     74         11.848816   0.000000
     75         12.253330   0.000000
     76         12.378923   0.000000
     77         12.472144   0.000000
     78         13.128358   0.000000
     79         13.424549   0.000000
     80         13.586006   0.000000
     81         13.850474   0.000000
     82         14.205788   0.000000
     83         14.366513   0.000000
     84         14.575621   0.000000
     85         14.905546   0.000000
     86         15.236349   0.000000
     87         15.341708   0.000000
     88         15.576171   0.000000
     89         15.726798   0.000000
     90         15.966078   0.000000
     91         16.569103   0.000000
     92         16.926467   0.000000
     93         17.192206   0.000000
     94         17.986914   0.000000
     95         18.284905   0.000000
     96         18.511931   0.000000
     97         18.902739   0.000000
     98         19.057250   0.000000
     99         19.414918   0.000000
    100         19.603648   0.000000
    101         20.003087   0.000000
    102         20.143507   0.000000
    103         20.284786   0.000000
    104         20.470680   0.000000
    105         20.776378   0.000000
    106         20.977025   0.000000
    107         21.068680   0.000000
    108         21.413310   0.000000
    109         21.514868   0.000000
    110         21.743919   0.000000
    111         21.944600   0.000000
    112         22.220677   0.000000
    113         22.285633   0.000000
    114         22.648672   0.000000
    115         22.777960   0.000000
    116         22.889740   0.000000
    117         22.978562   0.000000
    118         23.200587   0.000000
    119         23.451045   0.000000
    120         23.664859   0.000000
    121         23.954294   0.000000
    122         24.239706   0.000000
    123         24.472315   0.000000
    124         24.742310   0.000000
    125         24.899938   0.000000
    126         25.004261   0.000000
    127         25.250029   0.000000
    128         25.428536   0.000000
    129         25.542695   0.000000
    130         25.639969   0.000000
    131         25.873322   0.000000
    132         26.131542   0.000000
    133         26.242543   0.000000
    134         26.514882   0.000000
    135         26.651139   0.000000
    136         26.808795   0.000000
    137         27.107453   0.000000
    138         27.525823   0.000000
    139         27.611620   0.000000
    140         27.773109   0.000000

  0.2857143E+00  0.0000000E+00  0.4285714E+00  0.1020408E-01
      1        -25.451783   1.000000
      2        -25.450674   1.000000
      3        -25.438399   1.000000
      4        -25.438236   1.000000
      5        -25.408818   1.000000
      6        -25.408727   1.000000
      7        -25.386235   1.000000
      8        -25.386069   1.000000
      9        -25.380834   1.000000
     10        -25.380642   1.000000
     11        -12.308262   1.000000
     12        -12.212651   1.000000
     13        -11.313296   1.000000
     14        -11.191592   1.000000
     15        -10.961099   1.000000
     16        -10.842596   1.000000
     17         -6.001197   1.000000
     18         -5.717895   1.000000
     19         -2.601004   1.000000
     20         -2.179660   1.000000
     21         -2.088541   1.000000
     22         -1.992180   1.000000
     23         -1.605242   1.000000
     24         -1.393489   1.000000
     25         -1.277728   1.000000
     26         -1.010854   1.000000
     27         -0.844120   1.000000
     28         -0.793832   1.000000
     29         -0.669830   1.000000
     30         -0.619114   1.000000
     31         -0.545928   1.000000
     32         -0.514898   1.000000
     33         -0.462523   1.000000
     34         -0.402084   1.000000
     35          0.523125   1.000000
     36          0.534851   1.000000
     37          0.568433   1.000000
     38          0.588931   1.000000
     39          0.605474   1.000000
     40          0.642386   1.000000
     41          0.665676   1.000000
     42          0.748370   1.000000
     43          0.960996   1.000000
     44          1.048840   1.000000
     45          1.219801   1.000000
     46          1.268341   1.000000
     47          1.448577   1.000000
     48          1.631435   1.000000
     49          1.652884   1.000000
     50          1.984207   1.000000
     51          2.235357   1.000000
     52          2.394168   1.000000
     53          2.669843   1.000000
     54          2.788969   1.000000
     55          5.180125   0.000000
     56          5.396993   0.000000
     57          6.593227   0.000000
     58          6.900217   0.000000
     59          7.416847   0.000000
     60          7.811644   0.000000
     61          8.220176   0.000000
     62          8.478802   0.000000
     63          8.934491   0.000000
     64          9.170025   0.000000
     65          9.440172   0.000000
     66          9.674604   0.000000
     67          9.881669   0.000000
     68         10.039607   0.000000
     69         10.287180   0.000000
     70         10.493243   0.000000
     71         10.976234   0.000000
     72         11.086576   0.000000
     73         11.482055   0.000000
     74         11.840443   0.000000
     75         12.389655   0.000000
     76         12.547430   0.000000
     77         12.914482   0.000000
     78         13.251441   0.000000
     79         13.434263   0.000000
     80         13.862032   0.000000
     81         14.005825   0.000000
     82         14.667494   0.000000
     83         14.887494   0.000000
     84         15.212635   0.000000
     85         15.496417   0.000000
     86         15.729747   0.000000
     87         15.909668   0.000000
     88         16.126845   0.000000
     89         16.460092   0.000000
     90         16.807889   0.000000
     91         17.062161   0.000000
     92         17.484416   0.000000
     93         17.544901   0.000000
     94         17.654022   0.000000
     95         17.982401   0.000000
     96         18.078096   0.000000
     97         18.274091   0.000000
     98         18.643452   0.000000
     99         18.750221   0.000000
    100         19.117840   0.000000
    101         19.417136   0.000000
    102         19.567015   0.000000
    103         20.017959   0.000000
    104         20.135686   0.000000
    105         20.313588   0.000000
    106         20.492449   0.000000
    107         20.870930   0.000000
    108         21.089488   0.000000
    109         21.261820   0.000000
    110         21.414554   0.000000
    111         21.782630   0.000000
    112         21.926405   0.000000
    113         22.105305   0.000000
    114         22.443917   0.000000
    115         22.556778   0.000000
    116         22.779099   0.000000
    117         23.060283   0.000000
    118         23.372372   0.000000
    119         23.433797   0.000000
    120         23.761125   0.000000
    121         23.855392   0.000000
    122         24.086051   0.000000
    123         24.442581   0.000000
    124         24.570604   0.000000
    125         24.701605   0.000000
    126         24.990556   0.000000
    127         25.336302   0.000000
    128         25.631537   0.000000
    129         25.933295   0.000000
    130         26.167558   0.000000
    131         26.266145   0.000000
    132         26.349409   0.000000
    133         26.527967   0.000000
    134         26.618630   0.000000
    135         26.794471   0.000000
    136         26.994810   0.000000
    137         27.085459   0.000000
    138         27.258031   0.000000
    139         27.454039   0.000000
    140         27.828653   0.000000

  0.4285714E+00  0.0000000E+00  0.4285714E+00  0.1020408E-01
      1        -25.451840   1.000000
      2        -25.450735   1.000000
      3        -25.438446   1.000000
      4        -25.438269   1.000000
      5        -25.408846   1.000000
      6        -25.408716   1.000000
      7        -25.386244   1.000000
      8        -25.386061   1.000000
      9        -25.380834   1.000000
     10        -25.380639   1.000000
     11        -12.286639   1.000000
     12        -12.131539   1.000000
     13        -11.317125   1.000000
     14        -11.215545   1.000000
     15        -11.052726   1.000000
     16        -10.886319   1.000000
     17         -5.974298   1.000000
     18         -5.707311   1.000000
     19         -2.738318   1.000000
     20         -2.159956   1.000000
     21         -2.103218   1.000000
     22         -1.879394   1.000000
     23         -1.637255   1.000000
     24         -1.291250   1.000000
     25         -1.124984   1.000000
     26         -1.020137   1.000000
     27         -0.877513   1.000000
     28         -0.720212   1.000000
     29         -0.678968   1.000000
     30         -0.567334   1.000000
     31         -0.519620   1.000000
     32         -0.503000   1.000000
     33         -0.455810   1.000000
     34         -0.379551   1.000000
     35          0.448548   1.000000
     36          0.505128   1.000000
     37          0.577041   1.000000
     38          0.597114   1.000000
     39          0.613964   1.000000
     40          0.651285   1.000000
     41          0.690451   1.000000
     42          0.735500   1.000000
     43          0.960407   1.000000
     44          1.127106   1.000000
     45          1.221605   1.000000
     46          1.331927   1.000000
     47          1.405555   1.000000
     48          1.620630   1.000000
     49          1.788678   1.000000
     50          1.953217   1.000000
     51          2.259000   1.000000
     52          2.417799   1.000000
     53          2.640248   1.000000
     54          2.770785   1.000000
     55          4.895896   0.000000
     56          5.299912   0.000000
     57          6.155379   0.000000
     58          6.867154   0.000000
     59          7.280764   0.000000
     60          7.567437   0.000000
     61          8.005831   0.000000
     62          8.161003   0.000000
     63          8.744757   0.000000
     64          9.084082   0.000000
     65          9.489365   0.000000
     66          9.737344   0.000000
     67          9.798026   0.000000
     68         10.075989   0.000000
     69         10.361245   0.000000
     70         10.495570   0.000000
     71         10.602253   0.000000
     72         11.095898   0.000000
     73         11.652151   0.000000
     74         12.102185   0.000000
     75         12.652634   0.000000
     76         12.964342   0.000000
     77         13.315798   0.000000
     78         13.555495   0.000000
     79         13.793222   0.000000
     80         14.091905   0.000000
     81         14.535798   0.000000
     82         14.803642   0.000000
     83         15.023985   0.000000
     84         15.310765   0.000000
     85         15.680008   0.000000
     86         15.935165   0.000000
     87         16.090937   0.000000
     88         16.356693   0.000000
     89         16.670309   0.000000
     90         16.775958   0.000000
     91         17.161266   0.000000
     92         17.465343   0.000000
     93         17.633322   0.000000
     94         17.882385   0.000000
     95         18.031174   0.000000
     96         18.293743   0.000000
     97         18.378232   0.000000
     98         18.636048   0.000000
     99         18.904767   0.000000
    100         18.979830   0.000000
    101         19.107759   0.000000
    102         19.421830   0.000000
    103         19.527312   0.000000
    104         19.778172   0.000000
    105         19.995910   0.000000
    106         20.208762   0.000000
    107         20.430594   0.000000
    108         20.797087   0.000000
    109         20.979674   0.000000
    110         21.187622   0.000000
    111         21.361140   0.000000
    112         21.635587   0.000000
    113         21.987416   0.000000
    114         22.193135   0.000000
    115         22.487469   0.000000
    116         22.803599   0.000000
    117         22.888947   0.000000
    118         23.140364   0.000000
    119         23.370556   0.000000
    120         23.512984   0.000000
    121         23.682826   0.000000
    122         23.852279   0.000000
    123         24.567140   0.000000
    124         24.699669   0.000000
    125         24.876443   0.000000
    126         25.123147   0.000000
    127         25.286479   0.000000
    128         25.491666   0.000000
    129         25.755224   0.000000
    130         26.076960   0.000000
    131         26.277724   0.000000
    132         26.457973   0.000000
    133         26.567885   0.000000
    134         26.674660   0.000000
    135         26.791535   0.000000
    136         26.988153   0.000000
    137         27.172975   0.000000
    138         27.345295   0.000000
    139         27.635402   0.000000
    140         27.846866   0.000000

 -0.4285714E+00  0.0000000E+00  0.4285714E+00  0.1020408E-01
      1        -25.451883   1.000000
      2        -25.450774   1.000000
      3        -25.438477   1.000000
      4        -25.438299   1.000000
      5        -25.408882   1.000000
      6        -25.408739   1.000000
      7        -25.386267   1.000000
      8        -25.386080   1.000000
      9        -25.380861   1.000000
     10        -25.380666   1.000000
     11        -12.353413   1.000000
     12        -12.063537   1.000000
     13        -11.290530   1.000000
     14        -11.191199   1.000000
     15        -11.093264   1.000000
     16        -10.890134   1.000000
     17         -5.959250   1.000000
     18         -5.755475   1.000000
     19         -2.792491   1.000000
     20         -2.250864   1.000000
     21         -2.170579   1.000000
     22         -1.758337   1.000000
     23         -1.439771   1.000000
     24         -1.357174   1.000000
     25         -1.161541   1.000000
     26         -1.012662   1.000000
     27         -0.863184   1.000000
     28         -0.702371   1.000000
     29         -0.669216   1.000000
     30         -0.578432   1.000000
     31         -0.537008   1.000000
     32         -0.500718   1.000000
     33         -0.440004   1.000000
     34         -0.373759   1.000000
     35          0.439210   1.000000
     36          0.489035   1.000000
     37          0.579710   1.000000
     38          0.599045   1.000000
     39          0.635576   1.000000
     40          0.651131   1.000000
     41          0.688868   1.000000
     42          0.704441   1.000000
     43          0.950903   1.000000
     44          1.093155   1.000000
     45          1.260205   1.000000
     46          1.298170   1.000000
     47          1.455723   1.000000
     48          1.661492   1.000000
     49          1.871542   1.000000
     50          2.048387   1.000000
     51          2.207991   1.000000
     52          2.460675   1.000000
     53          2.619091   1.000000
     54          2.782804   1.000000
     55          4.816662   0.000000
     56          5.245495   0.000000
     57          6.141118   0.000000
     58          6.780822   0.000000
     59          7.183763   0.000000
     60          7.418136   0.000000
     61          7.910734   0.000000
     62          8.156425   0.000000
     63          8.734962   0.000000
     64          8.989542   0.000000
     65          9.442819   0.000000
     66          9.760035   0.000000
     67          9.999182   0.000000
     68         10.161631   0.000000
     69         10.365729   0.000000
     70         10.491416   0.000000
     71         10.597173   0.000000
     72         10.950938   0.000000
     73         11.792020   0.000000
     74         12.220432   0.000000
     75         12.581018   0.000000
     76         12.849871   0.000000
     77         13.225014   0.000000
     78         13.901433   0.000000
     79         14.222874   0.000000
     80         14.325213   0.000000
     81         14.571041   0.000000
     82         14.912996   0.000000
     83         15.098604   0.000000
     84         15.249088   0.000000
     85         15.671216   0.000000
     86         15.812420   0.000000
     87         16.066080   0.000000
     88         16.451445   0.000000
     89         16.737502   0.000000
     90         16.878718   0.000000
     91         17.269427   0.000000
     92         17.403484   0.000000
     93         17.574386   0.000000
     94         17.774889   0.000000
     95         17.989895   0.000000
     96         18.120585   0.000000
     97         18.307773   0.000000
     98         18.614748   0.000000
     99         18.831775   0.000000
    100         18.886497   0.000000
    101         19.041299   0.000000
    102         19.101007   0.000000
    103         19.357040   0.000000
    104         19.667772   0.000000
    105         19.714835   0.000000
    106         20.155723   0.000000
    107         20.434929   0.000000
    108         20.736857   0.000000
    109         20.910262   0.000000
    110         21.125918   0.000000
    111         21.354178   0.000000
    112         21.671399   0.000000
    113         21.754692   0.000000
    114         21.982100   0.000000
    115         22.339520   0.000000
    116         23.146253   0.000000
    117         23.230883   0.000000
    118         23.465687   0.000000
    119         23.637983   0.000000
    120         23.687000   0.000000
    121         23.822012   0.000000
    122         24.209623   0.000000
    123         24.466040   0.000000
    124         24.794943   0.000000
    125         24.921527   0.000000
    126         25.129424   0.000000
    127         25.315086   0.000000
    128         25.566782   0.000000
    129         25.694582   0.000000
    130         25.861864   0.000000
    131         26.096238   0.000000
    132         26.380253   0.000000
    133         26.520709   0.000000
    134         26.701100   0.000000
    135         26.834012   0.000000
    136         26.916991   0.000000
    137         27.114696   0.000000
    138         27.388052   0.000000
    139         27.407634   0.000000
    140         27.508703   0.000000

 -0.2857143E+00  0.0000000E+00  0.4285714E+00  0.1020408E-01
      1        -25.451889   1.000000
      2        -25.450768   1.000000
      3        -25.438476   1.000000
      4        -25.438315   1.000000
      5        -25.408913   1.000000
      6        -25.408787   1.000000
      7        -25.386307   1.000000
      8        -25.386130   1.000000
      9        -25.380901   1.000000
     10        -25.380718   1.000000
     11        -12.444021   1.000000
     12        -12.067901   1.000000
     13        -11.296187   1.000000
     14        -11.165352   1.000000
     15        -10.982487   1.000000
     16        -10.854935   1.000000
     17         -5.971957   1.000000
     18         -5.822693   1.000000
     19         -2.729907   1.000000
     20         -2.384399   1.000000
     21         -2.161530   1.000000
     22         -1.769177   1.000000
     23         -1.471437   1.000000
     24         -1.335276   1.000000
     25         -1.210675   1.000000
     26         -1.006980   1.000000
     27         -0.875571   1.000000
     28         -0.745630   1.000000
     29         -0.650979   1.000000
     30         -0.603506   1.000000
     31         -0.574795   1.000000
     32         -0.536537   1.000000
     33         -0.443680   1.000000
     34         -0.391426   1.000000
     35          0.496773   1.000000
     36          0.508336   1.000000
     37          0.572593   1.000000
     38          0.593889   1.000000
     39          0.620858   1.000000
     40          0.633494   1.000000
     41          0.679211   1.000000
     42          0.700216   1.000000
     43          0.983194   1.000000
     44          1.090982   1.000000
     45          1.119552   1.000000
     46          1.342261   1.000000
     47          1.502300   1.000000
     48          1.716100   1.000000
     49          1.802815   1.000000
     50          2.090960   1.000000
     51          2.230447   1.000000
     52          2.434764   1.000000
     53          2.585262   1.000000
     54          2.826561   1.000000
     55          5.083365   0.000000
     56          5.275435   0.000000
     57          6.539692   0.000000
     58          6.757855   0.000000
     59          7.138985   0.000000
     60          7.442648   0.000000
     61          8.045149   0.000000
     62          8.520713   0.000000
     63          8.821106   0.000000
     64          9.067067   0.000000
     65          9.518817   0.000000
     66          9.615347   0.000000
     67          9.862400   0.000000
     68         10.117799   0.000000
     69         10.189203   0.000000
     70         10.476518   0.000000
     71         11.011987   0.000000
     72         11.228176   0.000000
     73         11.629342   0.000000
     74         11.984634   0.000000
     75         12.503745   0.000000
     76         12.649417   0.000000
     77         13.167993   0.000000
     78         13.710854   0.000000
     79         14.043466   0.000000
     80         14.137317   0.000000
     81         14.408231   0.000000
     82         14.636767   0.000000
     83         14.934112   0.000000
     84         15.086819   0.000000
     85         15.352844   0.000000
     86         15.521267   0.000000
     87         16.114365   0.000000
     88         16.260573   0.000000
     89         16.608747   0.000000
     90         16.826793   0.000000
     91         17.071318   0.000000
     92         17.202121   0.000000
     93         17.389267   0.000000
     94         17.694155   0.000000
     95         17.869190   0.000000
     96         18.067377   0.000000
     97         18.201957   0.000000
     98         18.326541   0.000000
     99         18.645734   0.000000
    100         18.863436   0.000000
    101         19.128218   0.000000
    102         19.262480   0.000000
    103         19.574634   0.000000
    104         19.828179   0.000000
    105         20.126779   0.000000
    106         20.453533   0.000000
    107         20.565928   0.000000
    108         20.799153   0.000000
    109         20.979091   0.000000
    110         21.121104   0.000000
    111         21.773263   0.000000
    112         21.989422   0.000000
    113         22.458732   0.000000
    114         22.602095   0.000000
    115         22.688739   0.000000
    116         22.834693   0.000000
    117         23.197888   0.000000
    118         23.528443   0.000000
    119         23.674248   0.000000
    120         23.922028   0.000000
    121         24.291231   0.000000
    122         24.382547   0.000000
    123         24.566141   0.000000
    124         24.794152   0.000000
    125         25.062491   0.000000
    126         25.168566   0.000000
    127         25.385720   0.000000
    128         25.551112   0.000000
    129         25.724379   0.000000
    130         25.851982   0.000000
    131         26.130527   0.000000
    132         26.331084   0.000000
    133         26.442679   0.000000
    134         26.651102   0.000000
    135         26.756374   0.000000
    136         26.861264   0.000000
    137         27.131979   0.000000
    138         27.528661   0.000000
    139         27.626737   0.000000
    140         27.765454   0.000000

 -0.1428571E+00  0.0000000E+00  0.4285714E+00  0.1020408E-01
      1        -25.451838   1.000000
      2        -25.450718   1.000000
      3        -25.438445   1.000000
      4        -25.438290   1.000000
      5        -25.408915   1.000000
      6        -25.408812   1.000000
      7        -25.386324   1.000000
      8        -25.386154   1.000000
      9        -25.380916   1.000000
     10        -25.380746   1.000000
     11        -12.494844   1.000000
     12        -12.142254   1.000000
     13        -11.252768   1.000000
     14        -11.139147   1.000000
     15        -10.884834   1.000000
     16        -10.818570   1.000000
     17         -5.996392   1.000000
     18         -5.852257   1.000000
     19         -2.555482   1.000000
     20         -2.372872   1.000000
     21         -2.106956   1.000000
     22         -1.966933   1.000000
     23         -1.649662   1.000000
     24         -1.425521   1.000000
     25         -1.309610   1.000000
     26         -1.141442   1.000000
     27         -0.860879   1.000000
     28         -0.735283   1.000000
     29         -0.636514   1.000000
     30         -0.596680   1.000000
     31         -0.555352   1.000000
     32         -0.547437   1.000000
     33         -0.442248   1.000000
     34         -0.425541   1.000000
     35          0.531070   1.000000
     36          0.550880   1.000000
     37          0.575742   1.000000
     38          0.596045   1.000000
     39          0.611055   1.000000
     40          0.643243   1.000000
     41          0.697457   1.000000
     42          0.720098   1.000000
     43          0.903471   1.000000
     44          0.949877   1.000000
     45          1.047337   1.000000
     46          1.256870   1.000000
     47          1.350628   1.000000
     48          1.827149   1.000000
     49          1.865349   1.000000
     50          2.076246   1.000000
     51          2.344928   1.000000
     52          2.630494   1.000000
     53          2.718331   1.000000
     54          2.995276   1.000000
     55          5.159413   0.000000
     56          5.210334   0.000000
     57          6.562957   0.000000
     58          6.617376   0.000000
     59          7.534843   0.000000
     60          7.689858   0.000000
     61          8.339905   0.000000
     62          8.638163   0.000000
     63          9.086294   0.000000
     64          9.315984   0.000000
     65          9.492776   0.000000
     66          9.685673   0.000000
     67          9.917965   0.000000
     68         10.077223   0.000000
     69         10.288915   0.000000
     70         10.580465   0.000000
     71         11.142552   0.000000
     72         11.429868   0.000000
     73         11.907807   0.000000
     74         12.159453   0.000000
     75         12.436817   0.000000
     76         12.719840   0.000000
     77         13.041735   0.000000
     78         13.263498   0.000000
     79         13.501501   0.000000
     80         13.840759   0.000000
     81         13.946641   0.000000
     82         14.064914   0.000000
     83         14.178773   0.000000
     84         14.514739   0.000000
     85         14.890511   0.000000
     86         15.230553   0.000000
     87         15.380211   0.000000
     88         15.608316   0.000000
     89         16.080755   0.000000
     90         16.184523   0.000000
     91         16.557231   0.000000
     92         16.672451   0.000000
     93         17.058088   0.000000
     94         17.333760   0.000000
     95         18.092202   0.000000
     96         18.274667   0.000000
     97         18.703124   0.000000
     98         18.970222   0.000000
     99         19.216956   0.000000
    100         19.528205   0.000000
    101         19.672625   0.000000
    102         20.090427   0.000000
    103         20.344255   0.000000
    104         20.697071   0.000000
    105         20.851894   0.000000
    106         21.023387   0.000000
    107         21.186104   0.000000
    108         21.285580   0.000000
    109         21.597240   0.000000
    110         21.734260   0.000000
    111         21.927354   0.000000
    112         22.094039   0.000000
    113         22.251637   0.000000
    114         22.323482   0.000000
    115         22.577829   0.000000
    116         22.854765   0.000000
    117         23.102152   0.000000
    118         23.247333   0.000000
    119         23.502215   0.000000
    120         23.567921   0.000000
    121         23.858862   0.000000
    122         23.992957   0.000000
    123         24.325700   0.000000
    124         24.490277   0.000000
    125         24.716718   0.000000
    126         25.389118   0.000000
    127         25.492123   0.000000
    128         25.735678   0.000000
    129         25.851155   0.000000
    130         26.003127   0.000000
    131         26.275099   0.000000
    132         26.370935   0.000000
    133         26.571799   0.000000
    134         26.689567   0.000000
    135         26.954986   0.000000
    136         27.189566   0.000000
    137         27.322061   0.000000
    138         27.387543   0.000000
    139         27.565378   0.000000
    140         27.767625   0.000000

  0.0000000E+00  0.2500000E+00  0.4285714E+00  0.2040816E-01
      1        -25.451880   1.000000
      2        -25.450758   1.000000
      3        -25.438474   1.000000
      4        -25.438314   1.000000
      5        -25.408916   1.000000
      6        -25.408800   1.000000
      7        -25.386319   1.000000
      8        -25.386140   1.000000
      9        -25.380907   1.000000
     10        -25.380729   1.000000
     11        -12.462132   1.000000
     12        -12.082228   1.000000
     13        -11.290752   1.000000
     14        -11.156049   1.000000
     15        -10.954360   1.000000
     16        -10.843723   1.000000
     17         -5.978022   1.000000
     18         -5.835201   1.000000
     19         -2.694316   1.000000
     20         -2.395767   1.000000
     21         -2.144197   1.000000
     22         -1.829998   1.000000
     23         -1.515876   1.000000
     24         -1.323932   1.000000
     25         -1.229708   1.000000
     26         -1.025977   1.000000
     27         -0.874529   1.000000
     28         -0.746609   1.000000
     29         -0.657381   1.000000
     30         -0.592520   1.000000
     31         -0.578891   1.000000
     32         -0.545059   1.000000
     33         -0.443127   1.000000
     34         -0.399714   1.000000
     35          0.509070   1.000000
     36          0.521763   1.000000
     37          0.569936   1.000000
     38          0.595209   1.000000
     39          0.617767   1.000000
     40          0.629626   1.000000
     41          0.681030   1.000000
     42          0.704827   1.000000
     43          0.959821   1.000000
     44          1.051375   1.000000
     45          1.147718   1.000000
     46          1.285742   1.000000
     47          1.516163   1.000000
     48          1.706738   1.000000
     49          1.832210   1.000000
     50          2.108251   1.000000
     51          2.227244   1.000000
     52          2.433029   1.000000
     53          2.611864   1.000000
     54          2.874192   1.000000
     55          5.136110   0.000000
     56          5.279522   0.000000
     57          6.595646   0.000000
     58          6.742272   0.000000
     59          7.177655   0.000000
     60          7.482044   0.000000
     61          8.113487   0.000000
     62          8.623982   0.000000
     63          8.856575   0.000000
     64          9.128499   0.000000
     65          9.509223   0.000000
     66          9.580293   0.000000
     67          9.828691   0.000000
     68         10.111225   0.000000
     69         10.209056   0.000000
     70         10.509619   0.000000
     71         11.062008   0.000000
     72         11.241107   0.000000
     73         11.671225   0.000000
     74         12.038682   0.000000
     75         12.483462   0.000000
     76         12.709196   0.000000
     77         13.070915   0.000000
     78         13.585411   0.000000
     79         13.907774   0.000000
     80         14.041790   0.000000
     81         14.299376   0.000000
     82         14.488351   0.000000
     83         14.768029   0.000000
     84         14.962824   0.000000
     85         15.293613   0.000000
     86         15.525880   0.000000
     87         15.978200   0.000000
     88         16.087184   0.000000
     89         16.448895   0.000000
     90         16.743875   0.000000
     91         16.998882   0.000000
     92         17.159703   0.000000
     93         17.335728   0.000000
     94         17.621037   0.000000
     95         17.807633   0.000000
     96         18.061927   0.000000
     97         18.172974   0.000000
     98         18.312647   0.000000
     99         18.734613   0.000000
    100         19.043887   0.000000
    101         19.181218   0.000000
    102         19.446359   0.000000
    103         19.846919   0.000000
    104         19.963270   0.000000
    105         20.252939   0.000000
    106         20.549349   0.000000
    107         20.748307   0.000000
    108         20.985057   0.000000
    109         21.188680   0.000000
    110         21.342926   0.000000
    111         21.807735   0.000000
    112         22.001186   0.000000
    113         22.319748   0.000000
    114         22.597843   0.000000
    115         22.711216   0.000000
    116         22.889869   0.000000
    117         23.065179   0.000000
    118         23.603782   0.000000
    119         23.901019   0.000000
    120         24.023672   0.000000
    121         24.116886   0.000000
    122         24.247313   0.000000
    123         24.430468   0.000000
    124         24.596155   0.000000
    125         24.925402   0.000000
    126         25.134073   0.000000
    127         25.350612   0.000000
    128         25.488585   0.000000
    129         25.791808   0.000000
    130         25.966628   0.000000
    131         26.205715   0.000000
    132         26.396632   0.000000
    133         26.520643   0.000000
    134         26.783343   0.000000
    135         26.839979   0.000000
    136         26.971891   0.000000
    137         27.243983   0.000000
    138         27.565202   0.000000
    139         27.682461   0.000000
    140         27.823201   0.000000

  0.1428571E+00  0.2500000E+00  0.4285714E+00  0.2040816E-01
      1        -25.451848   1.000000
      2        -25.450735   1.000000
      3        -25.438462   1.000000
      4        -25.438305   1.000000
      5        -25.408944   1.000000
      6        -25.408824   1.000000
      7        -25.386346   1.000000
      8        -25.386170   1.000000
      9        -25.380945   1.000000
     10        -25.380761   1.000000
     11        -12.441872   1.000000
     12        -12.127549   1.000000
     13        -11.292684   1.000000
     14        -11.167595   1.000000
     15        -10.902785   1.000000
     16        -10.852809   1.000000
     17         -5.963253   1.000000
     18         -5.803915   1.000000
     19         -2.604711   1.000000
     20         -2.292024   1.000000
     21         -2.154207   1.000000
     22         -1.891751   1.000000
     23         -1.612884   1.000000
     24         -1.373381   1.000000
     25         -1.281211   1.000000
     26         -1.047619   1.000000
     27         -0.937224   1.000000
     28         -0.806924   1.000000
     29         -0.646417   1.000000
     30         -0.594767   1.000000
     31         -0.551146   1.000000
     32         -0.514817   1.000000
     33         -0.437729   1.000000
     34         -0.411831   1.000000
     35          0.513501   1.000000
     36          0.535629   1.000000
     37          0.574253   1.000000
     38          0.591369   1.000000
     39          0.628707   1.000000
     40          0.659132   1.000000
     41          0.679671   1.000000
     42          0.742737   1.000000
     43          0.929790   1.000000
     44          1.020576   1.000000
     45          1.082447   1.000000
     46          1.267672   1.000000
     47          1.407937   1.000000
     48          1.728944   1.000000
     49          1.818580   1.000000
     50          2.065559   1.000000
     51          2.256501   1.000000
     52          2.371505   1.000000
     53          2.421832   1.000000
     54          3.039265   1.000000
     55          5.204900   0.000000
     56          5.348792   0.000000
     57          6.673869   0.000000
     58          6.763360   0.000000
     59          7.573615   0.000000
     60          7.825225   0.000000
     61          8.176078   0.000000
     62          8.718236   0.000000
     63          9.061254   0.000000
     64          9.239751   0.000000
     65          9.520987   0.000000
     66          9.586524   0.000000
     67          9.909476   0.000000
     68         10.082474   0.000000
     69         10.329652   0.000000
     70         10.556813   0.000000
     71         10.810600   0.000000
     72         11.125848   0.000000
     73         11.457235   0.000000
     74         12.176278   0.000000
     75         12.364733   0.000000
     76         12.656627   0.000000
     77         12.943509   0.000000
     78         13.229283   0.000000
     79         13.627540   0.000000
     80         13.780439   0.000000
     81         14.033980   0.000000
     82         14.369187   0.000000
     83         14.521852   0.000000
     84         14.790649   0.000000
     85         15.049045   0.000000
     86         15.548755   0.000000
     87         15.788523   0.000000
     88         16.001974   0.000000
     89         16.470063   0.000000
     90         16.554622   0.000000
     91         16.733284   0.000000
     92         17.059966   0.000000
     93         17.184470   0.000000
     94         17.542414   0.000000
     95         17.931302   0.000000
     96         18.061123   0.000000
     97         18.685267   0.000000
     98         18.852033   0.000000
     99         19.052435   0.000000
    100         19.272657   0.000000
    101         19.369957   0.000000
    102         19.630984   0.000000
    103         19.826840   0.000000
    104         20.058539   0.000000
    105         20.312073   0.000000
    106         20.501829   0.000000
    107         21.076902   0.000000
    108         21.168311   0.000000
    109         21.645790   0.000000
    110         21.808808   0.000000
    111         22.008373   0.000000
    112         22.144724   0.000000
    113         22.266785   0.000000
    114         22.641535   0.000000
    115         22.817780   0.000000
    116         22.919792   0.000000
    117         23.021473   0.000000
    118         23.323130   0.000000
    119         23.415632   0.000000
    120         23.561790   0.000000
    121         23.915624   0.000000
    122         24.120002   0.000000
    123         24.288178   0.000000
    124         24.681378   0.000000
    125         25.084535   0.000000
    126         25.254994   0.000000
    127         25.431763   0.000000
    128         25.514175   0.000000
    129         25.702266   0.000000
    130         26.017397   0.000000
    131         26.263087   0.000000
    132         26.449222   0.000000
    133         26.662412   0.000000
    134         26.920351   0.000000
    135         27.081867   0.000000
    136         27.124653   0.000000
    137         27.359250   0.000000
    138         27.458439   0.000000
    139         27.524444   0.000000
    140         27.672550   0.000000

  0.2857143E+00  0.2500000E+00  0.4285714E+00  0.2040816E-01
      1        -25.451855   1.000000
      2        -25.450745   1.000000
      3        -25.438484   1.000000
      4        -25.438328   1.000000
      5        -25.408951   1.000000
      6        -25.408854   1.000000
      7        -25.386364   1.000000
      8        -25.386194   1.000000
      9        -25.380966   1.000000
     10        -25.380785   1.000000
     11        -12.364774   1.000000
     12        -12.146591   1.000000
     13        -11.304551   1.000000
     14        -11.226760   1.000000
     15        -10.927788   1.000000
     16        -10.864749   1.000000
     17         -5.950367   1.000000
     18         -5.717984   1.000000
     19         -2.516630   1.000000
     20         -2.392387   1.000000
     21         -2.083756   1.000000
     22         -1.791679   1.000000
     23         -1.555174   1.000000
     24         -1.439858   1.000000
     25         -1.205463   1.000000
     26         -1.162412   1.000000
     27         -0.900192   1.000000
     28         -0.875805   1.000000
     29         -0.654869   1.000000
     30         -0.627344   1.000000
     31         -0.522166   1.000000
     32         -0.481371   1.000000
     33         -0.445685   1.000000
     34         -0.416369   1.000000
     35          0.525626   1.000000
     36          0.547485   1.000000
     37          0.550744   1.000000
     38          0.575273   1.000000
     39          0.641115   1.000000
     40          0.646828   1.000000
     41          0.682921   1.000000
     42          0.737049   1.000000
     43          1.002600   1.000000
     44          1.040035   1.000000
     45          1.159944   1.000000
     46          1.238422   1.000000
     47          1.441447   1.000000
     48          1.609034   1.000000
     49          1.792372   1.000000
     50          1.971478   1.000000
     51          2.015449   1.000000
     52          2.296441   1.000000
     53          2.619402   1.000000
     54          2.653975   1.000000
     55          5.369465   0.000000
     56          5.451826   0.000000
     57          6.811705   0.000000
     58          6.838380   0.000000
     59          7.726162   0.000000
     60          7.934843   0.000000
     61          8.253166   0.000000
     62          8.442916   0.000000
     63          9.122513   0.000000
     64          9.255143   0.000000
     65          9.646897   0.000000
     66          9.815452   0.000000
     67          9.987236   0.000000
     68         10.099504   0.000000
     69         10.228957   0.000000
     70         10.440686   0.000000
     71         10.848805   0.000000
     72         11.054926   0.000000
     73         11.583025   0.000000
     74         11.657882   0.000000
     75         11.952007   0.000000
     76         12.176878   0.000000
     77         12.763410   0.000000
     78         13.319356   0.000000
     79         13.433989   0.000000
     80         13.626924   0.000000
     81         14.118690   0.000000
     82         14.324931   0.000000
     83         14.866457   0.000000
     84         15.160985   0.000000
     85         15.368177   0.000000
     86         15.684855   0.000000
     87         16.032414   0.000000
     88         16.296948   0.000000
     89         16.665142   0.000000
     90         16.991123   0.000000
     91         17.055512   0.000000
     92         17.331868   0.000000
     93         17.600752   0.000000
     94         17.726067   0.000000
     95         18.035547   0.000000
     96         18.146781   0.000000
     97         18.329096   0.000000
     98         18.464225   0.000000
     99         18.786551   0.000000
    100         18.950797   0.000000
    101         19.176242   0.000000
    102         19.385440   0.000000
    103         19.612837   0.000000
    104         19.742126   0.000000
    105         20.084426   0.000000
    106         20.599808   0.000000
    107         20.897794   0.000000
    108         21.015026   0.000000
    109         21.135092   0.000000
    110         21.366081   0.000000
    111         21.925853   0.000000
    112         22.042157   0.000000
    113         22.437323   0.000000
    114         22.739929   0.000000
    115         22.982954   0.000000
    116         23.162436   0.000000
    117         23.393135   0.000000
    118         23.583299   0.000000
    119         23.717774   0.000000
    120         23.827195   0.000000
    121         24.040723   0.000000
    122         24.425080   0.000000
    123         24.574040   0.000000
    124         24.805802   0.000000
    125         24.986570   0.000000
    126         25.340715   0.000000
    127         25.455422   0.000000
    128         25.631466   0.000000
    129         25.817922   0.000000
    130         25.952950   0.000000
    131         26.136643   0.000000
    132         26.231224   0.000000
    133         26.316339   0.000000
    134         26.556595   0.000000
    135         26.691523   0.000000
    136         26.730118   0.000000
    137         27.073624   0.000000
    138         27.210440   0.000000
    139         27.372521   0.000000
    140         27.510952   0.000000

  0.4285714E+00  0.2500000E+00  0.4285714E+00  0.2040816E-01
      1        -25.451896   1.000000
      2        -25.450787   1.000000
      3        -25.438516   1.000000
      4        -25.438361   1.000000
      5        -25.408941   1.000000
      6        -25.408856   1.000000
      7        -25.386353   1.000000
      8        -25.386187   1.000000
      9        -25.380956   1.000000
     10        -25.380770   1.000000
     11        -12.281073   1.000000
     12        -12.125069   1.000000
     13        -11.330394   1.000000
     14        -11.267007   1.000000
     15        -11.021345   1.000000
     16        -10.878184   1.000000
     17         -5.943127   1.000000
     18         -5.633824   1.000000
     19         -2.550615   1.000000
     20         -2.332936   1.000000
     21         -2.006233   1.000000
     22         -1.884806   1.000000
     23         -1.639326   1.000000
     24         -1.385877   1.000000
     25         -1.202280   1.000000
     26         -1.042946   1.000000
     27         -0.908016   1.000000
     28         -0.803632   1.000000
     29         -0.651857   1.000000
     30         -0.601657   1.000000
     31         -0.525713   1.000000
     32         -0.453597   1.000000
     33         -0.437491   1.000000
     34         -0.414673   1.000000
     35          0.494744   1.000000
     36          0.532314   1.000000
     37          0.576582   1.000000
     38          0.597391   1.000000
     39          0.641272   1.000000
     40          0.655906   1.000000
     41          0.690123   1.000000
     42          0.744348   1.000000
     43          0.975668   1.000000
     44          1.049001   1.000000
     45          1.218650   1.000000
     46          1.345005   1.000000
     47          1.493643   1.000000
     48          1.568978   1.000000
     49          1.740792   1.000000
     50          1.870548   1.000000
     51          1.978050   1.000000
     52          2.233813   1.000000
     53          2.450033   1.000000
     54          2.757563   1.000000
     55          5.302886   0.000000
     56          5.387020   0.000000
     57          6.546360   0.000000
     58          6.745581   0.000000
     59          7.592253   0.000000
     60          7.683968   0.000000
     61          8.030390   0.000000
     62          8.451686   0.000000
     63          8.939317   0.000000
     64          9.160526   0.000000
     65          9.478621   0.000000
     66          9.831184   0.000000
     67          9.938719   0.000000
     68         10.233739   0.000000
     69         10.543297   0.000000
     70         10.694199   0.000000
     71         10.979900   0.000000
     72         11.244721   0.000000
     73         11.753396   0.000000
     74         11.778675   0.000000
     75         12.052932   0.000000
     76         12.585603   0.000000
     77         12.817858   0.000000
     78         13.064397   0.000000
     79         13.405830   0.000000
     80         13.574975   0.000000
     81         14.054754   0.000000
     82         14.368320   0.000000
     83         14.866990   0.000000
     84         14.986836   0.000000
     85         15.762280   0.000000
     86         15.992364   0.000000
     87         16.170310   0.000000
     88         16.396196   0.000000
     89         16.691462   0.000000
     90         16.998722   0.000000
     91         17.165103   0.000000
     92         17.418880   0.000000
     93         17.544820   0.000000
     94         17.778650   0.000000
     95         18.038899   0.000000
     96         18.315411   0.000000
     97         18.468455   0.000000
     98         18.611043   0.000000
     99         18.931978   0.000000
    100         19.154161   0.000000
    101         19.324142   0.000000
    102         19.583148   0.000000
    103         19.739066   0.000000
    104         20.078181   0.000000
    105         20.131323   0.000000
    106         20.238875   0.000000
    107         20.685451   0.000000
    108         21.013250   0.000000
    109         21.441340   0.000000
    110         21.548004   0.000000
    111         21.660989   0.000000
    112         22.028691   0.000000
    113         22.253169   0.000000
    114         22.361615   0.000000
    115         22.480334   0.000000
    116         22.601531   0.000000
    117         22.807495   0.000000
    118         23.026431   0.000000
    119         23.250011   0.000000
    120         23.813808   0.000000
    121         23.851125   0.000000
    122         24.077665   0.000000
    123         24.376180   0.000000
    124         24.455562   0.000000
    125         24.649451   0.000000
    126         24.787847   0.000000
    127         25.030600   0.000000
    128         25.115542   0.000000
    129         25.402763   0.000000
    130         25.724100   0.000000
    131         25.967565   0.000000
    132         26.120043   0.000000
    133         26.410184   0.000000
    134         26.561037   0.000000
    135         26.846291   0.000000
    136         26.931179   0.000000
    137         27.043001   0.000000
    138         27.332872   0.000000
    139         27.445576   0.000000
    140         27.812249   0.000000

 -0.4285714E+00  0.2500000E+00  0.4285714E+00  0.2040816E-01
      1        -25.451937   1.000000
      2        -25.450822   1.000000
      3        -25.438535   1.000000
      4        -25.438382   1.000000
      5        -25.408918   1.000000
      6        -25.408832   1.000000
      7        -25.386325   1.000000
      8        -25.386159   1.000000
      9        -25.380915   1.000000
     10        -25.380743   1.000000
     11        -12.267116   1.000000
     12        -12.078897   1.000000
     13        -11.307990   1.000000
     14        -11.247354   1.000000
     15        -11.104374   1.000000
     16        -10.934260   1.000000
     17         -5.939124   1.000000
     18         -5.618151   1.000000
     19         -2.583966   1.000000
     20         -2.298007   1.000000
     21         -2.080792   1.000000
     22         -1.920829   1.000000
     23         -1.753451   1.000000
     24         -1.332151   1.000000
     25         -1.108522   1.000000
     26         -0.963066   1.000000
     27         -0.870007   1.000000
     28         -0.733909   1.000000
     29         -0.621276   1.000000
     30         -0.566765   1.000000
     31         -0.520646   1.000000
     32         -0.466991   1.000000
     33         -0.434556   1.000000
     34         -0.388549   1.000000
     35          0.420669   1.000000
     36          0.560103   1.000000
     37          0.604210   1.000000
     38          0.617162   1.000000
     39          0.648751   1.000000
     40          0.664060   1.000000
     41          0.704078   1.000000
     42          0.747706   1.000000
     43          0.888301   1.000000
     44          0.949375   1.000000
     45          1.245317   1.000000
     46          1.375196   1.000000
     47          1.516413   1.000000
     48          1.636131   1.000000
     49          1.715336   1.000000
     50          1.978787   1.000000
     51          2.109701   1.000000
     52          2.333101   1.000000
     53          2.508526   1.000000
     54          2.880005   1.000000
     55          5.002696   0.000000
     56          5.233483   0.000000
     57          6.177639   0.000000
     58          6.480138   0.000000
     59          7.294122   0.000000
     60          7.365753   0.000000
     61          7.832009   0.000000
     62          8.196807   0.000000
     63          8.597915   0.000000
     64          8.758504   0.000000
     65          9.593729   0.000000
     66          9.981892   0.000000
     67         10.229284   0.000000
     68         10.413810   0.000000
     69         10.741836   0.000000
     70         10.959886   0.000000
     71         11.287895   0.000000
     72         11.646497   0.000000
     73         11.926949   0.000000
     74         12.143670   0.000000
     75         12.549310   0.000000
     76         12.974187   0.000000
     77         13.081753   0.000000
     78         13.234211   0.000000
     79         13.478178   0.000000
     80         13.748607   0.000000
     81         14.065896   0.000000
     82         14.248039   0.000000
     83         14.583233   0.000000
     84         14.805535   0.000000
     85         15.029456   0.000000
     86         15.587299   0.000000
     87         15.781944   0.000000
     88         16.156358   0.000000
     89         16.557564   0.000000
     90         16.799085   0.000000
     91         17.094412   0.000000
     92         17.311911   0.000000
     93         17.554244   0.000000
     94         17.974427   0.000000
     95         18.357109   0.000000
     96         18.504999   0.000000
     97         18.928764   0.000000
     98         19.076172   0.000000
     99         19.499207   0.000000
    100         19.653391   0.000000
    101         19.789164   0.000000
    102         19.952178   0.000000
    103         20.320105   0.000000
    104         20.451757   0.000000
    105         20.631991   0.000000
    106         20.747351   0.000000
    107         20.909661   0.000000
    108         21.072026   0.000000
    109         21.201508   0.000000
    110         21.454763   0.000000
    111         21.583202   0.000000
    112         21.803388   0.000000
    113         21.928594   0.000000
    114         22.057497   0.000000
    115         22.227750   0.000000
    116         22.355171   0.000000
    117         22.406724   0.000000
    118         22.611363   0.000000
    119         22.757741   0.000000
    120         23.010271   0.000000
    121         23.154990   0.000000
    122         23.313150   0.000000
    123         23.483706   0.000000
    124         23.628335   0.000000
    125         24.007773   0.000000
    126         24.265611   0.000000
    127         24.426746   0.000000
    128         24.754956   0.000000
    129         24.993147   0.000000
    130         25.108377   0.000000
    131         25.436992   0.000000
    132         25.697890   0.000000
    133         26.544757   0.000000
    134         26.798010   0.000000
    135         27.055867   0.000000
    136         27.255355   0.000000
    137         27.376681   0.000000
    138         27.903911   0.000000
    139         28.220258   0.000000
    140         28.377579   0.000000

 -0.2857143E+00  0.2500000E+00  0.4285714E+00  0.2040816E-01
      1        -25.451951   1.000000
      2        -25.450831   1.000000
      3        -25.438528   1.000000
      4        -25.438382   1.000000
      5        -25.408895   1.000000
      6        -25.408815   1.000000
      7        -25.386292   1.000000
      8        -25.386137   1.000000
      9        -25.380885   1.000000
     10        -25.380719   1.000000
     11        -12.333030   1.000000
     12        -12.045567   1.000000
     13        -11.233468   1.000000
     14        -11.217228   1.000000
     15        -11.126609   1.000000
     16        -10.959798   1.000000
     17         -5.950762   1.000000
     18         -5.689387   1.000000
     19         -2.632904   1.000000
     20         -2.507646   1.000000
     21         -2.115339   1.000000
     22         -1.675568   1.000000
     23         -1.661611   1.000000
     24         -1.301622   1.000000
     25         -1.076489   1.000000
     26         -1.054897   1.000000
     27         -0.764496   1.000000
     28         -0.696119   1.000000
     29         -0.622377   1.000000
     30         -0.610159   1.000000
     31         -0.549769   1.000000
     32         -0.501805   1.000000
     33         -0.432727   1.000000
     34         -0.384425   1.000000
     35          0.393431   1.000000
     36          0.576522   1.000000
     37          0.595738   1.000000
     38          0.628647   1.000000
     39          0.635920   1.000000
     40          0.677706   1.000000
     41          0.679804   1.000000
     42          0.720160   1.000000
     43          0.893629   1.000000
     44          0.938828   1.000000
     45          1.091521   1.000000
     46          1.380145   1.000000
     47          1.508362   1.000000
     48          1.845521   1.000000
     49          1.878587   1.000000
     50          2.125187   1.000000
     51          2.214770   1.000000
     52          2.371452   1.000000
     53          2.483815   1.000000
     54          2.878148   1.000000
     55          4.903850   0.000000
     56          5.131384   0.000000
     57          6.179270   0.000000
     58          6.402228   0.000000
     59          7.132987   0.000000
     60          7.149627   0.000000
     61          7.746497   0.000000
     62          8.178660   0.000000
     63          8.496767   0.000000
     64          8.720764   0.000000
     65          9.369748   0.000000
     66          9.819990   0.000000
     67         10.359446   0.000000
     68         10.426855   0.000000
     69         10.982554   0.000000
     70         11.152915   0.000000
     71         11.328152   0.000000
     72         11.374251   0.000000
     73         12.023651   0.000000
     74         12.072658   0.000000
     75         12.384615   0.000000
     76         12.681004   0.000000
     77         13.161695   0.000000
     78         13.752892   0.000000
     79         13.838036   0.000000
     80         13.977032   0.000000
     81         14.369294   0.000000
     82         14.478916   0.000000
     83         14.673445   0.000000
     84         14.929777   0.000000
     85         15.297259   0.000000
     86         15.373790   0.000000
     87         15.924679   0.000000
     88         16.007123   0.000000
     89         16.570087   0.000000
     90         16.998821   0.000000
     91         17.098381   0.000000
     92         17.624531   0.000000
     93         17.662987   0.000000
     94         18.033526   0.000000
     95         18.074363   0.000000
     96         18.530451   0.000000
     97         18.541938   0.000000
     98         18.901317   0.000000
     99         19.067444   0.000000
    100         19.222915   0.000000
    101         19.514608   0.000000
    102         19.585461   0.000000
    103         19.969890   0.000000
    104         20.140125   0.000000
    105         20.293249   0.000000
    106         20.500920   0.000000
    107         20.663086   0.000000
    108         20.842496   0.000000
    109         20.907147   0.000000
    110         21.251333   0.000000
    111         21.468850   0.000000
    112         21.838447   0.000000
    113         21.919502   0.000000
    114         22.188151   0.000000
    115         22.595387   0.000000
    116         22.811819   0.000000
    117         22.872316   0.000000
    118         23.065809   0.000000
    119         23.290921   0.000000
    120         23.416962   0.000000
    121         23.553980   0.000000
    122         23.696495   0.000000
    123         23.816359   0.000000
    124         23.973771   0.000000
    125         24.158944   0.000000
    126         24.265142   0.000000
    127         24.483840   0.000000
    128         24.679676   0.000000
    129         24.807379   0.000000
    130         25.112954   0.000000
    131         25.217801   0.000000
    132         25.826712   0.000000
    133         26.098121   0.000000
    134         26.386544   0.000000
    135         26.659326   0.000000
    136         26.935269   0.000000
    137         27.300534   0.000000
    138         27.817748   0.000000
    139         28.079859   0.000000
    140         28.177132   0.000000

 -0.1428571E+00  0.2500000E+00  0.4285714E+00  0.2040816E-01
      1        -25.451929   1.000000
      2        -25.450805   1.000000
      3        -25.438504   1.000000
      4        -25.438353   1.000000
      5        -25.408896   1.000000
      6        -25.408799   1.000000
      7        -25.386291   1.000000
      8        -25.386125   1.000000
      9        -25.380877   1.000000
     10        -25.380713   1.000000
     11        -12.417416   1.000000
     12        -12.045562   1.000000
     13        -11.265998   1.000000
     14        -11.180606   1.000000
     15        -11.043333   1.000000
     16        -10.894274   1.000000
     17         -5.972712   1.000000
     18         -5.787778   1.000000
     19         -2.710213   1.000000
     20         -2.521268   1.000000
     21         -2.171172   1.000000
     22         -1.570289   1.000000
     23         -1.442853   1.000000
     24         -1.336948   1.000000
     25         -1.171428   1.000000
     26         -1.050134   1.000000
     27         -0.808618   1.000000
     28         -0.726760   1.000000
     29         -0.644338   1.000000
     30         -0.622419   1.000000
     31         -0.580274   1.000000
     32         -0.551655   1.000000
     33         -0.429587   1.000000
     34         -0.394046   1.000000
     35          0.443080   1.000000
     36          0.522709   1.000000
     37          0.585631   1.000000
     38          0.598198   1.000000
     39          0.621678   1.000000
     40          0.657458   1.000000
     41          0.667717   1.000000
     42          0.689901   1.000000
     43          0.969361   1.000000
     44          1.019731   1.000000
     45          1.077320   1.000000
     46          1.359740   1.000000
     47          1.649887   1.000000
     48          1.751703   1.000000
     49          1.882511   1.000000
     50          2.139083   1.000000
     51          2.233336   1.000000
     52          2.415025   1.000000
     53          2.563545   1.000000
     54          2.739231   1.000000
     55          5.014566   0.000000
     56          5.189676   0.000000
     57          6.412385   0.000000
     58          6.643847   0.000000
     59          7.067659   0.000000
     60          7.188101   0.000000
     61          7.996859   0.000000
     62          8.387153   0.000000
     63          8.706035   0.000000
     64          8.864631   0.000000
     65          9.132068   0.000000
     66          9.621879   0.000000
     67         10.046586   0.000000
     68         10.272569   0.000000
     69         10.607036   0.000000
     70         10.801568   0.000000
     71         11.240804   0.000000
     72         11.494338   0.000000
     73         11.758044   0.000000
     74         11.898094   0.000000
     75         12.241338   0.000000
     76         12.468608   0.000000
     77         13.244832   0.000000
     78         13.581993   0.000000
     79         13.849010   0.000000
     80         14.107015   0.000000
     81         14.660776   0.000000
     82         14.951007   0.000000
     83         15.109770   0.000000
     84         15.218296   0.000000
     85         15.612589   0.000000
     86         15.750223   0.000000
     87         16.008406   0.000000
     88         16.344718   0.000000
     89         16.675150   0.000000
     90         16.771386   0.000000
     91         16.993132   0.000000
     92         17.513944   0.000000
     93         17.631760   0.000000
     94         17.889522   0.000000
     95         17.999943   0.000000
     96         18.265808   0.000000
     97         18.400155   0.000000
     98         18.557759   0.000000
     99         18.722659   0.000000
    100         18.779407   0.000000
    101         18.947619   0.000000
    102         19.102469   0.000000
    103         19.332026   0.000000
    104         19.484935   0.000000
    105         19.570174   0.000000
    106         19.898209   0.000000
    107         20.168353   0.000000
    108         20.713262   0.000000
    109         20.937117   0.000000
    110         21.140938   0.000000
    111         21.916442   0.000000
    112         22.085841   0.000000
    113         22.497663   0.000000
    114         22.843586   0.000000
    115         22.971060   0.000000
    116         23.095020   0.000000
    117         23.199917   0.000000
    118         23.439120   0.000000
    119         23.576737   0.000000
    120         23.814934   0.000000
    121         24.185621   0.000000
    122         24.298110   0.000000
    123         24.374677   0.000000
    124         24.599201   0.000000
    125         24.769268   0.000000
    126         24.904788   0.000000
    127         25.109100   0.000000
    128         25.224134   0.000000
    129         25.447783   0.000000
    130         25.643660   0.000000
    131         25.919814   0.000000
    132         26.027456   0.000000
    133         26.249468   0.000000
    134         26.367130   0.000000
    135         26.624141   0.000000
    136         26.920273   0.000000
    137         27.165997   0.000000
    138         27.418475   0.000000
    139         27.612363   0.000000
    140         27.725913   0.000000

  0.0000000E+00  0.5000000E+00  0.4285714E+00  0.1020408E-01
      1        -25.451869   1.000000
      2        -25.450764   1.000000
      3        -25.438470   1.000000
      4        -25.438290   1.000000
      5        -25.408869   1.000000
      6        -25.408726   1.000000
      7        -25.386256   1.000000
      8        -25.386072   1.000000
      9        -25.380849   1.000000
     10        -25.380654   1.000000
     11        -12.311991   1.000000
     12        -12.091781   1.000000
     13        -11.298667   1.000000
     14        -11.204804   1.000000
     15        -11.094311   1.000000
     16        -10.894182   1.000000
     17         -5.963555   1.000000
     18         -5.725366   1.000000
     19         -2.777814   1.000000
     20         -2.172857   1.000000
     21         -2.142524   1.000000
     22         -1.845885   1.000000
     23         -1.548852   1.000000
     24         -1.308163   1.000000
     25         -1.113848   1.000000
     26         -1.031393   1.000000
     27         -0.864565   1.000000
     28         -0.703965   1.000000
     29         -0.679265   1.000000
     30         -0.562789   1.000000
     31         -0.522399   1.000000
     32         -0.495662   1.000000
     33         -0.443060   1.000000
     34         -0.374577   1.000000
     35          0.430906   1.000000
     36          0.494750   1.000000
     37          0.579150   1.000000
     38          0.599007   1.000000
     39          0.625382   1.000000
     40          0.652797   1.000000
     41          0.695436   1.000000
     42          0.737557   1.000000
     43          0.912019   1.000000
     44          1.133852   1.000000
     45          1.247484   1.000000
     46          1.317801   1.000000
     47          1.402864   1.000000
     48          1.656320   1.000000
     49          1.860100   1.000000
     50          2.001141   1.000000
     51          2.197557   1.000000
     52          2.443936   1.000000
     53          2.661523   1.000000
     54          2.796250   1.000000
     55          4.792793   0.000000
     56          5.260150   0.000000
     57          6.069491   0.000000
     58          6.814802   0.000000
     59          7.226450   0.000000
     60          7.472976   0.000000
     61          7.930517   0.000000
     62          8.112466   0.000000
     63          8.737331   0.000000
     64          9.010087   0.000000
     65          9.451260   0.000000
     66          9.763971   0.000000
     67          9.892227   0.000000
     68         10.200151   0.000000
     69         10.366976   0.000000
     70         10.521069   0.000000
     71         10.567126   0.000000
     72         10.912613   0.000000
     73         11.740807   0.000000
     74         12.225401   0.000000
     75         12.807433   0.000000
     76         13.022368   0.000000
     77         13.244315   0.000000
     78         13.714286   0.000000
     79         13.982487   0.000000
     80         14.101341   0.000000
     81         14.663348   0.000000
     82         14.942026   0.000000
     83         15.063353   0.000000
     84         15.302362   0.000000
     85         15.570227   0.000000
     86         15.931887   0.000000
     87         16.074865   0.000000
     88         16.417823   0.000000
     89         16.748409   0.000000
     90         16.844419   0.000000
     91         17.200427   0.000000
     92         17.497005   0.000000
     93         17.627707   0.000000
     94         17.874049   0.000000
     95         18.095733   0.000000
     96         18.220284   0.000000
     97         18.368686   0.000000
     98         18.529571   0.000000
     99         18.717391   0.000000
    100         18.946565   0.000000
    101         19.075118   0.000000
    102         19.414556   0.000000
    103         19.524597   0.000000
    104         19.631860   0.000000
    105         20.004822   0.000000
    106         20.080368   0.000000
    107         20.157652   0.000000
    108         20.533634   0.000000
    109         21.042398   0.000000
    110         21.239557   0.000000
    111         21.615950   0.000000
    112         21.727903   0.000000
    113         21.931648   0.000000
    114         22.207772   0.000000
    115         22.347439   0.000000
    116         22.634309   0.000000
    117         22.874690   0.000000
    118         23.114591   0.000000
    119         23.296908   0.000000
    120         23.578567   0.000000
    121         23.691552   0.000000
    122         24.117956   0.000000
    123         24.535003   0.000000
    124         24.760829   0.000000
    125         24.893068   0.000000
    126         25.082201   0.000000
    127         25.240663   0.000000
    128         25.360580   0.000000
    129         25.700201   0.000000
    130         26.143506   0.000000
    131         26.313212   0.000000
    132         26.442910   0.000000
    133         26.481995   0.000000
    134         26.604013   0.000000
    135         26.894995   0.000000
    136         27.068625   0.000000
    137         27.122953   0.000000
    138         27.365415   0.000000
    139         27.524757   0.000000
    140         27.712819   0.000000

  0.1428571E+00  0.5000000E+00  0.4285714E+00  0.1020408E-01
      1        -25.451861   1.000000
      2        -25.450759   1.000000
      3        -25.438466   1.000000
      4        -25.438294   1.000000
      5        -25.408899   1.000000
      6        -25.408748   1.000000
      7        -25.386266   1.000000
      8        -25.386085   1.000000
      9        -25.380875   1.000000
     10        -25.380672   1.000000
     11        -12.328366   1.000000
     12        -12.069915   1.000000
     13        -11.328825   1.000000
     14        -11.184983   1.000000
     15        -11.074089   1.000000
     16        -10.910046   1.000000
     17         -5.930166   1.000000
     18         -5.748382   1.000000
     19         -2.747350   1.000000
     20         -2.224217   1.000000
     21         -2.115770   1.000000
     22         -1.952272   1.000000
     23         -1.452925   1.000000
     24         -1.328359   1.000000
     25         -1.243290   1.000000
     26         -1.041043   1.000000
     27         -0.791503   1.000000
     28         -0.710845   1.000000
     29         -0.644109   1.000000
     30         -0.559072   1.000000
     31         -0.537697   1.000000
     32         -0.488952   1.000000
     33         -0.421456   1.000000
     34         -0.371262   1.000000
     35          0.413908   1.000000
     36          0.535521   1.000000
     37          0.588571   1.000000
     38          0.602072   1.000000
     39          0.636052   1.000000
     40          0.657703   1.000000
     41          0.711842   1.000000
     42          0.718700   1.000000
     43          0.905609   1.000000
     44          1.105292   1.000000
     45          1.206955   1.000000
     46          1.349453   1.000000
     47          1.396289   1.000000
     48          1.637281   1.000000
     49          1.837106   1.000000
     50          2.020465   1.000000
     51          2.222477   1.000000
     52          2.506522   1.000000
     53          2.678546   1.000000
     54          2.902549   1.000000
     55          4.735722   0.000000
     56          5.194860   0.000000
     57          6.163241   0.000000
     58          6.612366   0.000000
     59          7.063576   0.000000
     60          7.427223   0.000000
     61          7.874130   0.000000
     62          8.144289   0.000000
     63          8.572827   0.000000
     64          9.134211   0.000000
     65          9.298206   0.000000
     66          9.617221   0.000000
     67         10.040811   0.000000
     68         10.302864   0.000000
     69         10.428080   0.000000
     70         10.708057   0.000000
     71         11.100265   0.000000
     72         11.215589   0.000000
     73         12.042653   0.000000
     74         12.161956   0.000000
     75         12.619041   0.000000
     76         12.775459   0.000000
     77         13.218366   0.000000
     78         13.845885   0.000000
     79         14.084708   0.000000
     80         14.162828   0.000000
     81         14.443254   0.000000
     82         14.617898   0.000000
     83         14.954687   0.000000
     84         15.085874   0.000000
     85         15.421589   0.000000
     86         15.618080   0.000000
     87         15.712209   0.000000
     88         16.413260   0.000000
     89         16.512761   0.000000
     90         16.695365   0.000000
     91         17.212276   0.000000
     92         17.432257   0.000000
     93         17.653557   0.000000
     94         17.826898   0.000000
     95         18.049779   0.000000
     96         18.262003   0.000000
     97         18.557478   0.000000
     98         18.728289   0.000000
     99         18.870346   0.000000
    100         19.028825   0.000000
    101         19.267031   0.000000
    102         19.543294   0.000000
    103         19.726069   0.000000
    104         20.059410   0.000000
    105         20.189675   0.000000
    106         20.507105   0.000000
    107         20.734368   0.000000
    108         20.964907   0.000000
    109         21.117718   0.000000
    110         21.344659   0.000000
    111         21.562021   0.000000
    112         21.728017   0.000000
    113         21.873377   0.000000
    114         22.100787   0.000000
    115         22.402843   0.000000
    116         22.506969   0.000000
    117         22.857869   0.000000
    118         23.038067   0.000000
    119         23.164475   0.000000
    120         23.387324   0.000000
    121         23.662178   0.000000
    122         23.743939   0.000000
    123         24.255457   0.000000
    124         24.506303   0.000000
    125         24.728305   0.000000
    126         24.855164   0.000000
    127         25.119431   0.000000
    128         25.252673   0.000000
    129         25.567115   0.000000
    130         25.640762   0.000000
    131         25.749996   0.000000
    132         25.906452   0.000000
    133         26.058968   0.000000
    134         26.312597   0.000000
    135         26.487417   0.000000
    136         26.691402   0.000000
    137         26.798190   0.000000
    138         27.109622   0.000000
    139         27.259730   0.000000
    140         27.778743   0.000000

  0.2857143E+00  0.5000000E+00  0.4285714E+00  0.1020408E-01
      1        -25.451880   1.000000
      2        -25.450779   1.000000
      3        -25.438487   1.000000
      4        -25.438333   1.000000
      5        -25.408951   1.000000
      6        -25.408820   1.000000
      7        -25.386326   1.000000
      8        -25.386155   1.000000
      9        -25.380940   1.000000
     10        -25.380746   1.000000
     11        -12.314771   1.000000
     12        -12.059435   1.000000
     13        -11.388198   1.000000
     14        -11.187770   1.000000
     15        -11.012836   1.000000
     16        -10.948165   1.000000
     17         -5.887891   1.000000
     18         -5.728039   1.000000
     19         -2.649633   1.000000
     20         -2.255996   1.000000
     21         -2.142526   1.000000
     22         -1.946324   1.000000
     23         -1.486651   1.000000
     24         -1.357064   1.000000
     25         -1.262027   1.000000
     26         -0.989523   1.000000
     27         -0.854634   1.000000
     28         -0.787198   1.000000
     29         -0.617934   1.000000
     30         -0.558455   1.000000
     31         -0.513588   1.000000
     32         -0.484518   1.000000
     33         -0.409959   1.000000
     34         -0.375890   1.000000
     35          0.424165   1.000000
     36          0.555839   1.000000
     37          0.588569   1.000000
     38          0.608933   1.000000
     39          0.635086   1.000000
     40          0.663482   1.000000
     41          0.694140   1.000000
     42          0.751145   1.000000
     43          0.912338   1.000000
     44          1.029866   1.000000
     45          1.215034   1.000000
     46          1.316865   1.000000
     47          1.510352   1.000000
     48          1.659194   1.000000
     49          1.808590   1.000000
     50          1.912736   1.000000
     51          2.078796   1.000000
     52          2.432006   1.000000
     53          2.521792   1.000000
     54          2.917497   1.000000
     55          4.901763   0.000000
     56          5.297085   0.000000
     57          6.405772   0.000000
     58          6.675584   0.000000
     59          6.971842   0.000000
     60          7.441844   0.000000
     61          7.891139   0.000000
     62          8.300642   0.000000
     63          8.537143   0.000000
     64          8.993486   0.000000
     65          9.456236   0.000000
     66          9.742796   0.000000
     67          9.882019   0.000000
     68         10.271153   0.000000
     69         10.610031   0.000000
     70         11.047692   0.000000
     71         11.388728   0.000000
     72         11.631912   0.000000
     73         11.760694   0.000000
     74         12.104499   0.000000
     75         12.401890   0.000000
     76         12.581074   0.000000
     77         13.180697   0.000000
     78         13.532121   0.000000
     79         13.783849   0.000000
     80         13.907310   0.000000
     81         14.458694   0.000000
     82         14.555768   0.000000
     83         14.718673   0.000000
     84         15.010388   0.000000
     85         15.142401   0.000000
     86         15.432454   0.000000
     87         15.750989   0.000000
     88         16.028295   0.000000
     89         16.368080   0.000000
     90         16.825790   0.000000
     91         17.044399   0.000000
     92         17.334113   0.000000
     93         17.510496   0.000000
     94         17.782173   0.000000
     95         18.109385   0.000000
     96         18.458685   0.000000
     97         18.771733   0.000000
     98         19.026372   0.000000
     99         19.158392   0.000000
    100         19.599676   0.000000
    101         19.696886   0.000000
    102         19.859112   0.000000
    103         20.025944   0.000000
    104         20.203217   0.000000
    105         20.451164   0.000000
    106         20.600641   0.000000
    107         20.831050   0.000000
    108         21.024651   0.000000
    109         21.283325   0.000000
    110         21.387832   0.000000
    111         21.562966   0.000000
    112         21.834174   0.000000
    113         21.996703   0.000000
    114         22.110870   0.000000
    115         22.355851   0.000000
    116         22.544188   0.000000
    117         22.666716   0.000000
    118         22.995973   0.000000
    119         23.121919   0.000000
    120         23.233460   0.000000
    121         23.508747   0.000000
    122         23.733747   0.000000
    123         23.868648   0.000000
    124         23.956824   0.000000
    125         24.129643   0.000000
    126         24.393760   0.000000
    127         24.772217   0.000000
    128         25.075155   0.000000
    129         25.210617   0.000000
    130         25.298936   0.000000
    131         25.458946   0.000000
    132         25.612396   0.000000
    133         25.840842   0.000000
    134         26.023234   0.000000
    135         26.367260   0.000000
    136         26.752281   0.000000
    137         27.219513   0.000000
    138         27.397029   0.000000
    139         27.918287   0.000000
    140         28.313805   0.000000

  0.4285714E+00  0.5000000E+00  0.4285714E+00  0.1020408E-01
      1        -25.451916   1.000000
      2        -25.450809   1.000000
      3        -25.438536   1.000000
      4        -25.438386   1.000000
      5        -25.409008   1.000000
      6        -25.408892   1.000000
      7        -25.386396   1.000000
      8        -25.386235   1.000000
      9        -25.381008   1.000000
     10        -25.380823   1.000000
     11        -12.283131   1.000000
     12        -12.061101   1.000000
     13        -11.417465   1.000000
     14        -11.253823   1.000000
     15        -10.963541   1.000000
     16        -10.948398   1.000000
     17         -5.877384   1.000000
     18         -5.678783   1.000000
     19         -2.601414   1.000000
     20         -2.361849   1.000000
     21         -1.967090   1.000000
     22         -1.824212   1.000000
     23         -1.551329   1.000000
     24         -1.370832   1.000000
     25         -1.184433   1.000000
     26         -1.001886   1.000000
     27         -0.983307   1.000000
     28         -0.901906   1.000000
     29         -0.603303   1.000000
     30         -0.579515   1.000000
     31         -0.496937   1.000000
     32         -0.469874   1.000000
     33         -0.442209   1.000000
     34         -0.371736   1.000000
     35          0.477480   1.000000
     36          0.535124   1.000000
     37          0.566360   1.000000
     38          0.597282   1.000000
     39          0.632684   1.000000
     40          0.664391   1.000000
     41          0.684213   1.000000
     42          0.690266   1.000000
     43          1.016176   1.000000
     44          1.070056   1.000000
     45          1.255393   1.000000
     46          1.268958   1.000000
     47          1.528535   1.000000
     48          1.594177   1.000000
     49          1.809832   1.000000
     50          1.959111   1.000000
     51          2.024983   1.000000
     52          2.203626   1.000000
     53          2.304924   1.000000
     54          2.575285   1.000000
     55          5.254922   0.000000
     56          5.502089   0.000000
     57          6.708008   0.000000
     58          6.920760   0.000000
     59          7.108170   0.000000
     60          7.411882   0.000000
     61          8.165756   0.000000
     62          8.277846   0.000000
     63          8.902508   0.000000
     64          9.257167   0.000000
     65          9.357494   0.000000
     66          9.658141   0.000000
     67          9.962091   0.000000
     68         10.246726   0.000000
     69         10.447261   0.000000
     70         10.627575   0.000000
     71         11.177925   0.000000
     72         11.340471   0.000000
     73         11.727115   0.000000
     74         11.847525   0.000000
     75         11.967212   0.000000
     76         12.588957   0.000000
     77         12.867274   0.000000
     78         13.321921   0.000000
     79         13.553607   0.000000
     80         13.958044   0.000000
     81         14.375160   0.000000
     82         14.454450   0.000000
     83         15.025514   0.000000
     84         15.270940   0.000000
     85         15.432456   0.000000
     86         15.953546   0.000000
     87         16.274554   0.000000
     88         16.351598   0.000000
     89         16.554453   0.000000
     90         16.726211   0.000000
     91         17.169226   0.000000
     92         17.472731   0.000000
     93         17.661892   0.000000
     94         17.856658   0.000000
     95         18.144272   0.000000
     96         18.279935   0.000000
     97         18.502259   0.000000
     98         18.656772   0.000000
     99         18.843878   0.000000
    100         19.119963   0.000000
    101         19.312749   0.000000
    102         19.516661   0.000000
    103         19.690895   0.000000
    104         20.010530   0.000000
    105         20.234226   0.000000
    106         20.539345   0.000000
    107         20.706745   0.000000
    108         20.974111   0.000000
    109         21.181829   0.000000
    110         21.314770   0.000000
    111         21.409193   0.000000
    112         21.841778   0.000000
    113         22.062831   0.000000
    114         22.455871   0.000000
    115         22.565047   0.000000
    116         22.747146   0.000000
    117         22.958110   0.000000
    118         23.097892   0.000000
    119         23.483474   0.000000
    120         23.564957   0.000000
    121         23.739831   0.000000
    122         23.899055   0.000000
    123         23.990767   0.000000
    124         24.194777   0.000000
    125         24.353880   0.000000
    126         24.499943   0.000000
    127         24.805875   0.000000
    128         25.086231   0.000000
    129         25.153378   0.000000
    130         25.338094   0.000000
    131         25.600678   0.000000
    132         26.161319   0.000000
    133         26.352362   0.000000
    134         26.832643   0.000000
    135         26.934975   0.000000
    136         27.127768   0.000000
    137         27.332109   0.000000
    138         27.393372   0.000000
    139         27.639655   0.000000
    140         27.877783   0.000000

 -0.4285714E+00  0.5000000E+00  0.4285714E+00  0.1020408E-01
      1        -25.451925   1.000000
      2        -25.450821   1.000000
      3        -25.438555   1.000000
      4        -25.438407   1.000000
      5        -25.409006   1.000000
      6        -25.408909   1.000000
      7        -25.386408   1.000000
      8        -25.386241   1.000000
      9        -25.381010   1.000000
     10        -25.380831   1.000000
     11        -12.260613   1.000000
     12        -12.074008   1.000000
     13        -11.383280   1.000000
     14        -11.309657   1.000000
     15        -11.011879   1.000000
     16        -10.897134   1.000000
     17         -5.899514   1.000000
     18         -5.620919   1.000000
     19         -2.520669   1.000000
     20         -2.441361   1.000000
     21         -1.879477   1.000000
     22         -1.803386   1.000000
     23         -1.579436   1.000000
     24         -1.457829   1.000000
     25         -1.131854   1.000000
     26         -1.058858   1.000000
     27         -0.992590   1.000000
     28         -0.888304   1.000000
     29         -0.606859   1.000000
     30         -0.590829   1.000000
     31         -0.497990   1.000000
     32         -0.485292   1.000000
     33         -0.405089   1.000000
     34         -0.402460   1.000000
     35          0.513163   1.000000
     36          0.524018   1.000000
     37          0.568033   1.000000
     38          0.594074   1.000000
     39          0.646337   1.000000
     40          0.656737   1.000000
     41          0.678427   1.000000
     42          0.695184   1.000000
     43          1.012609   1.000000
     44          1.048131   1.000000
     45          1.252314   1.000000
     46          1.292732   1.000000
     47          1.542946   1.000000
     48          1.634195   1.000000
     49          1.733924   1.000000
     50          1.870328   1.000000
     51          2.071355   1.000000
     52          2.191216   1.000000
     53          2.289973   1.000000
     54          2.429640   1.000000
     55          5.412385   0.000000
     56          5.468058   0.000000
     57          6.736177   0.000000
     58          6.857316   0.000000
     59          7.243992   0.000000
     60          7.485685   0.000000
     61          8.231817   0.000000
     62          8.310636   0.000000
     63          9.183429   0.000000
     64          9.210804   0.000000
     65          9.471346   0.000000
     66          9.640735   0.000000
     67          9.996058   0.000000
     68         10.147569   0.000000
     69         10.583383   0.000000
     70         10.734617   0.000000
     71         10.987981   0.000000
     72         11.276087   0.000000
     73         11.546627   0.000000
     74         11.866664   0.000000
     75         11.893092   0.000000
     76         12.546367   0.000000
     77         12.894427   0.000000
     78         13.060639   0.000000
     79         13.361128   0.000000
     80         13.564656   0.000000
     81         14.333263   0.000000
     82         14.384172   0.000000
     83         14.964786   0.000000
     84         15.165924   0.000000
     85         15.855244   0.000000
     86         16.113036   0.000000
     87         16.263306   0.000000
     88         16.543132   0.000000
     89         16.826595   0.000000
     90         17.164150   0.000000
     91         17.314723   0.000000
     92         17.551312   0.000000
     93         17.715090   0.000000
     94         17.777137   0.000000
     95         17.911760   0.000000
     96         18.125576   0.000000
     97         18.386452   0.000000
     98         18.490693   0.000000
     99         18.618251   0.000000
    100         19.083678   0.000000
    101         19.227709   0.000000
    102         19.384084   0.000000
    103         19.748298   0.000000
    104         19.845684   0.000000
    105         20.207248   0.000000
    106         20.548298   0.000000
    107         20.702701   0.000000
    108         20.956509   0.000000
    109         21.123259   0.000000
    110         21.253942   0.000000
    111         21.659990   0.000000
    112         21.812559   0.000000
    113         22.187303   0.000000
    114         22.498530   0.000000
    115         22.637914   0.000000
    116         22.794946   0.000000
    117         23.002490   0.000000
    118         23.067507   0.000000
    119         23.318068   0.000000
    120         23.568460   0.000000
    121         23.790529   0.000000
    122         23.951226   0.000000
    123         24.296099   0.000000
    124         24.425652   0.000000
    125         24.511623   0.000000
    126         24.702886   0.000000
    127         24.956911   0.000000
    128         25.168777   0.000000
    129         25.424371   0.000000
    130         25.485099   0.000000
    131         25.785083   0.000000
    132         25.900879   0.000000
    133         26.099676   0.000000
    134         26.624393   0.000000
    135         26.946781   0.000000
    136         27.098436   0.000000
    137         27.215546   0.000000
    138         27.313692   0.000000
    139         27.562396   0.000000
    140         27.700683   0.000000

 -0.2857143E+00  0.5000000E+00  0.4285714E+00  0.1020408E-01
      1        -25.451924   1.000000
      2        -25.450810   1.000000
      3        -25.438538   1.000000
      4        -25.438386   1.000000
      5        -25.408940   1.000000
      6        -25.408864   1.000000
      7        -25.386358   1.000000
      8        -25.386189   1.000000
      9        -25.380956   1.000000
     10        -25.380778   1.000000
     11        -12.259031   1.000000
     12        -12.097875   1.000000
     13        -11.333110   1.000000
     14        -11.282055   1.000000
     15        -11.063658   1.000000
     16        -10.896125   1.000000
     17         -5.932036   1.000000
     18         -5.606445   1.000000
     19         -2.536265   1.000000
     20         -2.329018   1.000000
     21         -2.005462   1.000000
     22         -1.941499   1.000000
     23         -1.671852   1.000000
     24         -1.380937   1.000000
     25         -1.158905   1.000000
     26         -0.996724   1.000000
     27         -0.916326   1.000000
     28         -0.792630   1.000000
     29         -0.630846   1.000000
     30         -0.581055   1.000000
     31         -0.509378   1.000000
     32         -0.449811   1.000000
     33         -0.444875   1.000000
     34         -0.399206   1.000000
     35          0.474507   1.000000
     36          0.537344   1.000000
     37          0.595804   1.000000
     38          0.606184   1.000000
     39          0.646656   1.000000
     40          0.656773   1.000000
     41          0.687465   1.000000
     42          0.737500   1.000000
     43          0.947695   1.000000
     44          0.993555   1.000000
     45          1.269964   1.000000
     46          1.384157   1.000000
     47          1.471596   1.000000
     48          1.636399   1.000000
     49          1.688287   1.000000
     50          1.887278   1.000000
     51          2.009265   1.000000
     52          2.233879   1.000000
     53          2.449540   1.000000
     54          2.770039   1.000000
     55          5.212104   0.000000
     56          5.338770   0.000000
     57          6.405056   0.000000
     58          6.652425   0.000000
     59          7.430306   0.000000
     60          7.490149   0.000000
     61          7.985578   0.000000
     62          8.327694   0.000000
     63          8.804580   0.000000
     64          8.981525   0.000000
     65          9.560714   0.000000
     66          9.922924   0.000000
     67         10.108114   0.000000
     68         10.441417   0.000000
     69         10.577515   0.000000
     70         10.838435   0.000000
     71         11.115194   0.000000
     72         11.531281   0.000000
     73         11.743553   0.000000
     74         11.924761   0.000000
     75         12.163795   0.000000
     76         12.725754   0.000000
     77         12.913349   0.000000
     78         13.092104   0.000000
     79         13.392161   0.000000
     80         13.600505   0.000000
     81         14.067384   0.000000
     82         14.420816   0.000000
     83         14.595043   0.000000
     84         14.818605   0.000000
     85         15.363409   0.000000
     86         15.901789   0.000000
     87         16.204751   0.000000
     88         16.323880   0.000000
     89         16.584664   0.000000
     90         16.927850   0.000000
     91         17.120688   0.000000
     92         17.336768   0.000000
     93         17.644463   0.000000
     94         17.772764   0.000000
     95         18.077591   0.000000
     96         18.280937   0.000000
     97         18.762770   0.000000
     98         18.931797   0.000000
     99         19.177858   0.000000
    100         19.457406   0.000000
    101         19.667879   0.000000
    102         19.846664   0.000000
    103         20.070804   0.000000
    104         20.252249   0.000000
    105         20.404763   0.000000
    106         20.588009   0.000000
    107         20.803220   0.000000
    108         20.972278   0.000000
    109         21.347948   0.000000
    110         21.521552   0.000000
    111         21.629533   0.000000
    112         21.895375   0.000000
    113         22.013562   0.000000
    114         22.155552   0.000000
    115         22.214551   0.000000
    116         22.481010   0.000000
    117         22.540565   0.000000
    118         22.620274   0.000000
    119         22.926461   0.000000
    120         23.294933   0.000000
    121         23.423723   0.000000
    122         23.830408   0.000000
    123         24.100588   0.000000
    124         24.283302   0.000000
    125         24.460614   0.000000
    126         24.660726   0.000000
    127         24.727451   0.000000
    128         24.967849   0.000000
    129         25.184239   0.000000
    130         25.395880   0.000000
    131         25.557224   0.000000
    132         25.988011   0.000000
    133         26.131508   0.000000
    134         26.554133   0.000000
    135         26.710453   0.000000
    136         27.082420   0.000000
    137         27.316384   0.000000
    138         27.461517   0.000000
    139         27.873839   0.000000
    140         28.052423   0.000000

 -0.1428571E+00  0.5000000E+00  0.4285714E+00  0.1020408E-01
      1        -25.451897   1.000000
      2        -25.450788   1.000000
      3        -25.438499   1.000000
      4        -25.438336   1.000000
      5        -25.408893   1.000000
      6        -25.408783   1.000000
      7        -25.386294   1.000000
      8        -25.386119   1.000000
      9        -25.380887   1.000000
     10        -25.380701   1.000000
     11        -12.280414   1.000000
     12        -12.106656   1.000000
     13        -11.317527   1.000000
     14        -11.228417   1.000000
     15        -11.062562   1.000000
     16        -10.917527   1.000000
     17         -5.960101   1.000000
     18         -5.659340   1.000000
     19         -2.682590   1.000000
     20         -2.172273   1.000000
     21         -2.094521   1.000000
     22         -1.885910   1.000000
     23         -1.751024   1.000000
     24         -1.300186   1.000000
     25         -1.136399   1.000000
     26         -0.961882   1.000000
     27         -0.865418   1.000000
     28         -0.748691   1.000000
     29         -0.652766   1.000000
     30         -0.564574   1.000000
     31         -0.530843   1.000000
     32         -0.480870   1.000000
     33         -0.440731   1.000000
     34         -0.390418   1.000000
     35          0.423793   1.000000
     36          0.539043   1.000000
     37          0.592965   1.000000
     38          0.608977   1.000000
     39          0.623845   1.000000
     40          0.654554   1.000000
     41          0.700123   1.000000
     42          0.752776   1.000000
     43          0.950313   1.000000
     44          1.073645   1.000000
     45          1.178574   1.000000
     46          1.351761   1.000000
     47          1.512581   1.000000
     48          1.606818   1.000000
     49          1.710265   1.000000
     50          1.909464   1.000000
     51          2.188974   1.000000
     52          2.376081   1.000000
     53          2.562721   1.000000
     54          2.808113   1.000000
     55          5.003129   0.000000
     56          5.280400   0.000000
     57          6.166559   0.000000
     58          6.651609   0.000000
     59          7.357108   0.000000
     60          7.568609   0.000000
     61          7.915312   0.000000
     62          8.238122   0.000000
     63          8.694275   0.000000
     64          8.986309   0.000000
     65          9.370400   0.000000
     66          9.813004   0.000000
     67         10.088248   0.000000
     68         10.273261   0.000000
     69         10.424228   0.000000
     70         10.644271   0.000000
     71         10.994045   0.000000
     72         11.286087   0.000000
     73         11.738575   0.000000
     74         12.029351   0.000000
     75         12.814852   0.000000
     76         12.991031   0.000000
     77         13.190736   0.000000
     78         13.432153   0.000000
     79         13.535498   0.000000
     80         13.741758   0.000000
     81         14.251350   0.000000
     82         14.583034   0.000000
     83         14.873612   0.000000
     84         15.076144   0.000000
     85         15.309448   0.000000
     86         15.790311   0.000000
     87         16.198457   0.000000
     88         16.271313   0.000000
     89         16.669388   0.000000
     90         16.757126   0.000000
     91         17.067443   0.000000
     92         17.295204   0.000000
     93         17.736590   0.000000
     94         17.905969   0.000000
     95         18.094246   0.000000
     96         18.279927   0.000000
     97         18.535099   0.000000
     98         18.903843   0.000000
     99         19.061577   0.000000
    100         19.368748   0.000000
    101         19.509042   0.000000
    102         19.637675   0.000000
    103         19.905337   0.000000
    104         19.991333   0.000000
    105         20.319183   0.000000
    106         20.444973   0.000000
    107         20.671638   0.000000
    108         20.956717   0.000000
    109         21.047708   0.000000
    110         21.306481   0.000000
    111         21.471891   0.000000
    112         21.669521   0.000000
    113         22.029111   0.000000
    114         22.163270   0.000000
    115         22.309553   0.000000
    116         22.540494   0.000000
    117         22.668926   0.000000
    118         22.896664   0.000000
    119         23.121878   0.000000
    120         23.327902   0.000000
    121         23.458885   0.000000
    122         23.653172   0.000000
    123         23.915267   0.000000
    124         24.049392   0.000000
    125         24.228127   0.000000
    126         24.618716   0.000000
    127         24.846261   0.000000
    128         25.499918   0.000000
    129         25.627984   0.000000
    130         25.799864   0.000000
    131         25.926685   0.000000
    132         26.442803   0.000000
    133         26.583051   0.000000
    134         26.708872   0.000000
    135         27.100249   0.000000
    136         27.233103   0.000000
    137         27.465613   0.000000
    138         27.613710   0.000000
    139         27.678932   0.000000
    140         27.939655   0.000000

  0.3529412E+00 -0.5075070E-18 -0.7358218E-17  0.0000000E+00
      1        -25.452102   1.000000
      2        -25.447022   1.000000
      3        -25.437443   1.000000
      4        -25.436830   1.000000
      5        -25.407517   1.000000
      6        -25.407099   1.000000
      7        -25.385088   1.000000
      8        -25.384369   1.000000
      9        -25.379659   1.000000
     10        -25.378864   1.000000
     11        -12.664324   1.000000
     12        -11.573273   1.000000
     13        -11.444880   1.000000
     14        -11.233526   1.000000
     15        -10.967572   1.000000
     16        -10.897069   1.000000
     17         -6.383602   1.000000
     18         -5.294741   1.000000
     19         -2.687127   1.000000
     20         -2.379891   1.000000
     21         -2.239806   1.000000
     22         -1.690470   1.000000
     23         -1.447467   1.000000
     24         -1.407319   1.000000
     25         -1.077068   1.000000
     26         -1.040130   1.000000
     27         -0.949668   1.000000
     28         -0.856788   1.000000
     29         -0.705809   1.000000
     30         -0.622714   1.000000
     31         -0.576469   1.000000
     32         -0.552961   1.000000
     33         -0.435057   1.000000
     34         -0.369744   1.000000
     35          0.475606   1.000000
     36          0.530689   1.000000
     37          0.551455   1.000000
     38          0.584643   1.000000
     39          0.622826   1.000000
     40          0.642272   1.000000
     41          0.683605   1.000000
     42          0.702780   1.000000
     43          0.927557   1.000000
     44          1.133050   1.000000
     45          1.165729   1.000000
     46          1.235150   1.000000
     47          1.316462   1.000000
     48          1.546231   1.000000
     49          1.679303   1.000000
     50          1.895361   1.000000
     51          2.099961   1.000000
     52          2.300935   1.000000
     53          2.674407   1.000000
     54          3.196794   1.000000
     55          5.077388   0.000000
     56          5.781792   0.000000
     57          6.972634   0.000000
     58          7.043418   0.000000
     59          7.438164   0.000000
     60          7.683289   0.000000
     61          8.108189   0.000000
     62          8.370366   0.000000
     63          8.899664   0.000000
     64          9.276887   0.000000
     65          9.447337   0.000000
     66          9.780756   0.000000
     67         10.011510   0.000000
     68         10.270117   0.000000
     69         10.349094   0.000000
     70         10.607221   0.000000
     71         11.005302   0.000000
     72         11.151597   0.000000
     73         11.391764   0.000000
     74         11.790686   0.000000
     75         12.116012   0.000000
     76         12.541465   0.000000
     77         12.796266   0.000000
     78         13.091409   0.000000
     79         13.568875   0.000000
     80         13.836268   0.000000
     81         14.089785   0.000000
     82         14.309228   0.000000
     83         14.629955   0.000000
     84         14.914096   0.000000
     85         15.253389   0.000000
     86         15.669134   0.000000
     87         16.126470   0.000000
     88         16.343978   0.000000
     89         16.395009   0.000000
     90         16.800886   0.000000
     91         16.978028   0.000000
     92         17.050780   0.000000
     93         17.349155   0.000000
     94         17.589813   0.000000
     95         17.853274   0.000000
     96         18.180813   0.000000
     97         18.387206   0.000000
     98         18.515029   0.000000
     99         18.700799   0.000000
    100         18.842998   0.000000
    101         19.356213   0.000000
    102         19.537905   0.000000
    103         19.855106   0.000000
    104         20.022907   0.000000
    105         20.114083   0.000000
    106         20.417940   0.000000
    107         20.608707   0.000000
    108         20.642376   0.000000
    109         21.103553   0.000000
    110         21.728083   0.000000
    111         21.920326   0.000000
    112         22.028508   0.000000
    113         22.240077   0.000000
    114         22.521678   0.000000
    115         22.703609   0.000000
    116         22.924543   0.000000
    117         23.249211   0.000000
    118         23.473229   0.000000
    119         23.798671   0.000000
    120         23.864671   0.000000
    121         24.346244   0.000000
    122         24.691908   0.000000
    123         24.883274   0.000000
    124         25.168971   0.000000
    125         25.198973   0.000000
    126         25.357618   0.000000
    127         25.465854   0.000000
    128         25.712198   0.000000
    129         25.919903   0.000000
    130         26.006309   0.000000
    131         26.207261   0.000000
    132         26.298897   0.000000
    133         26.478869   0.000000
    134         26.783196   0.000000
    135         26.972589   0.000000
    136         27.108428   0.000000
    137         27.230178   0.000000
    138         27.324576   0.000000
    139         27.669550   0.000000
    140         27.818316   0.000000

  0.3382353E+00 -0.2050398E-16 -0.3079190E-16  0.0000000E+00
      1        -25.452409   1.000000
      2        -25.447327   1.000000
      3        -25.437747   1.000000
      4        -25.437134   1.000000
      5        -25.407827   1.000000
      6        -25.407411   1.000000
      7        -25.385394   1.000000
      8        -25.384674   1.000000
      9        -25.379966   1.000000
     10        -25.379173   1.000000
     11        -12.676031   1.000000
     12        -11.563780   1.000000
     13        -11.448246   1.000000
     14        -11.228921   1.000000
     15        -10.964041   1.000000
     16        -10.891622   1.000000
     17         -6.387830   1.000000
     18         -5.309206   1.000000
     19         -2.699356   1.000000
     20         -2.381488   1.000000
     21         -2.249663   1.000000
     22         -1.714215   1.000000
     23         -1.436668   1.000000
     24         -1.413300   1.000000
     25         -1.065105   1.000000
     26         -1.019301   1.000000
     27         -0.952318   1.000000
     28         -0.853722   1.000000
     29         -0.711205   1.000000
     30         -0.622708   1.000000
     31         -0.578516   1.000000
     32         -0.554233   1.000000
     33         -0.437286   1.000000
     34         -0.373272   1.000000
     35          0.476685   1.000000
     36          0.531985   1.000000
     37          0.551639   1.000000
     38          0.583565   1.000000
     39          0.619460   1.000000
     40          0.640643   1.000000
     41          0.681201   1.000000
     42          0.700829   1.000000
     43          0.928655   1.000000
     44          1.113647   1.000000
     45          1.190480   1.000000
     46          1.257795   1.000000
     47          1.314329   1.000000
     48          1.532622   1.000000
     49          1.669697   1.000000
     50          1.922119   1.000000
     51          2.092377   1.000000
     52          2.300723   1.000000
     53          2.709634   1.000000
     54          3.213502   1.000000
     55          5.060884   0.000000
     56          5.768659   0.000000
     57          6.992855   0.000000
     58          7.052424   0.000000
     59          7.431834   0.000000
     60          7.710742   0.000000
     61          8.085694   0.000000
     62          8.351423   0.000000
     63          8.867952   0.000000
     64          9.287897   0.000000
     65          9.437684   0.000000
     66          9.782005   0.000000
     67          9.996450   0.000000
     68         10.244017   0.000000
     69         10.356861   0.000000
     70         10.612268   0.000000
     71         11.009523   0.000000
     72         11.155925   0.000000
     73         11.363754   0.000000
     74         11.778294   0.000000
     75         12.146544   0.000000
     76         12.576474   0.000000
     77         12.846674   0.000000
     78         13.121991   0.000000
     79         13.569994   0.000000
     80         13.854278   0.000000
     81         14.104166   0.000000
     82         14.288587   0.000000
     83         14.622991   0.000000
     84         14.886749   0.000000
     85         15.259023   0.000000
     86         15.641218   0.000000
     87         16.094258   0.000000
     88         16.290737   0.000000
     89         16.436456   0.000000
     90         16.837956   0.000000
     91         16.992254   0.000000
     92         17.101606   0.000000
     93         17.291300   0.000000
     94         17.538272   0.000000
     95         17.832711   0.000000
     96         18.153240   0.000000
     97         18.410102   0.000000
     98         18.479182   0.000000
     99         18.698670   0.000000
    100         18.842893   0.000000
    101         19.299071   0.000000
    102         19.469708   0.000000
    103         19.865665   0.000000
    104         20.109889   0.000000
    105         20.126430   0.000000
    106         20.441996   0.000000
    107         20.519109   0.000000
    108         20.634152   0.000000
    109         21.108202   0.000000
    110         21.643385   0.000000
    111         21.814723   0.000000
    112         22.080074   0.000000
    113         22.277462   0.000000
    114         22.567745   0.000000
    115         22.697417   0.000000
    116         22.917546   0.000000
    117         23.194594   0.000000
    118         23.338245   0.000000
    119         23.722141   0.000000
    120         23.831507   0.000000
    121         24.392274   0.000000
    122         24.827845   0.000000
    123         24.949248   0.000000
    124         25.187493   0.000000
    125         25.286336   0.000000
    126         25.384601   0.000000
    127         25.514998   0.000000
    128         25.753169   0.000000
    129         25.962564   0.000000
    130         26.056215   0.000000
    131         26.277170   0.000000
    132         26.333132   0.000000
    133         26.504581   0.000000
    134         26.823026   0.000000
    135         27.024120   0.000000
    136         27.147858   0.000000
    137         27.290094   0.000000
    138         27.407144   0.000000
    139         27.662976   0.000000
    140         27.818899   0.000000

  0.3235294E+00  0.1644038E-16  0.1285577E-17  0.0000000E+00
      1        -25.452733   1.000000
      2        -25.447649   1.000000
      3        -25.438067   1.000000
      4        -25.437455   1.000000
      5        -25.408152   1.000000
      6        -25.407737   1.000000
      7        -25.385718   1.000000
      8        -25.384995   1.000000
      9        -25.380289   1.000000
     10        -25.379499   1.000000
     11        -12.688127   1.000000
     12        -11.554480   1.000000
     13        -11.451453   1.000000
     14        -11.223945   1.000000
     15        -10.960051   1.000000
     16        -10.886097   1.000000
     17         -6.392256   1.000000
     18         -5.324436   1.000000
     19         -2.712134   1.000000
     20         -2.383167   1.000000
     21         -2.257201   1.000000
     22         -1.739403   1.000000
     23         -1.453055   1.000000
     24         -1.394308   1.000000
     25         -1.056558   1.000000
     26         -0.998687   1.000000
     27         -0.953950   1.000000
     28         -0.848147   1.000000
     29         -0.716911   1.000000
     30         -0.622623   1.000000
     31         -0.580383   1.000000
     32         -0.555526   1.000000
     33         -0.439383   1.000000
     34         -0.376898   1.000000
     35          0.478110   1.000000
     36          0.533634   1.000000
     37          0.551544   1.000000
     38          0.582872   1.000000
     39          0.616245   1.000000
     40          0.639446   1.000000
     41          0.678421   1.000000
     42          0.699831   1.000000
     43          0.928870   1.000000
     44          1.093263   1.000000
     45          1.207606   1.000000
     46          1.279568   1.000000
     47          1.322433   1.000000
     48          1.516061   1.000000
     49          1.662039   1.000000
     50          1.949562   1.000000
     51          2.086359   1.000000
     52          2.304073   1.000000
     53          2.746446   1.000000
     54          3.230523   1.000000
     55          5.041893   0.000000
     56          5.751362   0.000000
     57          6.997386   0.000000
     58          7.072779   0.000000
     59          7.417245   0.000000
     60          7.749629   0.000000
     61          8.060921   0.000000
     62          8.337601   0.000000
     63          8.833352   0.000000
     64          9.294898   0.000000
     65          9.436191   0.000000
     66          9.783684   0.000000
     67          9.974863   0.000000
     68         10.215476   0.000000
     69         10.369905   0.000000
     70         10.617360   0.000000
     71         11.002657   0.000000
     72         11.168832   0.000000
     73         11.340969   0.000000
     74         11.772923   0.000000
     75         12.185780   0.000000
     76         12.611623   0.000000
     77         12.893914   0.000000
     78         13.154437   0.000000
     79         13.577429   0.000000
     80         13.853063   0.000000
     81         14.120233   0.000000
     82         14.261252   0.000000
     83         14.626480   0.000000
     84         14.869612   0.000000
     85         15.260458   0.000000
     86         15.605417   0.000000
     87         16.027834   0.000000
     88         16.258831   0.000000
     89         16.471676   0.000000
     90         16.866370   0.000000
     91         16.999870   0.000000
     92         17.153688   0.000000
     93         17.246692   0.000000
     94         17.499937   0.000000
     95         17.813411   0.000000
     96         18.106414   0.000000
     97         18.427432   0.000000
     98         18.465580   0.000000
     99         18.685283   0.000000
    100         18.850301   0.000000
    101         19.239255   0.000000
    102         19.428418   0.000000
    103         19.866146   0.000000
    104         20.089760   0.000000
    105         20.194775   0.000000
    106         20.425991   0.000000
    107         20.478787   0.000000
    108         20.701785   0.000000
    109         21.107146   0.000000
    110         21.550253   0.000000
    111         21.705465   0.000000
    112         22.088685   0.000000
    113         22.286438   0.000000
    114         22.566226   0.000000
    115         22.757386   0.000000
    116         22.932488   0.000000
    117         23.115153   0.000000
    118         23.294547   0.000000
    119         23.644331   0.000000
    120         23.806513   0.000000
    121         24.401008   0.000000
    122         24.943749   0.000000
    123         24.994533   0.000000
    124         25.188472   0.000000
    125         25.312053   0.000000
    126         25.435956   0.000000
    127         25.568570   0.000000
    128         25.853953   0.000000
    129         26.001380   0.000000
    130         26.103471   0.000000
    131         26.332893   0.000000
    132         26.382972   0.000000
    133         26.571238   0.000000
    134         26.865801   0.000000
    135         27.075378   0.000000
    136         27.199719   0.000000
    137         27.349359   0.000000
    138         27.504537   0.000000
    139         27.660645   0.000000
    140         27.817305   0.000000

  0.3088235E+00 -0.3556095E-17 -0.7881718E-17  0.0000000E+00
      1        -25.453071   1.000000
      2        -25.447989   1.000000
      3        -25.438404   1.000000
      4        -25.437792   1.000000
      5        -25.408495   1.000000
      6        -25.408079   1.000000
      7        -25.386058   1.000000
      8        -25.385337   1.000000
      9        -25.380631   1.000000
     10        -25.379842   1.000000
     11        -12.700488   1.000000
     12        -11.545677   1.000000
     13        -11.454275   1.000000
     14        -11.218654   1.000000
     15        -10.955612   1.000000
     16        -10.880554   1.000000
     17         -6.396837   1.000000
     18         -5.340290   1.000000
     19         -2.725314   1.000000
     20         -2.384866   1.000000
     21         -2.262319   1.000000
     22         -1.765566   1.000000
     23         -1.475083   1.000000
     24         -1.372297   1.000000
     25         -1.052211   1.000000
     26         -0.980247   1.000000
     27         -0.952823   1.000000
     28         -0.839734   1.000000
     29         -0.722618   1.000000
     30         -0.622705   1.000000
     31         -0.581908   1.000000
     32         -0.556801   1.000000
     33         -0.441302   1.000000
     34         -0.380573   1.000000
     35          0.479925   1.000000
     36          0.535648   1.000000
     37          0.551210   1.000000
     38          0.582547   1.000000
     39          0.613278   1.000000
     40          0.638596   1.000000
     41          0.675626   1.000000
     42          0.699452   1.000000
     43          0.927815   1.000000
     44          1.073192   1.000000
     45          1.215119   1.000000
     46          1.297038   1.000000
     47          1.343366   1.000000
     48          1.497558   1.000000
     49          1.657506   1.000000
     50          1.976395   1.000000
     51          2.082922   1.000000
     52          2.311567   1.000000
     53          2.784435   1.000000
     54          3.247679   1.000000
     55          5.020235   0.000000
     56          5.729752   0.000000
     57          6.992320   0.000000
     58          7.095798   0.000000
     59          7.399606   0.000000
     60          7.794469   0.000000
     61          8.035852   0.000000
     62          8.328601   0.000000
     63          8.797171   0.000000
     64          9.295810   0.000000
     65          9.444453   0.000000
     66          9.784974   0.000000
     67          9.949022   0.000000
     68         10.187383   0.000000
     69         10.384867   0.000000
     70         10.621630   0.000000
     71         10.988528   0.000000
     72         11.186286   0.000000
     73         11.327569   0.000000
     74         11.776081   0.000000
     75         12.230585   0.000000
     76         12.645875   0.000000
     77         12.933820   0.000000
     78         13.190626   0.000000
     79         13.589512   0.000000
     80         13.836764   0.000000
     81         14.126082   0.000000
     82         14.243707   0.000000
     83         14.635778   0.000000
     84         14.859569   0.000000
     85         15.258564   0.000000
     86         15.564019   0.000000
     87         15.942792   0.000000
     88         16.238353   0.000000
     89         16.498673   0.000000
     90         16.873769   0.000000
     91         16.990095   0.000000
     92         17.174672   0.000000
     93         17.245588   0.000000
     94         17.495711   0.000000
     95         17.789666   0.000000
     96         18.055648   0.000000
     97         18.409501   0.000000
     98         18.483368   0.000000
     99         18.645567   0.000000
    100         18.883602   0.000000
    101         19.188580   0.000000
    102         19.423802   0.000000
    103         19.864260   0.000000
    104         19.979284   0.000000
    105         20.269915   0.000000
    106         20.413476   0.000000
    107         20.508443   0.000000
    108         20.783900   0.000000
    109         21.102145   0.000000
    110         21.453839   0.000000
    111         21.612919   0.000000
    112         22.042900   0.000000
    113         22.290882   0.000000
    114         22.520221   0.000000
    115         22.762647   0.000000
    116         22.984513   0.000000
    117         23.087641   0.000000
    118         23.323448   0.000000
    119         23.580811   0.000000
    120         23.792946   0.000000
    121         24.383079   0.000000
    122         24.976099   0.000000
    123         25.023021   0.000000
    124         25.223156   0.000000
    125         25.328780   0.000000
    126         25.488658   0.000000
    127         25.593868   0.000000
    128         25.973159   0.000000
    129         26.052546   0.000000
    130         26.184154   0.000000
    131         26.389427   0.000000
    132         26.419446   0.000000
    133         26.685891   0.000000
    134         26.907039   0.000000
    135         27.115343   0.000000
    136         27.268328   0.000000
    137         27.404463   0.000000
    138         27.587409   0.000000
    139         27.683749   0.000000
    140         27.826831   0.000000

  0.2941176E+00  0.4203007E-17 -0.3559821E-17  0.0000000E+00
      1        -25.453423   1.000000
      2        -25.448339   1.000000
      3        -25.438752   1.000000
      4        -25.438142   1.000000
      5        -25.408850   1.000000
      6        -25.408433   1.000000
      7        -25.386409   1.000000
      8        -25.385688   1.000000
      9        -25.380984   1.000000
     10        -25.380195   1.000000
     11        -12.712986   1.000000
     12        -11.537736   1.000000
     13        -11.456409   1.000000
     14        -11.213112   1.000000
     15        -10.950739   1.000000
     16        -10.875047   1.000000
     17         -6.401526   1.000000
     18         -5.356620   1.000000
     19         -2.738745   1.000000
     20         -2.386455   1.000000
     21         -2.265068   1.000000
     22         -1.792342   1.000000
     23         -1.498910   1.000000
     24         -1.351406   1.000000
     25         -1.052031   1.000000
     26         -0.970470   1.000000
     27         -0.943004   1.000000
     28         -0.828543   1.000000
     29         -0.727972   1.000000
     30         -0.623157   1.000000
     31         -0.582976   1.000000
     32         -0.557999   1.000000
     33         -0.442990   1.000000
     34         -0.384241   1.000000
     35          0.482165   1.000000
     36          0.538038   1.000000
     37          0.550736   1.000000
     38          0.582486   1.000000
     39          0.610675   1.000000
     40          0.638047   1.000000
     41          0.673046   1.000000
     42          0.699486   1.000000
     43          0.925050   1.000000
     44          1.054135   1.000000
     45          1.216231   1.000000
     46          1.307323   1.000000
     47          1.374150   1.000000
     48          1.478493   1.000000
     49          1.657308   1.000000
     50          2.000011   1.000000
     51          2.084496   1.000000
     52          2.323679   1.000000
     53          2.823199   1.000000
     54          3.264815   1.000000
     55          4.995735   0.000000
     56          5.703819   0.000000
     57          6.982514   0.000000
     58          7.113252   0.000000
     59          7.384011   0.000000
     60          7.838580   0.000000
     61          8.014478   0.000000
     62          8.324076   0.000000
     63          8.760521   0.000000
     64          9.291319   0.000000
     65          9.461263   0.000000
     66          9.784014   0.000000
     67          9.922405   0.000000
     68         10.160771   0.000000
     69         10.400160   0.000000
     70         10.624494   0.000000
     71         10.973738   0.000000
     72         11.197036   0.000000
     73         11.332959   0.000000
     74         11.786908   0.000000
     75         12.278337   0.000000
     76         12.678595   0.000000
     77         12.962451   0.000000
     78         13.233219   0.000000
     79         13.601837   0.000000
     80         13.813248   0.000000
     81         14.107461   0.000000
     82         14.253184   0.000000
     83         14.646642   0.000000
     84         14.851728   0.000000
     85         15.254039   0.000000
     86         15.520407   0.000000
     87         15.852866   0.000000
     88         16.220164   0.000000
     89         16.515905   0.000000
     90         16.849597   0.000000
     91         16.967680   0.000000
     92         17.157159   0.000000
     93         17.281083   0.000000
     94         17.532848   0.000000
     95         17.763625   0.000000
     96         18.013808   0.000000
     97         18.369116   0.000000
     98         18.489962   0.000000
     99         18.609298   0.000000
    100         18.933602   0.000000
    101         19.170466   0.000000
    102         19.440578   0.000000
    103         19.829649   0.000000
    104         19.872851   0.000000
    105         20.305883   0.000000
    106         20.418076   0.000000
    107         20.583695   0.000000
    108         20.851912   0.000000
    109         21.101249   0.000000
    110         21.356176   0.000000
    111         21.547826   0.000000
    112         21.965308   0.000000
    113         22.288492   0.000000
    114         22.436713   0.000000
    115         22.699299   0.000000
    116         23.007923   0.000000
    117         23.169783   0.000000
    118         23.383097   0.000000
    119         23.559961   0.000000
    120         23.796541   0.000000
    121         24.346313   0.000000
    122         24.924678   0.000000
    123         25.036764   0.000000
    124         25.262647   0.000000
    125         25.366710   0.000000
    126         25.545954   0.000000
    127         25.621148   0.000000
    128         26.045107   0.000000
    129         26.119861   0.000000
    130         26.288300   0.000000
    131         26.447685   0.000000
    132         26.501425   0.000000
    133         26.816837   0.000000
    134         26.943912   0.000000
    135         27.146475   0.000000
    136         27.341287   0.000000
    137         27.443699   0.000000
    138         27.627895   0.000000
    139         27.756558   0.000000
    140         27.864089   0.000000

  0.2794118E+00 -0.1436378E-16  0.7620771E-18  0.0000000E+00
      1        -25.453783   1.000000
      2        -25.448698   1.000000
      3        -25.439110   1.000000
      4        -25.438500   1.000000
      5        -25.409213   1.000000
      6        -25.408797   1.000000
      7        -25.386771   1.000000
      8        -25.386051   1.000000
      9        -25.381348   1.000000
     10        -25.380559   1.000000
     11        -12.725509   1.000000
     12        -11.531083   1.000000
     13        -11.457478   1.000000
     14        -11.207394   1.000000
     15        -10.945451   1.000000
     16        -10.869625   1.000000
     17         -6.406278   1.000000
     18         -5.373278   1.000000
     19         -2.752276   1.000000
     20         -2.387753   1.000000
     21         -2.265637   1.000000
     22         -1.819427   1.000000
     23         -1.523800   1.000000
     24         -1.332637   1.000000
     25         -1.055272   1.000000
     26         -0.970089   1.000000
     27         -0.924495   1.000000
     28         -0.815113   1.000000
     29         -0.732569   1.000000
     30         -0.624109   1.000000
     31         -0.583574   1.000000
     32         -0.559042   1.000000
     33         -0.444399   1.000000
     34         -0.387849   1.000000
     35          0.484848   1.000000
     36          0.540805   1.000000
     37          0.550244   1.000000
     38          0.582516   1.000000
     39          0.608574   1.000000
     40          0.637755   1.000000
     41          0.670776   1.000000
     42          0.699826   1.000000
     43          0.920114   1.000000
     44          1.036698   1.000000
     45          1.214523   1.000000
     46          1.310649   1.000000
     47          1.406066   1.000000
     48          1.462778   1.000000
     49          1.662415   1.000000
     50          2.016299   1.000000
     51          2.095055   1.000000
     52          2.340814   1.000000
     53          2.862336   1.000000
     54          3.281792   1.000000
     55          4.968228   0.000000
     56          5.673696   0.000000
     57          6.969357   0.000000
     58          7.120192   0.000000
     59          7.374807   0.000000
     60          7.870727   0.000000
     61          8.006054   0.000000
     62          8.323830   0.000000
     63          8.724374   0.000000
     64          9.283750   0.000000
     65          9.483514   0.000000
     66          9.778113   0.000000
     67          9.898662   0.000000
     68         10.136890   0.000000
     69         10.415001   0.000000
     70         10.625734   0.000000
     71         10.963580   0.000000
     72         11.195077   0.000000
     73         11.362012   0.000000
     74         11.803655   0.000000
     75         12.326779   0.000000
     76         12.709360   0.000000
     77         12.978487   0.000000
     78         13.282544   0.000000
     79         13.607503   0.000000
     80         13.791331   0.000000
     81         14.076008   0.000000
     82         14.281105   0.000000
     83         14.656258   0.000000
     84         14.840421   0.000000
     85         15.246866   0.000000
     86         15.478443   0.000000
     87         15.765339   0.000000
     88         16.200602   0.000000
     89         16.520119   0.000000
     90         16.803478   0.000000
     91         16.942919   0.000000
     92         17.125410   0.000000
     93         17.306812   0.000000
     94         17.589143   0.000000
     95         17.752355   0.000000
     96         17.990100   0.000000
     97         18.309603   0.000000
     98         18.446099   0.000000
     99         18.630470   0.000000
    100         18.987007   0.000000
    101         19.187852   0.000000
    102         19.464447   0.000000
    103         19.700827   0.000000
    104         19.856035   0.000000
    105         20.298653   0.000000
    106         20.460720   0.000000
    107         20.656161   0.000000
    108         20.901716   0.000000
    109         21.098444   0.000000
    110         21.283323   0.000000
    111         21.501028   0.000000
    112         21.882512   0.000000
    113         22.261281   0.000000
    114         22.334791   0.000000
    115         22.627005   0.000000
    116         23.029781   0.000000
    117         23.225489   0.000000
    118         23.440924   0.000000
    119         23.632273   0.000000
    120         23.823943   0.000000
    121         24.297267   0.000000
    122         24.840753   0.000000
    123         25.034583   0.000000
    124         25.275142   0.000000
    125         25.417368   0.000000
    126         25.581591   0.000000
    127         25.685895   0.000000
    128         26.093758   0.000000
    129         26.198166   0.000000
    130         26.351005   0.000000
    131         26.504364   0.000000
    132         26.663976   0.000000
    133         26.939843   0.000000
    134         26.983514   0.000000
    135         27.176248   0.000000
    136         27.393803   0.000000
    137         27.463246   0.000000
    138         27.672992   0.000000
    139         27.830607   0.000000
    140         27.947462   0.000000

  0.2647059E+00 -0.6604683E-17 -0.8793813E-17  0.0000000E+00
      1        -25.454146   1.000000
      2        -25.449062   1.000000
      3        -25.439473   1.000000
      4        -25.438864   1.000000
      5        -25.409583   1.000000
      6        -25.409165   1.000000
      7        -25.387136   1.000000
      8        -25.386417   1.000000
      9        -25.381715   1.000000
     10        -25.380928   1.000000
     11        -12.737948   1.000000
     12        -11.526142   1.000000
     13        -11.457090   1.000000
     14        -11.201578   1.000000
     15        -10.939775   1.000000
     16        -10.864335   1.000000
     17         -6.411049   1.000000
     18         -5.390115   1.000000
     19         -2.765756   1.000000
     20         -2.388560   1.000000
     21         -2.264310   1.000000
     22         -1.846546   1.000000
     23         -1.549288   1.000000
     24         -1.316696   1.000000
     25         -1.060939   1.000000
     26         -0.973187   1.000000
     27         -0.903759   1.000000
     28         -0.800361   1.000000
     29         -0.735906   1.000000
     30         -0.625580   1.000000
     31         -0.583794   1.000000
     32         -0.559841   1.000000
     33         -0.445484   1.000000
     34         -0.391343   1.000000
     35          0.487972   1.000000
     36          0.543937   1.000000
     37          0.549867   1.000000
     38          0.582466   1.000000
     39          0.607122   1.000000
     40          0.637685   1.000000
     41          0.668852   1.000000
     42          0.700425   1.000000
     43          0.912641   1.000000
     44          1.021363   1.000000
     45          1.211922   1.000000
     46          1.307649   1.000000
     47          1.416374   1.000000
     48          1.470042   1.000000
     49          1.673252   1.000000
     50          2.023954   1.000000
     51          2.115779   1.000000
     52          2.363367   1.000000
     53          2.901468   1.000000
     54          3.298493   1.000000
     55          4.937565   0.000000
     56          5.639633   0.000000
     57          6.953023   0.000000
     58          7.114591   0.000000
     59          7.374113   0.000000
     60          7.877009   0.000000
     61          8.022770   0.000000
     62          8.327927   0.000000
     63          8.689589   0.000000
     64          9.275213   0.000000
     65          9.507791   0.000000
     66          9.765575   0.000000
     67          9.879667   0.000000
     68         10.117729   0.000000
     69         10.429345   0.000000
     70         10.625766   0.000000
     71         10.961012   0.000000
     72         11.187070   0.000000
     73         11.407584   0.000000
     74         11.824591   0.000000
     75         12.373993   0.000000
     76         12.737839   0.000000
     77         12.983864   0.000000
     78         13.334316   0.000000
     79         13.601407   0.000000
     80         13.777538   0.000000
     81         14.047310   0.000000
     82         14.315333   0.000000
     83         14.662944   0.000000
     84         14.820760   0.000000
     85         15.236049   0.000000
     86         15.441036   0.000000
     87         15.685085   0.000000
     88         16.177766   0.000000
     89         16.505738   0.000000
     90         16.760305   0.000000
     91         16.911726   0.000000
     92         17.093265   0.000000
     93         17.289580   0.000000
     94         17.639802   0.000000
     95         17.773438   0.000000
     96         17.993571   0.000000
     97         18.227353   0.000000
     98         18.399885   0.000000
     99         18.689078   0.000000
    100         19.032471   0.000000
    101         19.219365   0.000000
    102         19.482306   0.000000
    103         19.595514   0.000000
    104         19.834793   0.000000
    105         20.294564   0.000000
    106         20.485659   0.000000
    107         20.717710   0.000000
    108         20.949218   0.000000
    109         21.054329   0.000000
    110         21.279053   0.000000
    111         21.458000   0.000000
    112         21.809963   0.000000
    113         22.179618   0.000000
    114         22.258289   0.000000
    115         22.573003   0.000000
    116         23.036975   0.000000
    117         23.234420   0.000000
    118         23.488987   0.000000
    119         23.777178   0.000000
    120         23.882782   0.000000
    121         24.243489   0.000000
    122         24.748916   0.000000
    123         25.020956   0.000000
    124         25.275546   0.000000
    125         25.459691   0.000000
    126         25.607001   0.000000
    127         25.768393   0.000000
    128         26.134102   0.000000
    129         26.263172   0.000000
    130         26.423360   0.000000
    131         26.567564   0.000000
    132         26.812426   0.000000
    133         27.018894   0.000000
    134         27.065253   0.000000
    135         27.214594   0.000000
    136         27.405595   0.000000
    137         27.491280   0.000000
    138         27.732763   0.000000
    139         27.902176   0.000000
    140         28.054219   0.000000

  0.2500000E+00  0.1154419E-17 -0.4471915E-17  0.0000000E+00
      1        -25.453649   1.000000
      2        -25.448563   1.000000
      3        -25.438973   1.000000
      4        -25.438363   1.000000
      5        -25.409087   1.000000
      6        -25.408671   1.000000
      7        -25.386639   1.000000
      8        -25.385919   1.000000
      9        -25.381218   1.000000
     10        -25.380433   1.000000
     11        -12.749340   1.000000
     12        -11.522322   1.000000
     13        -11.454131   1.000000
     14        -11.194881   1.000000
     15        -10.932878   1.000000
     16        -10.858356   1.000000
     17         -6.414930   1.000000
     18         -5.406116   1.000000
     19         -2.778176   1.000000
     20         -2.387826   1.000000
     21         -2.260561   1.000000
     22         -1.872575   1.000000
     23         -1.574100   1.000000
     24         -1.303346   1.000000
     25         -1.067328   1.000000
     26         -0.976958   1.000000
     27         -0.882094   1.000000
     28         -0.784625   1.000000
     29         -0.736406   1.000000
     30         -0.626649   1.000000
     31         -0.582949   1.000000
     32         -0.559445   1.000000
     33         -0.445336   1.000000
     34         -0.393808   1.000000
     35          0.492364   1.000000
     36          0.548196   1.000000
     37          0.550670   1.000000
     38          0.583065   1.000000
     39          0.607293   1.000000
     40          0.638668   1.000000
     41          0.668144   1.000000
     42          0.702109   1.000000
     43          0.903398   1.000000
     44          1.009210   1.000000
     45          1.210084   1.000000
     46          1.300201   1.000000
     47          1.401525   1.000000
     48          1.503661   1.000000
     49          1.690509   1.000000
     50          2.027771   1.000000
     51          2.143463   1.000000
     52          2.392609   1.000000
     53          2.941092   1.000000
     54          3.315682   1.000000
     55          4.903621   0.000000
     56          5.601986   0.000000
     57          6.933250   0.000000
     58          7.098071   0.000000
     59          7.380641   0.000000
     60          7.862144   0.000000
     61          8.058229   0.000000
     62          8.336691   0.000000
     63          8.656909   0.000000
     64          9.267105   0.000000
     65          9.530503   0.000000
     66          9.748327   0.000000
     67          9.863689   0.000000
     68         10.105484   0.000000
     69         10.443941   0.000000
     70         10.625781   0.000000
     71         10.966806   0.000000
     72         11.180308   0.000000
     73         11.461970   0.000000
     74         11.848321   0.000000
     75         12.418512   0.000000
     76         12.763665   0.000000
     77         12.981996   0.000000
     78         13.378107   0.000000
     79         13.589749   0.000000
     80         13.771021   0.000000
     81         14.028880   0.000000
     82         14.351107   0.000000
     83         14.665547   0.000000
     84         14.790386   0.000000
     85         15.220162   0.000000
     86         15.407581   0.000000
     87         15.617051   0.000000
     88         16.149689   0.000000
     89         16.471327   0.000000
     90         16.733567   0.000000
     91         16.873565   0.000000
     92         17.065542   0.000000
     93         17.229042   0.000000
     94         17.675851   0.000000
     95         17.805519   0.000000
     96         18.029159   0.000000
     97         18.137014   0.000000
     98         18.387184   0.000000
     99         18.761867   0.000000
    100         19.053175   0.000000
    101         19.230219   0.000000
    102         19.473934   0.000000
    103         19.570656   0.000000
    104         19.806333   0.000000
    105         20.300532   0.000000
    106         20.484726   0.000000
    107         20.754409   0.000000
    108         20.996470   0.000000
    109         21.012903   0.000000
    110         21.287264   0.000000
    111         21.437661   0.000000
    112         21.747895   0.000000
    113         22.073018   0.000000
    114         22.203057   0.000000
    115         22.537966   0.000000
    116         23.031089   0.000000
    117         23.219088   0.000000
    118         23.528684   0.000000
    119         23.904359   0.000000
    120         23.996651   0.000000
    121         24.201533   0.000000
    122         24.665641   0.000000
    123         24.999068   0.000000
    124         25.272386   0.000000
    125         25.489323   0.000000
    126         25.638354   0.000000
    127         25.847149   0.000000
    128         26.171297   0.000000
    129         26.294024   0.000000
    130         26.521706   0.000000
    131         26.650728   0.000000
    132         26.874085   0.000000
    133         27.101026   0.000000
    134         27.132150   0.000000
    135         27.243720   0.000000
    136         27.458897   0.000000
    137         27.517860   0.000000
    138         27.790357   0.000000
    139         27.967046   0.000000
    140         28.150374   0.000000

  0.2352941E+00  0.8913521E-17 -0.1500178E-18  0.0000000E+00
      1        -25.454884   1.000000
      2        -25.449797   1.000000
      3        -25.440206   1.000000
      4        -25.439596   1.000000
      5        -25.410326   1.000000
      6        -25.409911   1.000000
      7        -25.387877   1.000000
      8        -25.387157   1.000000
      9        -25.382457   1.000000
     10        -25.381675   1.000000
     11        -12.762190   1.000000
     12        -11.522184   1.000000
     13        -11.451245   1.000000
     14        -11.189982   1.000000
     15        -10.927396   1.000000
     16        -10.854324   1.000000
     17         -6.420479   1.000000
     18         -5.423736   1.000000
     19         -2.791997   1.000000
     20         -2.388008   1.000000
     21         -2.257355   1.000000
     22         -1.899862   1.000000
     23         -1.600438   1.000000
     24         -1.295699   1.000000
     25         -1.076553   1.000000
     26         -0.983117   1.000000
     27         -0.862894   1.000000
     28         -0.772056   1.000000
     29         -0.735538   1.000000
     30         -0.629801   1.000000
     31         -0.583843   1.000000
     32         -0.560387   1.000000
     33         -0.446514   1.000000
     34         -0.397795   1.000000
     35          0.495357   1.000000
     36          0.549239   1.000000
     37          0.551857   1.000000
     38          0.581692   1.000000
     39          0.606511   1.000000
     40          0.638055   1.000000
     41          0.666060   1.000000
     42          0.702235   1.000000
     43          0.890075   1.000000
     44          0.997481   1.000000
     45          1.206585   1.000000
     46          1.287145   1.000000
     47          1.379561   1.000000
     48          1.538893   1.000000
     49          1.711024   1.000000
     50          2.029131   1.000000
     51          2.171442   1.000000
     52          2.426304   1.000000
     53          2.978265   1.000000
     54          3.330674   1.000000
     55          4.866296   0.000000
     56          5.561194   0.000000
     57          6.909628   0.000000
     58          7.074420   0.000000
     59          7.391117   0.000000
     60          7.839120   0.000000
     61          8.097817   0.000000
     62          8.350546   0.000000
     63          8.626953   0.000000
     64          9.260310   0.000000
     65          9.547376   0.000000
     66          9.731314   0.000000
     67          9.847600   0.000000
     68         10.101268   0.000000
     69         10.460245   0.000000
     70         10.627483   0.000000
     71         10.980161   0.000000
     72         11.178589   0.000000
     73         11.520732   0.000000
     74         11.873861   0.000000
     75         12.459493   0.000000
     76         12.786256   0.000000
     77         12.976231   0.000000
     78         13.396146   0.000000
     79         13.591332   0.000000
     80         13.767041   0.000000
     81         14.022868   0.000000
     82         14.386237   0.000000
     83         14.662549   0.000000
     84         14.751032   0.000000
     85         15.198608   0.000000
     86         15.372567   0.000000
     87         15.566400   0.000000
     88         16.114155   0.000000
     89         16.426942   0.000000
     90         16.715413   0.000000
     91         16.834683   0.000000
     92         17.041918   0.000000
     93         17.150207   0.000000
     94         17.692251   0.000000
     95         17.815644   0.000000
     96         18.016949   0.000000
     97         18.140620   0.000000
     98         18.410142   0.000000
     99         18.835588   0.000000
    100         19.027951   0.000000
    101         19.210794   0.000000
    102         19.489470   0.000000
    103         19.589385   0.000000
    104         19.784755   0.000000
    105         20.303039   0.000000
    106         20.482837   0.000000
    107         20.733450   0.000000
    108         21.010362   0.000000
    109         21.064893   0.000000
    110         21.234251   0.000000
    111         21.476996   0.000000
    112         21.683166   0.000000
    113         21.987688   0.000000
    114         22.150599   0.000000
    115         22.518191   0.000000
    116         23.021354   0.000000
    117         23.191500   0.000000
    118         23.544819   0.000000
    119         23.961876   0.000000
    120         24.115212   0.000000
    121         24.246287   0.000000
    122         24.605621   0.000000
    123         24.973319   0.000000
    124         25.268562   0.000000
    125         25.508675   0.000000
    126         25.676524   0.000000
    127         25.917655   0.000000
    128         26.207586   0.000000
    129         26.308007   0.000000
    130         26.592171   0.000000
    131         26.767559   0.000000
    132         26.894350   0.000000
    133         27.130854   0.000000
    134         27.187700   0.000000
    135         27.222931   0.000000
    136         27.511100   0.000000
    137         27.627907   0.000000
    138         27.831055   0.000000
    139         27.996628   0.000000
    140         28.145692   0.000000

  0.2205882E+00 -0.2353106E-16  0.4171880E-17  0.0000000E+00
      1        -25.455252   1.000000
      2        -25.450162   1.000000
      3        -25.440569   1.000000
      4        -25.439961   1.000000
      5        -25.410696   1.000000
      6        -25.410284   1.000000
      7        -25.388245   1.000000
      8        -25.387522   1.000000
      9        -25.382826   1.000000
     10        -25.382046   1.000000
     11        -12.773818   1.000000
     12        -11.522803   1.000000
     13        -11.446172   1.000000
     14        -11.184362   1.000000
     15        -10.920778   1.000000
     16        -10.849679   1.000000
     17         -6.425060   1.000000
     18         -5.440233   1.000000
     19         -2.804500   1.000000
     20         -2.386419   1.000000
     21         -2.252473   1.000000
     22         -1.925562   1.000000
     23         -1.625313   1.000000
     24         -1.291460   1.000000
     25         -1.085965   1.000000
     26         -0.988208   1.000000
     27         -0.844106   1.000000
     28         -0.761647   1.000000
     29         -0.729392   1.000000
     30         -0.632316   1.000000
     31         -0.584037   1.000000
     32         -0.560051   1.000000
     33         -0.446378   1.000000
     34         -0.400664   1.000000
     35          0.499451   1.000000
     36          0.549662   1.000000
     37          0.556073   1.000000
     38          0.581054   1.000000
     39          0.607319   1.000000
     40          0.638395   1.000000
     41          0.665224   1.000000
     42          0.703360   1.000000
     43          0.875876   1.000000
     44          0.988321   1.000000
     45          1.203810   1.000000
     46          1.272675   1.000000
     47          1.357337   1.000000
     48          1.572899   1.000000
     49          1.736548   1.000000
     50          2.032979   1.000000
     51          2.200078   1.000000
     52          2.467251   1.000000
     53          3.015260   1.000000
     54          3.345997   1.000000
     55          4.825532   0.000000
     56          5.517766   0.000000
     57          6.881826   0.000000
     58          7.047285   0.000000
     59          7.402512   0.000000
     60          7.813888   0.000000
     61          8.134340   0.000000
     62          8.369592   0.000000
     63          8.600217   0.000000
     64          9.255413   0.000000
     65          9.553859   0.000000
     66          9.719185   0.000000
     67          9.830619   0.000000
     68         10.104195   0.000000
     69         10.479994   0.000000
     70         10.632695   0.000000
     71         10.999485   0.000000
     72         11.183868   0.000000
     73         11.580917   0.000000
     74         11.900697   0.000000
     75         12.496861   0.000000
     76         12.804625   0.000000
     77         12.969462   0.000000
     78         13.380229   0.000000
     79         13.613179   0.000000
     80         13.765822   0.000000
     81         14.027342   0.000000
     82         14.418489   0.000000
     83         14.648980   0.000000
     84         14.711492   0.000000
     85         15.172098   0.000000
     86         15.330382   0.000000
     87         15.534016   0.000000
     88         16.069914   0.000000
     89         16.386079   0.000000
     90         16.681911   0.000000
     91         16.808403   0.000000
     92         17.020120   0.000000
     93         17.079489   0.000000
     94         17.687002   0.000000
     95         17.780599   0.000000
     96         17.980156   0.000000
     97         18.228608   0.000000
     98         18.460044   0.000000
     99         18.872854   0.000000
    100         18.989007   0.000000
    101         19.194148   0.000000
    102         19.525018   0.000000
    103         19.598017   0.000000
    104         19.793945   0.000000
    105         20.290972   0.000000
    106         20.498943   0.000000
    107         20.677207   0.000000
    108         21.049248   0.000000
    109         21.108848   0.000000
    110         21.176079   0.000000
    111         21.517979   0.000000
    112         21.624829   0.000000
    113         21.937397   0.000000
    114         22.104703   0.000000
    115         22.510904   0.000000
    116         23.013555   0.000000
    117         23.156478   0.000000
    118         23.529434   0.000000
    119         23.938003   0.000000
    120         24.195239   0.000000
    121         24.406370   0.000000
    122         24.582847   0.000000
    123         24.950895   0.000000
    124         25.264732   0.000000
    125         25.521482   0.000000
    126         25.718342   0.000000
    127         25.978162   0.000000
    128         26.243840   0.000000
    129         26.315174   0.000000
    130         26.626892   0.000000
    131         26.830319   0.000000
    132         26.973792   0.000000
    133         27.093573   0.000000
    134         27.180850   0.000000
    135         27.262393   0.000000
    136         27.498168   0.000000
    137         27.757336   0.000000
    138         27.894497   0.000000
    139         28.040979   0.000000
    140         28.153463   0.000000

  0.2058824E+00 -0.1577196E-16 -0.5384010E-17  0.0000000E+00
      1        -25.455614   1.000000
      2        -25.450521   1.000000
      3        -25.440927   1.000000
      4        -25.440318   1.000000
      5        -25.411061   1.000000
      6        -25.410647   1.000000
      7        -25.388604   1.000000
      8        -25.387880   1.000000
      9        -25.383187   1.000000
     10        -25.382409   1.000000
     11        -12.785013   1.000000
     12        -11.524587   1.000000
     13        -11.440229   1.000000
     14        -11.178956   1.000000
     15        -10.913943   1.000000
     16        -10.845323   1.000000
     17         -6.429500   1.000000
     18         -5.456338   1.000000
     19         -2.816440   1.000000
     20         -2.383894   1.000000
     21         -2.247164   1.000000
     22         -1.950297   1.000000
     23         -1.649197   1.000000
     24         -1.291472   1.000000
     25         -1.096759   1.000000
     26         -0.992227   1.000000
     27         -0.827103   1.000000
     28         -0.754028   1.000000
     29         -0.719219   1.000000
     30         -0.634948   1.000000
     31         -0.584483   1.000000
     32         -0.559340   1.000000
     33         -0.445759   1.000000
     34         -0.403252   1.000000
     35          0.503647   1.000000
     36          0.550220   1.000000
     37          0.560803   1.000000
     38          0.580486   1.000000
     39          0.608740   1.000000
     40          0.638758   1.000000
     41          0.664806   1.000000
     42          0.704554   1.000000
     43          0.860640   1.000000
     44          0.980332   1.000000
     45          1.200315   1.000000
     46          1.257536   1.000000
     47          1.334983   1.000000
     48          1.603191   1.000000
     49          1.764959   1.000000
     50          2.039979   1.000000
     51          2.227417   1.000000
     52          2.514498   1.000000
     53          3.050909   1.000000
     54          3.360722   1.000000
     55          4.781315   0.000000
     56          5.472263   0.000000
     57          6.849829   0.000000
     58          7.019176   0.000000
     59          7.412885   0.000000
     60          7.788615   0.000000
     61          8.165306   0.000000
     62          8.392988   0.000000
     63          8.577122   0.000000
     64          9.252817   0.000000
     65          9.547944   0.000000
     66          9.712539   0.000000
     67          9.814926   0.000000
     68         10.111926   0.000000
     69         10.504357   0.000000
     70         10.643286   0.000000
     71         11.023016   0.000000
     72         11.197329   0.000000
     73         11.639855   0.000000
     74         11.928931   0.000000
     75         12.531313   0.000000
     76         12.817410   0.000000
     77         12.964080   0.000000
     78         13.344603   0.000000
     79         13.634676   0.000000
     80         13.773645   0.000000
     81         14.038698   0.000000
     82         14.443850   0.000000
     83         14.615238   0.000000
     84         14.688719   0.000000
     85         15.142136   0.000000
     86         15.281589   0.000000
     87         15.512262   0.000000
     88         16.018300   0.000000
     89         16.356576   0.000000
     90         16.618620   0.000000
     91         16.800316   0.000000
     92         16.994871   0.000000
     93         17.039967   0.000000
     94         17.654716   0.000000
     95         17.719259   0.000000
     96         17.982687   0.000000
     97         18.318767   0.000000
     98         18.512042   0.000000
     99         18.827359   0.000000
    100         19.015424   0.000000
    101         19.189293   0.000000
    102         19.519658   0.000000
    103         19.623918   0.000000
    104         19.833232   0.000000
    105         20.273544   0.000000
    106         20.520962   0.000000
    107         20.629155   0.000000
    108         21.022930   0.000000
    109         21.125965   0.000000
    110         21.204772   0.000000
    111         21.483148   0.000000
    112         21.636162   0.000000
    113         21.919981   0.000000
    114         22.073318   0.000000
    115         22.511311   0.000000
    116         23.008848   0.000000
    117         23.117943   0.000000
    118         23.486291   0.000000
    119         23.870718   0.000000
    120         24.275257   0.000000
    121         24.552301   0.000000
    122         24.625466   0.000000
    123         24.943766   0.000000
    124         25.261273   0.000000
    125         25.530444   0.000000
    126         25.760857   0.000000
    127         26.025302   0.000000
    128         26.279426   0.000000
    129         26.319288   0.000000
    130         26.633851   0.000000
    131         26.837476   0.000000
    132         26.967735   0.000000
    133         27.122133   0.000000
    134         27.187743   0.000000
    135         27.325658   0.000000
    136         27.480847   0.000000
    137         27.786750   0.000000
    138         27.939835   0.000000
    139         28.085747   0.000000
    140         28.238730   0.000000

  0.1911765E+00 -0.8012855E-17 -0.8001007E-17  0.0000000E+00
      1        -25.455965   1.000000
      2        -25.450873   1.000000
      3        -25.441274   1.000000
      4        -25.440666   1.000000
      5        -25.411413   1.000000
      6        -25.410999   1.000000
      7        -25.388954   1.000000
      8        -25.388230   1.000000
      9        -25.383538   1.000000
     10        -25.382763   1.000000
     11        -12.795707   1.000000
     12        -11.527121   1.000000
     13        -11.433828   1.000000
     14        -11.173827   1.000000
     15        -10.906949   1.000000
     16        -10.841291   1.000000
     17         -6.433766   1.000000
     18         -5.471920   1.000000
     19         -2.827723   1.000000
     20         -2.380452   1.000000
     21         -2.241816   1.000000
     22         -1.973832   1.000000
     23         -1.671703   1.000000
     24         -1.295352   1.000000
     25         -1.109410   1.000000
     26         -0.994503   1.000000
     27         -0.812344   1.000000
     28         -0.747023   1.000000
     29         -0.707286   1.000000
     30         -0.637607   1.000000
     31         -0.585198   1.000000
     32         -0.558339   1.000000
     33         -0.444640   1.000000
     34         -0.405534   1.000000
     35          0.507792   1.000000
     36          0.551002   1.000000
     37          0.565846   1.000000
     38          0.580266   1.000000
     39          0.610669   1.000000
     40          0.639079   1.000000
     41          0.664838   1.000000
     42          0.705738   1.000000
     43          0.844999   1.000000
     44          0.973057   1.000000
     45          1.195100   1.000000
     46          1.243387   1.000000
     47          1.313059   1.000000
     48          1.629361   1.000000
     49          1.794418   1.000000
     50          2.051334   1.000000
     51          2.253024   1.000000
     52          2.567643   1.000000
     53          3.084931   1.000000
     54          3.374797   1.000000
     55          4.733688   0.000000
     56          5.425286   0.000000
     57          6.814090   0.000000
     58          6.991456   0.000000
     59          7.421276   0.000000
     60          7.764190   0.000000
     61          8.190637   0.000000
     62          8.418591   0.000000
     63          8.558149   0.000000
     64          9.252780   0.000000
     65          9.532273   0.000000
     66          9.706837   0.000000
     67          9.803745   0.000000
     68         10.121978   0.000000
     69         10.532822   0.000000
     70         10.661534   0.000000
     71         11.049177   0.000000
     72         11.219763   0.000000
     73         11.694651   0.000000
     74         11.959485   0.000000
     75         12.564066   0.000000
     76         12.823521   0.000000
     77         12.961529   0.000000
     78         13.302933   0.000000
     79         13.638777   0.000000
     80         13.792605   0.000000
     81         14.053547   0.000000
     82         14.454963   0.000000
     83         14.572167   0.000000
     84         14.683476   0.000000
     85         15.110454   0.000000
     86         15.230070   0.000000
     87         15.490243   0.000000
     88         15.962358   0.000000
     89         16.340444   0.000000
     90         16.538416   0.000000
     91         16.798426   0.000000
     92         16.973345   0.000000
     93         17.031416   0.000000
     94         17.584449   0.000000
     95         17.681165   0.000000
     96         17.999316   0.000000
     97         18.387983   0.000000
     98         18.526482   0.000000
     99         18.801860   0.000000
    100         19.039913   0.000000
    101         19.205378   0.000000
    102         19.481531   0.000000
    103         19.668067   0.000000
    104         19.877750   0.000000
    105         20.265612   0.000000
    106         20.519534   0.000000
    107         20.615625   0.000000
    108         20.962416   0.000000
    109         21.133149   0.000000
    110         21.259141   0.000000
    111         21.436944   0.000000
    112         21.668765   0.000000
    113         21.927719   0.000000
    114         22.068762   0.000000
    115         22.511220   0.000000
    116         23.002166   0.000000
    117         23.084120   0.000000
    118         23.426598   0.000000
    119         23.787923   0.000000
    120         24.326720   0.000000
    121         24.630330   0.000000
    122         24.745443   0.000000
    123         24.970654   0.000000
    124         25.262061   0.000000
    125         25.537654   0.000000
    126         25.801247   0.000000
    127         26.053347   0.000000
    128         26.309901   0.000000
    129         26.327045   0.000000
    130         26.616224   0.000000
    131         26.822083   0.000000
    132         26.896559   0.000000
    133         27.117368   0.000000
    134         27.255328   0.000000
    135         27.418335   0.000000
    136         27.483623   0.000000
    137         27.779743   0.000000
    138         27.913232   0.000000
    139         28.063231   0.000000
    140         28.292228   0.000000

  0.1764706E+00 -0.2537535E-18 -0.3679109E-17  0.0000000E+00
      1        -25.456303   1.000000
      2        -25.451209   1.000000
      3        -25.441609   1.000000
      4        -25.441000   1.000000
      5        -25.411752   1.000000
      6        -25.411341   1.000000
      7        -25.389291   1.000000
      8        -25.388567   1.000000
      9        -25.383877   1.000000
     10        -25.383105   1.000000
     11        -12.805838   1.000000
     12        -11.530084   1.000000
     13        -11.427283   1.000000
     14        -11.169027   1.000000
     15        -10.899862   1.000000
     16        -10.837616   1.000000
     17         -6.437827   1.000000
     18         -5.486856   1.000000
     19         -2.838273   1.000000
     20         -2.376157   1.000000
     21         -2.236810   1.000000
     22         -1.995941   1.000000
     23         -1.692461   1.000000
     24         -1.302418   1.000000
     25         -1.124225   1.000000
     26         -0.994790   1.000000
     27         -0.800087   1.000000
     28         -0.739059   1.000000
     29         -0.695372   1.000000
     30         -0.640208   1.000000
     31         -0.586162   1.000000
     32         -0.557140   1.000000
     33         -0.443020   1.000000
     34         -0.407501   1.000000
     35          0.511724   1.000000
     36          0.551988   1.000000
     37          0.570834   1.000000
     38          0.580874   1.000000
     39          0.613031   1.000000
     40          0.639312   1.000000
     41          0.665355   1.000000
     42          0.706827   1.000000
     43          0.829461   1.000000
     44          0.966180   1.000000
     45          1.187007   1.000000
     46          1.231674   1.000000
     47          1.292118   1.000000
     48          1.651729   1.000000
     49          1.822736   1.000000
     50          2.067960   1.000000
     51          2.276852   1.000000
     52          2.626033   1.000000
     53          3.117070   1.000000
     54          3.388179   1.000000
     55          4.682763   0.000000
     56          5.377470   0.000000
     57          6.775496   0.000000
     58          6.964680   0.000000
     59          7.427385   0.000000
     60          7.741031   0.000000
     61          8.211445   0.000000
     62          8.443040   0.000000
     63          8.544228   0.000000
     64          9.255363   0.000000
     65          9.511459   0.000000
     66          9.697879   0.000000
     67          9.798158   0.000000
     68         10.132463   0.000000
     69         10.562603   0.000000
     70         10.690380   0.000000
     71         11.076785   0.000000
     72         11.251582   0.000000
     73         11.742253   0.000000
     74         11.994007   0.000000
     75         12.596404   0.000000
     76         12.823185   0.000000
     77         12.961544   0.000000
     78         13.262226   0.000000
     79         13.627048   0.000000
     80         13.812126   0.000000
     81         14.067405   0.000000
     82         14.443775   0.000000
     83         14.539856   0.000000
     84         14.689004   0.000000
     85         15.078657   0.000000
     86         15.179191   0.000000
     87         15.460566   0.000000
     88         15.902875   0.000000
     89         16.337055   0.000000
     90         16.460697   0.000000
     91         16.796105   0.000000
     92         16.963483   0.000000
     93         17.040476   0.000000
     94         17.504770   0.000000
     95         17.657509   0.000000
     96         18.013531   0.000000
     97         18.383558   0.000000
     98         18.543443   0.000000
     99         18.809760   0.000000
    100         19.048035   0.000000
    101         19.239377   0.000000
    102         19.448643   0.000000
    103         19.706583   0.000000
    104         19.910807   0.000000
    105         20.275506   0.000000
    106         20.495274   0.000000
    107         20.622875   0.000000
    108         20.923599   0.000000
    109         21.112322   0.000000
    110         21.310633   0.000000
    111         21.419554   0.000000
    112         21.697510   0.000000
    113         21.948777   0.000000
    114         22.100034   0.000000
    115         22.501534   0.000000
    116         22.978817   0.000000
    117         23.072755   0.000000
    118         23.362347   0.000000
    119         23.698431   0.000000
    120         24.341271   0.000000
    121         24.707046   0.000000
    122         24.835819   0.000000
    123         25.029042   0.000000
    124         25.285638   0.000000
    125         25.545722   0.000000
    126         25.834838   0.000000
    127         26.058757   0.000000
    128         26.323669   0.000000
    129         26.348617   0.000000
    130         26.574332   0.000000
    131         26.776653   0.000000
    132         26.886618   0.000000
    133         27.089906   0.000000
    134         27.276011   0.000000
    135         27.473348   0.000000
    136         27.561380   0.000000
    137         27.740107   0.000000
    138         27.902347   0.000000
    139         28.082484   0.000000
    140         28.318215   0.000000

  0.1617647E+00 -0.4942757E-17  0.6427886E-18  0.0000000E+00
      1        -25.456627   1.000000
      2        -25.451532   1.000000
      3        -25.441929   1.000000
      4        -25.441322   1.000000
      5        -25.412078   1.000000
      6        -25.411670   1.000000
      7        -25.389614   1.000000
      8        -25.388889   1.000000
      9        -25.384200   1.000000
     10        -25.383429   1.000000
     11        -12.815350   1.000000
     12        -11.533247   1.000000
     13        -11.420818   1.000000
     14        -11.164597   1.000000
     15        -10.892751   1.000000
     16        -10.834332   1.000000
     17         -6.441657   1.000000
     18         -5.501031   1.000000
     19         -2.848030   1.000000
     20         -2.371116   1.000000
     21         -2.232507   1.000000
     22         -2.016419   1.000000
     23         -1.711125   1.000000
     24         -1.311828   1.000000
     25         -1.141174   1.000000
     26         -0.993287   1.000000
     27         -0.790190   1.000000
     28         -0.729798   1.000000
     29         -0.684351   1.000000
     30         -0.642669   1.000000
     31         -0.587342   1.000000
     32         -0.555819   1.000000
     33         -0.440931   1.000000
     34         -0.409156   1.000000
     35          0.515290   1.000000
     36          0.553143   1.000000
     37          0.574784   1.000000
     38          0.583327   1.000000
     39          0.615783   1.000000
     40          0.639440   1.000000
     41          0.666359   1.000000
     42          0.707716   1.000000
     43          0.814395   1.000000
     44          0.959504   1.000000
     45          1.175799   1.000000
     46          1.222478   1.000000
     47          1.272925   1.000000
     48          1.670941   1.000000
     49          1.847978   1.000000
     50          2.090193   1.000000
     51          2.299063   1.000000
     52          2.688867   1.000000
     53          3.147100   1.000000
     54          3.400824   1.000000
     55          4.628733   0.000000
     56          5.329476   0.000000
     57          6.735176   0.000000
     58          6.938982   0.000000
     59          7.431309   0.000000
     60          7.719367   0.000000
     61          8.229074   0.000000
     62          8.461806   0.000000
     63          8.537443   0.000000
     64          9.260294   0.000000
     65          9.489377   0.000000
     66          9.685999   0.000000
     67          9.795760   0.000000
     68         10.142084   0.000000
     69         10.589994   0.000000
     70         10.732157   0.000000
     71         11.105132   0.000000
     72         11.292653   0.000000
     73         11.780458   0.000000
     74         12.033985   0.000000
     75         12.629114   0.000000
     76         12.818118   0.000000
     77         12.962425   0.000000
     78         13.226392   0.000000
     79         13.605601   0.000000
     80         13.821914   0.000000
     81         14.071950   0.000000
     82         14.415604   0.000000
     83         14.524576   0.000000
     84         14.699483   0.000000
     85         15.048390   0.000000
     86         15.131923   0.000000
     87         15.421987   0.000000
     88         15.835971   0.000000
     89         16.345143   0.000000
     90         16.402493   0.000000
     91         16.794533   0.000000
     92         16.959207   0.000000
     93         17.060620   0.000000
     94         17.433059   0.000000
     95         17.640940   0.000000
     96         18.010057   0.000000
     97         18.322070   0.000000
     98         18.592351   0.000000
     99         18.796758   0.000000
    100         19.047095   0.000000
    101         19.284512   0.000000
    102         19.437755   0.000000
    103         19.734397   0.000000
    104         19.928135   0.000000
    105         20.301517   0.000000
    106         20.464572   0.000000
    107         20.624499   0.000000
    108         20.913314   0.000000
    109         21.096224   0.000000
    110         21.348130   0.000000
    111         21.421521   0.000000
    112         21.733804   0.000000
    113         21.978911   0.000000
    114         22.157688   0.000000
    115         22.476814   0.000000
    116         22.940537   0.000000
    117         23.085376   0.000000
    118         23.301955   0.000000
    119         23.606543   0.000000
    120         24.327589   0.000000
    121         24.775300   0.000000
    122         24.902015   0.000000
    123         25.050844   0.000000
    124         25.361130   0.000000
    125         25.558074   0.000000
    126         25.851836   0.000000
    127         26.051553   0.000000
    128         26.307678   0.000000
    129         26.383400   0.000000
    130         26.535621   0.000000
    131         26.762582   0.000000
    132         26.886783   0.000000
    133         27.059037   0.000000
    134         27.270678   0.000000
    135         27.490319   0.000000
    136         27.603208   0.000000
    137         27.743850   0.000000
    138         27.934610   0.000000
    139         28.136284   0.000000
    140         28.338824   0.000000

  0.1470588E+00  0.2816345E-17 -0.1974208E-17  0.0000000E+00
      1        -25.456932   1.000000
      2        -25.451835   1.000000
      3        -25.442231   1.000000
      4        -25.441624   1.000000
      5        -25.412386   1.000000
      6        -25.411977   1.000000
      7        -25.389917   1.000000
      8        -25.389195   1.000000
      9        -25.384509   1.000000
     10        -25.383737   1.000000
     11        -12.824200   1.000000
     12        -11.536445   1.000000
     13        -11.414589   1.000000
     14        -11.160565   1.000000
     15        -10.885686   1.000000
     16        -10.831466   1.000000
     17         -6.445230   1.000000
     18         -5.514338   1.000000
     19         -2.856947   1.000000
     20         -2.365465   1.000000
     21         -2.229212   1.000000
     22         -2.035096   1.000000
     23         -1.727401   1.000000
     24         -1.322708   1.000000
     25         -1.159941   1.000000
     26         -0.990462   1.000000
     27         -0.782143   1.000000
     28         -0.719678   1.000000
     29         -0.674649   1.000000
     30         -0.644896   1.000000
     31         -0.588715   1.000000
     32         -0.554427   1.000000
     33         -0.438429   1.000000
     34         -0.410511   1.000000
     35          0.518380   1.000000
     36          0.554416   1.000000
     37          0.577086   1.000000
     38          0.588170   1.000000
     39          0.618902   1.000000
     40          0.639492   1.000000
     41          0.667834   1.000000
     42          0.708295   1.000000
     43          0.800103   1.000000
     44          0.952939   1.000000
     45          1.162682   1.000000
     46          1.213880   1.000000
     47          1.256715   1.000000
     48          1.687671   1.000000
     49          1.869062   1.000000
     50          2.117448   1.000000
     51          2.319920   1.000000
     52          2.755273   1.000000
     53          3.174819   1.000000
     54          3.412691   1.000000
     55          4.571888   0.000000
     56          5.281992   0.000000
     57          6.694303   0.000000
     58          6.914385   0.000000
     59          7.433345   0.000000
     60          7.699356   0.000000
     61          8.244603   0.000000
     62          8.470519   0.000000
     63          8.540200   0.000000
     64          9.266743   0.000000
     65          9.469084   0.000000
     66          9.673599   0.000000
     67          9.793473   0.000000
     68         10.149883   0.000000
     69         10.613119   0.000000
     70         10.786246   0.000000
     71         11.133878   0.000000
     72         11.342134   0.000000
     73         11.809428   0.000000
     74         12.079347   0.000000
     75         12.661918   0.000000
     76         12.810597   0.000000
     77         12.962680   0.000000
     78         13.197759   0.000000
     79         13.577499   0.000000
     80         13.819092   0.000000
     81         14.057634   0.000000
     82         14.382393   0.000000
     83         14.526083   0.000000
     84         14.704896   0.000000
     85         15.021879   0.000000
     86         15.091695   0.000000
     87         15.378958   0.000000
     88         15.757004   0.000000
     89         16.360193   0.000000
     90         16.377511   0.000000
     91         16.795979   0.000000
     92         16.955255   0.000000
     93         17.083412   0.000000
     94         17.375345   0.000000
     95         17.633017   0.000000
     96         17.970884   0.000000
     97         18.276081   0.000000
     98         18.625964   0.000000
     99         18.763653   0.000000
    100         19.020598   0.000000
    101         19.337819   0.000000
    102         19.455191   0.000000
    103         19.749864   0.000000
    104         19.934060   0.000000
    105         20.330330   0.000000
    106         20.436735   0.000000
    107         20.617043   0.000000
    108         20.927829   0.000000
    109         21.110191   0.000000
    110         21.356806   0.000000
    111         21.447796   0.000000
    112         21.784213   0.000000
    113         22.014184   0.000000
    114         22.224696   0.000000
    115         22.440853   0.000000
    116         22.903667   0.000000
    117         23.107997   0.000000
    118         23.249216   0.000000
    119         23.515252   0.000000
    120         24.296194   0.000000
    121         24.824023   0.000000
    122         24.958119   0.000000
    123         25.018290   0.000000
    124         25.453288   0.000000
    125         25.578156   0.000000
    126         25.842255   0.000000
    127         26.055775   0.000000
    128         26.269234   0.000000
    129         26.430299   0.000000
    130         26.530914   0.000000
    131         26.769431   0.000000
    132         26.885512   0.000000
    133         27.027557   0.000000
    134         27.262243   0.000000
    135         27.472051   0.000000
    136         27.625039   0.000000
    137         27.780105   0.000000
    138         27.980078   0.000000
    139         28.225391   0.000000
    140         28.370160   0.000000

  0.1323529E+00  0.1057545E-16  0.2347690E-17  0.0000000E+00
      1        -25.457217   1.000000
      2        -25.452118   1.000000
      3        -25.442513   1.000000
      4        -25.441907   1.000000
      5        -25.412669   1.000000
      6        -25.412264   1.000000
      7        -25.390204   1.000000
      8        -25.389481   1.000000
      9        -25.384795   1.000000
     10        -25.384025   1.000000
     11        -12.832337   1.000000
     12        -11.539562   1.000000
     13        -11.408712   1.000000
     14        -11.156946   1.000000
     15        -10.878741   1.000000
     16        -10.829050   1.000000
     17         -6.448524   1.000000
     18         -5.526677   1.000000
     19         -2.864997   1.000000
     20         -2.359378   1.000000
     21         -2.227137   1.000000
     22         -2.051860   1.000000
     23         -1.741077   1.000000
     24         -1.334228   1.000000
     25         -1.180061   1.000000
     26         -0.986832   1.000000
     27         -0.775356   1.000000
     28         -0.709359   1.000000
     29         -0.666550   1.000000
     30         -0.646708   1.000000
     31         -0.590251   1.000000
     32         -0.552992   1.000000
     33         -0.435605   1.000000
     34         -0.411588   1.000000
     35          0.520936   1.000000
     36          0.555758   1.000000
     37          0.578740   1.000000
     38          0.594208   1.000000
     39          0.622348   1.000000
     40          0.639559   1.000000
     41          0.669748   1.000000
     42          0.708441   1.000000
     43          0.786810   1.000000
     44          0.946450   1.000000
     45          1.149133   1.000000
     46          1.203413   1.000000
     47          1.244899   1.000000
     48          1.702467   1.000000
     49          1.885890   1.000000
     50          2.148170   1.000000
     51          2.339730   1.000000
     52          2.824337   1.000000
     53          3.200067   1.000000
     54          3.423730   1.000000
     55          4.512637   0.000000
     56          5.235729   0.000000
     57          6.653982   0.000000
     58          6.890958   0.000000
     59          7.433866   0.000000
     60          7.681135   0.000000
     61          8.258728   0.000000
     62          8.470289   0.000000
     63          8.550061   0.000000
     64          9.273052   0.000000
     65          9.453490   0.000000
     66          9.662475   0.000000
     67          9.789673   0.000000
     68         10.155109   0.000000
     69         10.632149   0.000000
     70         10.849344   0.000000
     71         11.162820   0.000000
     72         11.398285   0.000000
     73         11.832169   0.000000
     74         12.128118   0.000000
     75         12.692813   0.000000
     76         12.802943   0.000000
     77         12.962587   0.000000
     78         13.177157   0.000000
     79         13.544076   0.000000
     80         13.805235   0.000000
     81         14.022290   0.000000
     82         14.344546   0.000000
     83         14.545347   0.000000
     84         14.695987   0.000000
     85         14.997374   0.000000
     86         15.065938   0.000000
     87         15.338500   0.000000
     88         15.666905   0.000000
     89         16.368792   0.000000
     90         16.398614   0.000000
     91         16.801128   0.000000
     92         16.949082   0.000000
     93         17.099024   0.000000
     94         17.335655   0.000000
     95         17.635679   0.000000
     96         17.896794   0.000000
     97         18.259044   0.000000
     98         18.612322   0.000000
     99         18.746606   0.000000
    100         18.969667   0.000000
    101         19.378570   0.000000
    102         19.499083   0.000000
    103         19.753439   0.000000
    104         19.934896   0.000000
    105         20.340370   0.000000
    106         20.424881   0.000000
    107         20.614597   0.000000
    108         20.964431   0.000000
    109         21.146263   0.000000
    110         21.358209   0.000000
    111         21.488523   0.000000
    112         21.846657   0.000000
    113         22.037549   0.000000
    114         22.288308   0.000000
    115         22.412499   0.000000
    116         22.877477   0.000000
    117         23.131052   0.000000
    118         23.204877   0.000000
    119         23.427463   0.000000
    120         24.255042   0.000000
    121         24.842911   0.000000
    122         24.957074   0.000000
    123         25.003737   0.000000
    124         25.483327   0.000000
    125         25.611125   0.000000
    126         25.824592   0.000000
    127         26.085615   0.000000
    128         26.251216   0.000000
    129         26.478756   0.000000
    130         26.552710   0.000000
    131         26.775587   0.000000
    132         26.893585   0.000000
    133         26.999726   0.000000
    134         27.262704   0.000000
    135         27.449698   0.000000
    136         27.665360   0.000000
    137         27.804825   0.000000
    138         28.016746   0.000000
    139         28.289636   0.000000
    140         28.444842   0.000000

  0.1176471E+00 -0.9421028E-17  0.7058182E-17  0.0000000E+00
      1        -25.457478   1.000000
      2        -25.452376   1.000000
      3        -25.442772   1.000000
      4        -25.442166   1.000000
      5        -25.412932   1.000000
      6        -25.412529   1.000000
      7        -25.390465   1.000000
      8        -25.389742   1.000000
      9        -25.385058   1.000000
     10        -25.384288   1.000000
     11        -12.839720   1.000000
     12        -11.542512   1.000000
     13        -11.403271   1.000000
     14        -11.153750   1.000000
     15        -10.871990   1.000000
     16        -10.827112   1.000000
     17         -6.451519   1.000000
     18         -5.537959   1.000000
     19         -2.872162   1.000000
     20         -2.353050   1.000000
     21         -2.226352   1.000000
     22         -2.066673   1.000000
     23         -1.752054   1.000000
     24         -1.345639   1.000000
     25         -1.201014   1.000000
     26         -0.982854   1.000000
     27         -0.769392   1.000000
     28         -0.699418   1.000000
     29         -0.660477   1.000000
     30         -0.647661   1.000000
     31         -0.591927   1.000000
     32         -0.551538   1.000000
     33         -0.432573   1.000000
     34         -0.412417   1.000000
     35          0.522958   1.000000
     36          0.557118   1.000000
     37          0.580432   1.000000
     38          0.600457   1.000000
     39          0.626015   1.000000
     40          0.639830   1.000000
     41          0.672058   1.000000
     42          0.708034   1.000000
     43          0.774706   1.000000
     44          0.940064   1.000000
     45          1.136175   1.000000
     46          1.190365   1.000000
     47          1.237559   1.000000
     48          1.715725   1.000000
     49          1.899000   1.000000
     50          2.180242   1.000000
     51          2.358817   1.000000
     52          2.895084   1.000000
     53          3.222712   1.000000
     54          3.433881   1.000000
     55          4.451541   0.000000
     56          5.191422   0.000000
     57          6.615211   0.000000
     58          6.868863   0.000000
     59          7.433243   0.000000
     60          7.664825   0.000000
     61          8.271823   0.000000
     62          8.466093   0.000000
     63          8.561333   0.000000
     64          9.276800   0.000000
     65          9.445572   0.000000
     66          9.653468   0.000000
     67          9.784031   0.000000
     68         10.157239   0.000000
     69         10.647674   0.000000
     70         10.917491   0.000000
     71         11.191701   0.000000
     72         11.458174   0.000000
     73         11.853656   0.000000
     74         12.177474   0.000000
     75         12.717141   0.000000
     76         12.798241   0.000000
     77         12.964584   0.000000
     78         13.163572   0.000000
     79         13.506814   0.000000
     80         13.783167   0.000000
     81         13.971993   0.000000
     82         14.299911   0.000000
     83         14.570618   0.000000
     84         14.675856   0.000000
     85         14.965376   0.000000
     86         15.065370   0.000000
     87         15.305927   0.000000
     88         15.572731   0.000000
     89         16.392855   0.000000
     90         16.436384   0.000000
     91         16.809209   0.000000
     92         16.939536   0.000000
     93         17.100871   0.000000
     94         17.315067   0.000000
     95         17.645537   0.000000
     96         17.813279   0.000000
     97         18.250784   0.000000
     98         18.560409   0.000000
     99         18.748296   0.000000
    100         18.908247   0.000000
    101         19.393363   0.000000
    102         19.554911   0.000000
    103         19.744313   0.000000
    104         19.940870   0.000000
    105         20.322697   0.000000
    106         20.431837   0.000000
    107         20.635508   0.000000
    108         21.016695   0.000000
    109         21.177765   0.000000
    110         21.388734   0.000000
    111         21.530305   0.000000
    112         21.911514   0.000000
    113         22.029944   0.000000
    114         22.337910   0.000000
    115         22.420926   0.000000
    116         22.866540   0.000000
    117         23.143226   0.000000
    118         23.172374   0.000000
    119         23.347103   0.000000
    120         24.209466   0.000000
    121         24.799013   0.000000
    122         24.914431   0.000000
    123         25.031943   0.000000
    124         25.423650   0.000000
    125         25.648155   0.000000
    126         25.818787   0.000000
    127         26.136603   0.000000
    128         26.272433   0.000000
    129         26.515304   0.000000
    130         26.604503   0.000000
    131         26.772379   0.000000
    132         26.909992   0.000000
    133         26.997024   0.000000
    134         27.276053   0.000000
    135         27.444880   0.000000
    136         27.698970   0.000000
    137         27.830992   0.000000
    138         28.043430   0.000000
    139         28.312153   0.000000
    140         28.542251   0.000000

  0.1029412E+00  0.5276968E-17  0.4441186E-17  0.0000000E+00
      1        -25.457714   1.000000
      2        -25.452611   1.000000
      3        -25.443004   1.000000
      4        -25.442400   1.000000
      5        -25.413168   1.000000
      6        -25.412769   1.000000
      7        -25.390701   1.000000
      8        -25.389979   1.000000
      9        -25.385298   1.000000
     10        -25.384527   1.000000
     11        -12.846312   1.000000
     12        -11.545231   1.000000
     13        -11.398332   1.000000
     14        -11.150974   1.000000
     15        -10.865504   1.000000
     16        -10.825675   1.000000
     17         -6.454199   1.000000
     18         -5.548103   1.000000
     19         -2.878439   1.000000
     20         -2.346707   1.000000
     21         -2.226757   1.000000
     22         -2.079573   1.000000
     23         -1.760376   1.000000
     24         -1.356283   1.000000
     25         -1.222263   1.000000
     26         -0.978873   1.000000
     27         -0.764009   1.000000
     28         -0.690248   1.000000
     29         -0.657289   1.000000
     30         -0.646811   1.000000
     31         -0.593711   1.000000
     32         -0.550086   1.000000
     33         -0.429468   1.000000
     34         -0.413034   1.000000
     35          0.524493   1.000000
     36          0.558436   1.000000
     37          0.582320   1.000000
     38          0.606378   1.000000
     39          0.629548   1.000000
     40          0.640703   1.000000
     41          0.674722   1.000000
     42          0.706962   1.000000
     43          0.763938   1.000000
     44          0.933849   1.000000
     45          1.124425   1.000000
     46          1.176005   1.000000
     47          1.233183   1.000000
     48          1.727669   1.000000
     49          1.909107   1.000000
     50          2.211472   1.000000
     51          2.377465   1.000000
     52          2.966434   1.000000
     53          3.242669   1.000000
     54          3.443063   1.000000
     55          4.389362   0.000000
     56          5.149821   0.000000
     57          6.578875   0.000000
     58          6.848346   0.000000
     59          7.431812   0.000000
     60          7.650524   0.000000
     61          8.284032   0.000000
     62          8.460922   0.000000
     63          8.570835   0.000000
     64          9.275904   0.000000
     65          9.447395   0.000000
     66          9.646818   0.000000
     67          9.776858   0.000000
     68         10.156047   0.000000
     69         10.660084   0.000000
     70         10.986928   0.000000
     71         11.220143   0.000000
     72         11.517371   0.000000
     73         11.879901   0.000000
     74         12.224813   0.000000
     75         12.728497   0.000000
     76         12.800107   0.000000
     77         12.972107   0.000000
     78         13.153845   0.000000
     79         13.469215   0.000000
     80         13.755192   0.000000
     81         13.914290   0.000000
     82         14.248842   0.000000
     83         14.568512   0.000000
     84         14.672537   0.000000
     85         14.928597   0.000000
     86         15.083749   0.000000
     87         15.281158   0.000000
     88         15.485401   0.000000
     89         16.432380   0.000000
     90         16.481510   0.000000
     91         16.818401   0.000000
     92         16.926869   0.000000
     93         17.090058   0.000000
     94         17.308531   0.000000
     95         17.634789   0.000000
     96         17.764023   0.000000
     97         18.229504   0.000000
     98         18.507916   0.000000
     99         18.738192   0.000000
    100         18.857268   0.000000
    101         19.373430   0.000000
    102         19.618941   0.000000
    103         19.713274   0.000000
    104         19.965128   0.000000
    105         20.288125   0.000000
    106         20.453982   0.000000
    107         20.676911   0.000000
    108         21.071292   0.000000
    109         21.199965   0.000000
    110         21.458148   0.000000
    111         21.566004   0.000000
    112         21.937053   0.000000
    113         22.028904   0.000000
    114         22.370975   0.000000
    115         22.469256   0.000000
    116         22.872003   0.000000
    117         23.124174   0.000000
    118         23.164491   0.000000
    119         23.280953   0.000000
    120         24.162861   0.000000
    121         24.699032   0.000000
    122         24.881505   0.000000
    123         25.051557   0.000000
    124         25.319272   0.000000
    125         25.674739   0.000000
    126         25.809237   0.000000
    127         26.185439   0.000000
    128         26.322507   0.000000
    129         26.558247   0.000000
    130         26.676196   0.000000
    131         26.769606   0.000000
    132         26.929742   0.000000
    133         27.033410   0.000000
    134         27.299975   0.000000
    135         27.455305   0.000000
    136         27.714434   0.000000
    137         27.865478   0.000000
    138         28.063799   0.000000
    139         28.317561   0.000000
    140         28.470213   0.000000

  0.8823529E-01  0.1303607E-16  0.5293637E-17  0.0000000E+00
      1        -25.457921   1.000000
      2        -25.452817   1.000000
      3        -25.443208   1.000000
      4        -25.442605   1.000000
      5        -25.413377   1.000000
      6        -25.412981   1.000000
      7        -25.390912   1.000000
      8        -25.390188   1.000000
      9        -25.385509   1.000000
     10        -25.384737   1.000000
     11        -12.852084   1.000000
     12        -11.547669   1.000000
     13        -11.393950   1.000000
     14        -11.148609   1.000000
     15        -10.859349   1.000000
     16        -10.824761   1.000000
     17         -6.456548   1.000000
     18         -5.557038   1.000000
     19         -2.883833   1.000000
     20         -2.340587   1.000000
     21         -2.228089   1.000000
     22         -2.090655   1.000000
     23         -1.766241   1.000000
     24         -1.365593   1.000000
     25         -1.243259   1.000000
     26         -0.975134   1.000000
     27         -0.759121   1.000000
     28         -0.682107   1.000000
     29         -0.656832   1.000000
     30         -0.644165   1.000000
     31         -0.595546   1.000000
     32         -0.548670   1.000000
     33         -0.426424   1.000000
     34         -0.413478   1.000000
     35          0.525619   1.000000
     36          0.559657   1.000000
     37          0.584384   1.000000
     38          0.611618   1.000000
     39          0.632231   1.000000
     40          0.642856   1.000000
     41          0.677713   1.000000
     42          0.705188   1.000000
     43          0.754604   1.000000
     44          0.927916   1.000000
     45          1.114256   1.000000
     46          1.161719   1.000000
     47          1.230370   1.000000
     48          1.738395   1.000000
     49          1.916849   1.000000
     50          2.239964   1.000000
     51          2.395819   1.000000
     52          3.037114   1.000000
     53          3.259892   1.000000
     54          3.451174   1.000000
     55          4.327135   0.000000
     56          5.111689   0.000000
     57          6.545757   0.000000
     58          6.829705   0.000000
     59          7.429872   0.000000
     60          7.638290   0.000000
     61          8.295337   0.000000
     62          8.455901   0.000000
     63          8.577660   0.000000
     64          9.270270   0.000000
     65          9.458523   0.000000
     66          9.642446   0.000000
     67          9.768678   0.000000
     68         10.151659   0.000000
     69         10.669689   0.000000
     70         11.054083   0.000000
     71         11.247694   0.000000
     72         11.570356   0.000000
     73         11.916979   0.000000
     74         12.268164   0.000000
     75         12.726932   0.000000
     76         12.806221   0.000000
     77         12.986901   0.000000
     78         13.142455   0.000000
     79         13.438638   0.000000
     80         13.722090   0.000000
     81         13.855357   0.000000
     82         14.192307   0.000000
     83         14.529666   0.000000
     84         14.691955   0.000000
     85         14.898758   0.000000
     86         15.105247   0.000000
     87         15.257789   0.000000
     88         15.420688   0.000000
     89         16.481670   0.000000
     90         16.530972   0.000000
     91         16.826084   0.000000
     92         16.912928   0.000000
     93         17.071780   0.000000
     94         17.308473   0.000000
     95         17.576762   0.000000
     96         17.781510   0.000000
     97         18.182642   0.000000
     98         18.475114   0.000000
     99         18.692881   0.000000
    100         18.844085   0.000000
    101         19.321126   0.000000
    102         19.649049   0.000000
    103         19.703159   0.000000
    104         20.003289   0.000000
    105         20.248544   0.000000
    106         20.489905   0.000000
    107         20.723297   0.000000
    108         21.107011   0.000000
    109         21.244482   0.000000
    110         21.533271   0.000000
    111         21.595907   0.000000
    112         21.904535   0.000000
    113         22.079102   0.000000
    114         22.390544   0.000000
    115         22.537006   0.000000
    116         22.888840   0.000000
    117         23.098586   0.000000
    118         23.151410   0.000000
    119         23.238849   0.000000
    120         24.117523   0.000000
    121         24.579051   0.000000
    122         24.833359   0.000000
    123         25.050045   0.000000
    124         25.217494   0.000000
    125         25.687887   0.000000
    126         25.791242   0.000000
    127         26.215048   0.000000
    128         26.367377   0.000000
    129         26.632445   0.000000
    130         26.744050   0.000000
    131         26.799751   0.000000
    132         26.961773   0.000000
    133         27.091696   0.000000
    134         27.331081   0.000000
    135         27.474830   0.000000
    136         27.718038   0.000000
    137         27.894536   0.000000
    138         28.086297   0.000000
    139         28.315843   0.000000
    140         28.420247   0.000000

  0.7352941E-01 -0.2634740E-16 -0.1120115E-16  0.0000000E+00
      1        -25.458102   1.000000
      2        -25.453000   1.000000
      3        -25.443389   1.000000
      4        -25.442786   1.000000
      5        -25.413561   1.000000
      6        -25.413164   1.000000
      7        -25.391094   1.000000
      8        -25.390371   1.000000
      9        -25.385691   1.000000
     10        -25.384919   1.000000
     11        -12.857011   1.000000
     12        -11.549787   1.000000
     13        -11.390167   1.000000
     14        -11.146644   1.000000
     15        -10.853591   1.000000
     16        -10.824388   1.000000
     17         -6.458555   1.000000
     18         -5.564703   1.000000
     19         -2.888354   1.000000
     20         -2.334941   1.000000
     21         -2.229977   1.000000
     22         -2.100032   1.000000
     23         -1.769994   1.000000
     24         -1.373118   1.000000
     25         -1.263428   1.000000
     26         -0.971805   1.000000
     27         -0.754745   1.000000
     28         -0.675138   1.000000
     29         -0.657469   1.000000
     30         -0.641202   1.000000
     31         -0.597366   1.000000
     32         -0.547343   1.000000
     33         -0.423579   1.000000
     34         -0.413793   1.000000
     35          0.526417   1.000000
     36          0.560733   1.000000
     37          0.586524   1.000000
     38          0.615969   1.000000
     39          0.633664   1.000000
     40          0.646491   1.000000
     41          0.680986   1.000000
     42          0.702784   1.000000
     43          0.746697   1.000000
     44          0.922411   1.000000
     45          1.105884   1.000000
     46          1.148349   1.000000
     47          1.228382   1.000000
     48          1.747873   1.000000
     49          1.922708   1.000000
     50          2.264360   1.000000
     51          2.413717   1.000000
     52          3.105528   1.000000
     53          3.274380   1.000000
     54          3.458081   1.000000
     55          4.266292   0.000000
     56          5.077784   0.000000
     57          6.516540   0.000000
     58          6.813259   0.000000
     59          7.427689   0.000000
     60          7.628133   0.000000
     61          8.305604   0.000000
     62          8.451424   0.000000
     63          8.581907   0.000000
     64          9.261710   0.000000
     65          9.476148   0.000000
     66          9.640128   0.000000
     67          9.760031   0.000000
     68         10.144587   0.000000
     69         10.676839   0.000000
     70         11.115475   0.000000
     71         11.273879   0.000000
     72         11.612626   0.000000
     73         11.968703   0.000000
     74         12.306166   0.000000
     75         12.719642   0.000000
     76         12.809414   0.000000
     77         13.005300   0.000000
     78         13.124499   0.000000
     79         13.425272   0.000000
     80         13.683174   0.000000
     81         13.800431   0.000000
     82         14.131239   0.000000
     83         14.481334   0.000000
     84         14.703914   0.000000
     85         14.885680   0.000000
     86         15.109957   0.000000
     87         15.235862   0.000000
     88         15.393280   0.000000
     89         16.535734   0.000000
     90         16.581729   0.000000
     91         16.829500   0.000000
     92         16.900170   0.000000
     93         17.049239   0.000000
     94         17.310186   0.000000
     95         17.513574   0.000000
     96         17.823941   0.000000
     97         18.113951   0.000000
     98         18.464843   0.000000
     99         18.627900   0.000000
    100         18.860034   0.000000
    101         19.247804   0.000000
    102         19.583154   0.000000
    103         19.779858   0.000000
    104         20.040954   0.000000
    105         20.215134   0.000000
    106         20.534205   0.000000
    107         20.762200   0.000000
    108         21.123062   0.000000
    109         21.317694   0.000000
    110         21.532929   0.000000
    111         21.669042   0.000000
    112         21.893697   0.000000
    113         22.127172   0.000000
    114         22.397931   0.000000
    115         22.612171   0.000000
    116         22.903891   0.000000
    117         23.081253   0.000000
    118         23.129858   0.000000
    119         23.220534   0.000000
    120         24.075365   0.000000
    121         24.453433   0.000000
    122         24.771162   0.000000
    123         24.988249   0.000000
    124         25.171609   0.000000
    125         25.690027   0.000000
    126         25.768644   0.000000
    127         26.230192   0.000000
    128         26.383376   0.000000
    129         26.733475   0.000000
    130         26.802247   0.000000
    131         26.876193   0.000000
    132         27.005683   0.000000
    133         27.159169   0.000000
    134         27.366993   0.000000
    135         27.497227   0.000000
    136         27.719813   0.000000
    137         27.902232   0.000000
    138         28.118183   0.000000
    139         28.277990   0.000000
    140         28.383519   0.000000

  0.5882353E-01 -0.1858830E-16 -0.6879250E-17  0.0000000E+00
      1        -25.458250   1.000000
      2        -25.453151   1.000000
      3        -25.443537   1.000000
      4        -25.442932   1.000000
      5        -25.413711   1.000000
      6        -25.413314   1.000000
      7        -25.391243   1.000000
      8        -25.390521   1.000000
      9        -25.385840   1.000000
     10        -25.385071   1.000000
     11        -12.861069   1.000000
     12        -11.551556   1.000000
     13        -11.387021   1.000000
     14        -11.145064   1.000000
     15        -10.848291   1.000000
     16        -10.824568   1.000000
     17         -6.460210   1.000000
     18         -5.571045   1.000000
     19         -2.892019   1.000000
     20         -2.330004   1.000000
     21         -2.232020   1.000000
     22         -2.107782   1.000000
     23         -1.772086   1.000000
     24         -1.378552   1.000000
     25         -1.282127   1.000000
     26         -0.968990   1.000000
     27         -0.750948   1.000000
     28         -0.669429   1.000000
     29         -0.658300   1.000000
     30         -0.638654   1.000000
     31         -0.599069   1.000000
     32         -0.546154   1.000000
     33         -0.421043   1.000000
     34         -0.414019   1.000000
     35          0.526965   1.000000
     36          0.561639   1.000000
     37          0.588618   1.000000
     38          0.619361   1.000000
     39          0.634323   1.000000
     40          0.650804   1.000000
     41          0.684466   1.000000
     42          0.699997   1.000000
     43          0.740118   1.000000
     44          0.917517   1.000000
     45          1.099424   1.000000
     46          1.136428   1.000000
     47          1.226895   1.000000
     48          1.755994   1.000000
     49          1.927051   1.000000
     50          2.283969   1.000000
     51          2.430559   1.000000
     52          3.169575   1.000000
     53          3.286187   1.000000
     54          3.463635   1.000000
     55          4.208822   0.000000
     56          5.048835   0.000000
     57          6.491811   0.000000
     58          6.799319   0.000000
     59          7.425508   0.000000
     60          7.620012   0.000000
     61          8.314616   0.000000
     62          8.447640   0.000000
     63          8.584087   0.000000
     64          9.252390   0.000000
     65          9.496694   0.000000
     66          9.639584   0.000000
     67          9.751422   0.000000
     68         10.135739   0.000000
     69         10.681943   0.000000
     70         11.167891   0.000000
     71         11.298181   0.000000
     72         11.643282   0.000000
     73         12.033806   0.000000
     74         12.337871   0.000000
     75         12.712070   0.000000
     76         12.805899   0.000000
     77         13.012572   0.000000
     78         13.108716   0.000000
     79         13.434870   0.000000
     80         13.638796   0.000000
     81         13.753081   0.000000
     82         14.067063   0.000000
     83         14.435962   0.000000
     84         14.701675   0.000000
     85         14.886965   0.000000
     86         15.083361   0.000000
     87         15.233169   0.000000
     88         15.397268   0.000000
     89         16.589987   0.000000
     90         16.630594   0.000000
     91         16.827801   0.000000
     92         16.888971   0.000000
     93         17.024001   0.000000
     94         17.311945   0.000000
     95         17.467287   0.000000
     96         17.865491   0.000000
     97         18.037518   0.000000
     98         18.470294   0.000000
     99         18.567453   0.000000
    100         18.887430   0.000000
    101         19.163320   0.000000
    102         19.511824   0.000000
    103         19.849437   0.000000
    104         20.071822   0.000000
    105         20.198742   0.000000
    106         20.580531   0.000000
    107         20.788666   0.000000
    108         21.127663   0.000000
    109         21.391469   0.000000
    110         21.500054   0.000000
    111         21.753248   0.000000
    112         21.917858   0.000000
    113         22.158355   0.000000
    114         22.397845   0.000000
    115         22.685488   0.000000
    116         22.908174   0.000000
    117         23.069216   0.000000
    118         23.115976   0.000000
    119         23.220535   0.000000
    120         24.038435   0.000000
    121         24.330955   0.000000
    122         24.702642   0.000000
    123         24.883885   0.000000
    124         25.171108   0.000000
    125         25.686233   0.000000
    126         25.744791   0.000000
    127         26.238797   0.000000
    128         26.378248   0.000000
    129         26.838823   0.000000
    130         26.871389   0.000000
    131         26.963898   0.000000
    132         27.059921   0.000000
    133         27.229215   0.000000
    134         27.405154   0.000000
    135         27.517394   0.000000
    136         27.725741   0.000000
    137         27.888675   0.000000
    138         28.147480   0.000000
    139         28.221933   0.000000
    140         28.362292   0.000000

  0.4411765E-01 -0.7359753E-17 -0.7761522E-17  0.0000000E+00
      1        -25.458366   1.000000
      2        -25.453268   1.000000
      3        -25.443654   1.000000
      4        -25.443046   1.000000
      5        -25.413833   1.000000
      6        -25.413431   1.000000
      7        -25.391355   1.000000
      8        -25.390638   1.000000
      9        -25.385958   1.000000
     10        -25.385188   1.000000
     11        -12.864242   1.000000
     12        -11.552953   1.000000
     13        -11.384542   1.000000
     14        -11.143855   1.000000
     15        -10.843514   1.000000
     16        -10.825296   1.000000
     17         -6.461506   1.000000
     18         -5.576021   1.000000
     19         -2.894845   1.000000
     20         -2.325982   1.000000
     21         -2.233873   1.000000
     22         -2.113919   1.000000
     23         -1.773017   1.000000
     24         -1.381811   1.000000
     25         -1.298607   1.000000
     26         -0.966753   1.000000
     27         -0.747835   1.000000
     28         -0.665027   1.000000
     29         -0.659038   1.000000
     30         -0.636671   1.000000
     31         -0.600548   1.000000
     32         -0.545167   1.000000
     33         -0.418908   1.000000
     34         -0.414206   1.000000
     35          0.527332   1.000000
     36          0.562354   1.000000
     37          0.590507   1.000000
     38          0.621811   1.000000
     39          0.634701   1.000000
     40          0.654914   1.000000
     41          0.687930   1.000000
     42          0.697262   1.000000
     43          0.734719   1.000000
     44          0.913428   1.000000
     45          1.094874   1.000000
     46          1.126348   1.000000
     47          1.225775   1.000000
     48          1.762590   1.000000
     49          1.930145   1.000000
     50          2.298697   1.000000
     51          2.445358   1.000000
     52          3.226369   1.000000
     53          3.295440   1.000000
     54          3.467682   1.000000
     55          4.157477   0.000000
     56          5.025514   0.000000
     57          6.472059   0.000000
     58          6.788162   0.000000
     59          7.423548   0.000000
     60          7.613847   0.000000
     61          8.322096   0.000000
     62          8.444618   0.000000
     63          8.584854   0.000000
     64          9.243919   0.000000
     65          9.516788   0.000000
     66          9.640486   0.000000
     67          9.743356   0.000000
     68         10.126388   0.000000
     69         10.685412   0.000000
     70         11.208879   0.000000
     71         11.319817   0.000000
     72         11.664462   0.000000
     73         12.105946   0.000000
     74         12.362546   0.000000
     75         12.706895   0.000000
     76         12.793690   0.000000
     77         12.991594   0.000000
     78         13.115728   0.000000
     79         13.463312   0.000000
     80         13.594017   0.000000
     81         13.713425   0.000000
     82         14.002547   0.000000
     83         14.398439   0.000000
     84         14.694763   0.000000
     85         14.886835   0.000000
     86         15.048228   0.000000
     87         15.243414   0.000000
     88         15.416441   0.000000
     89         16.639845   0.000000
     90         16.674401   0.000000
     91         16.823539   0.000000
     92         16.875995   0.000000
     93         16.999221   0.000000
     94         17.313468   0.000000
     95         17.442836   0.000000
     96         17.886662   0.000000
     97         17.974056   0.000000
     98         18.467566   0.000000
     99         18.543477   0.000000
    100         18.914098   0.000000
    101         19.077996   0.000000
    102         19.445385   0.000000
    103         19.891448   0.000000
    104         20.103186   0.000000
    105         20.203380   0.000000
    106         20.625335   0.000000
    107         20.804367   0.000000
    108         21.108415   0.000000
    109         21.405870   0.000000
    110         21.539196   0.000000
    111         21.816969   0.000000
    112         21.957764   0.000000
    113         22.174143   0.000000
    114         22.395424   0.000000
    115         22.743662   0.000000
    116         22.914823   0.000000
    117         23.050830   0.000000
    118         23.106893   0.000000
    119         23.242780   0.000000
    120         24.009409   0.000000
    121         24.219298   0.000000
    122         24.636591   0.000000
    123         24.779652   0.000000
    124         25.179598   0.000000
    125         25.681081   0.000000
    126         25.722356   0.000000
    127         26.244955   0.000000
    128         26.365608   0.000000
    129         26.925099   0.000000
    130         26.944823   0.000000
    131         27.049653   0.000000
    132         27.124756   0.000000
    133         27.295820   0.000000
    134         27.438481   0.000000
    135         27.536194   0.000000
    136         27.736319   0.000000
    137         27.862611   0.000000
    138         28.115706   0.000000
    139         28.204419   0.000000
    140         28.395761   0.000000

  0.2941176E-01  0.3868796E-17 -0.3439625E-17  0.0000000E+00
      1        -25.458446   1.000000
      2        -25.453352   1.000000
      3        -25.443738   1.000000
      4        -25.443125   1.000000
      5        -25.413914   1.000000
      6        -25.413516   1.000000
      7        -25.391437   1.000000
      8        -25.390722   1.000000
      9        -25.386041   1.000000
     10        -25.385276   1.000000
     11        -12.866516   1.000000
     12        -11.553962   1.000000
     13        -11.382754   1.000000
     14        -11.143002   1.000000
     15        -10.839347   1.000000
     16        -10.826534   1.000000
     17         -6.462435   1.000000
     18         -5.579599   1.000000
     19         -2.896849   1.000000
     20         -2.323027   1.000000
     21         -2.235301   1.000000
     22         -2.118399   1.000000
     23         -1.773271   1.000000
     24         -1.383139   1.000000
     25         -1.311917   1.000000
     26         -0.965134   1.000000
     27         -0.745511   1.000000
     28         -0.661987   1.000000
     29         -0.659521   1.000000
     30         -0.635266   1.000000
     31         -0.601699   1.000000
     32         -0.544419   1.000000
     33         -0.417232   1.000000
     34         -0.414408   1.000000
     35          0.527566   1.000000
     36          0.562870   1.000000
     37          0.592027   1.000000
     38          0.623402   1.000000
     39          0.634989   1.000000
     40          0.658233   1.000000
     41          0.690705   1.000000
     42          0.695359   1.000000
     43          0.730450   1.000000
     44          0.910337   1.000000
     45          1.092094   1.000000
     46          1.118514   1.000000
     47          1.224982   1.000000
     48          1.767477   1.000000
     49          1.932200   1.000000
     50          2.308822   1.000000
     51          2.456969   1.000000
     52          3.271768   1.000000
     53          3.302608   1.000000
     54          3.470152   1.000000
     55          4.115901   0.000000
     56          5.008401   0.000000
     57          6.457670   0.000000
     58          6.780020   0.000000
     59          7.421998   0.000000
     60          7.609542   0.000000
     61          8.327741   0.000000
     62          8.442410   0.000000
     63          8.584848   0.000000
     64          9.237309   0.000000
     65          9.533482   0.000000
     66          9.642343   0.000000
     67          9.736461   0.000000
     68         10.118057   0.000000
     69         10.687610   0.000000
     70         11.237404   0.000000
     71         11.337400   0.000000
     72         11.678583   0.000000
     73         12.175381   0.000000
     74         12.379643   0.000000
     75         12.705136   0.000000
     76         12.771551   0.000000
     77         12.961200   0.000000
     78         13.135160   0.000000
     79         13.497502   0.000000
     80         13.561054   0.000000
     81         13.679540   0.000000
     82         13.942925   0.000000
     83         14.370937   0.000000
     84         14.690960   0.000000
     85         14.873810   0.000000
     86         15.028014   0.000000
     87         15.254060   0.000000
     88         15.438578   0.000000
     89         16.680706   0.000000
     90         16.710225   0.000000
     91         16.820141   0.000000
     92         16.858252   0.000000
     93         16.979934   0.000000
     94         17.314683   0.000000
     95         17.437216   0.000000
     96         17.857443   0.000000
     97         17.958760   0.000000
     98         18.437147   0.000000
     99         18.579551   0.000000
    100         18.909888   0.000000
    101         19.020985   0.000000
    102         19.389844   0.000000
    103         19.902568   0.000000
    104         20.138893   0.000000
    105         20.221541   0.000000
    106         20.670031   0.000000
    107         20.810816   0.000000
    108         21.058864   0.000000
    109         21.400019   0.000000
    110         21.625894   0.000000
    111         21.846642   0.000000
    112         21.994067   0.000000
    113         22.183709   0.000000
    114         22.394172   0.000000
    115         22.774927   0.000000
    116         22.938589   0.000000
    117         23.025622   0.000000
    118         23.098984   0.000000
    119         23.276424   0.000000
    120         23.991867   0.000000
    121         24.125509   0.000000
    122         24.581811   0.000000
    123         24.692448   0.000000
    124         25.187620   0.000000
    125         25.677468   0.000000
    126         25.703471   0.000000
    127         26.249808   0.000000
    128         26.353224   0.000000
    129         26.980740   0.000000
    130         27.007185   0.000000
    131         27.132944   0.000000
    132         27.191232   0.000000
    133         27.352922   0.000000
    134         27.451499   0.000000
    135         27.564398   0.000000
    136         27.745480   0.000000
    137         27.833691   0.000000
    138         28.038824   0.000000
    139         28.220422   0.000000
    140         28.375219   0.000000

  0.1470588E-01 -0.1122855E-16 -0.1719812E-17  0.0000000E+00
      1        -25.458496   1.000000
      2        -25.453400   1.000000
      3        -25.443784   1.000000
      4        -25.443175   1.000000
      5        -25.413963   1.000000
      6        -25.413565   1.000000
      7        -25.391485   1.000000
      8        -25.390772   1.000000
      9        -25.386089   1.000000
     10        -25.385323   1.000000
     11        -12.867882   1.000000
     12        -11.554572   1.000000
     13        -11.381674   1.000000
     14        -11.142495   1.000000
     15        -10.836008   1.000000
     16        -10.828102   1.000000
     17         -6.462994   1.000000
     18         -5.581755   1.000000
     19         -2.898046   1.000000
     20         -2.321229   1.000000
     21         -2.236182   1.000000
     22         -2.121137   1.000000
     23         -1.773248   1.000000
     24         -1.383230   1.000000
     25         -1.320832   1.000000
     26         -0.964155   1.000000
     27         -0.744073   1.000000
     28         -0.660628   1.000000
     29         -0.659363   1.000000
     30         -0.634422   1.000000
     31         -0.602433   1.000000
     32         -0.543956   1.000000
     33         -0.416029   1.000000
     34         -0.414691   1.000000
     35          0.527696   1.000000
     36          0.563181   1.000000
     37          0.593017   1.000000
     38          0.624263   1.000000
     39          0.635197   1.000000
     40          0.660384   1.000000
     41          0.691318   1.000000
     42          0.695587   1.000000
     43          0.727537   1.000000
     44          0.908407   1.000000
     45          1.090760   1.000000
     46          1.113417   1.000000
     47          1.224503   1.000000
     48          1.770489   1.000000
     49          1.933370   1.000000
     50          2.314712   1.000000
     51          2.464387   1.000000
     52          3.298055   1.000000
     53          3.310882   1.000000
     54          3.471234   1.000000
     55          4.088362   0.000000
     56          4.997943   0.000000
     57          6.448923   0.000000
     58          6.775064   0.000000
     59          7.421005   0.000000
     60          7.607003   0.000000
     61          8.331267   0.000000
     62          8.441061   0.000000
     63          8.584606   0.000000
     64          9.233145   0.000000
     65          9.544443   0.000000
     66          9.644284   0.000000
     67          9.731621   0.000000
     68         10.112273   0.000000
     69         10.688814   0.000000
     70         11.253876   0.000000
     71         11.349040   0.000000
     72         11.686887   0.000000
     73         12.228803   0.000000
     74         12.389080   0.000000
     75         12.706999   0.000000
     76         12.744736   0.000000
     77         12.941169   0.000000
     78         13.151279   0.000000
     79         13.505574   0.000000
     80         13.569040   0.000000
     81         13.649720   0.000000
     82         13.897545   0.000000
     83         14.354293   0.000000
     84         14.691335   0.000000
     85         14.855123   0.000000
     86         15.022247   0.000000
     87         15.261119   0.000000
     88         15.455315   0.000000
     89         16.708067   0.000000
     90         16.735443   0.000000
     91         16.818887   0.000000
     92         16.839211   0.000000
     93         16.968887   0.000000
     94         17.315343   0.000000
     95         17.441836   0.000000
     96         17.815534   0.000000
     97         17.964471   0.000000
     98         18.412041   0.000000
     99         18.639477   0.000000
    100         18.847968   0.000000
    101         19.019795   0.000000
    102         19.351385   0.000000
    103         19.899929   0.000000
    104         20.164797   0.000000
    105         20.241983   0.000000
    106         20.718089   0.000000
    107         20.802881   0.000000
    108         21.003754   0.000000
    109         21.403737   0.000000
    110         21.712617   0.000000
    111         21.834995   0.000000
    112         22.016722   0.000000
    113         22.192867   0.000000
    114         22.394902   0.000000
    115         22.787060   0.000000
    116         22.965131   0.000000
    117         23.002113   0.000000
    118         23.096362   0.000000
    119         23.303425   0.000000
    120         23.990144   0.000000
    121         24.055394   0.000000
    122         24.545939   0.000000
    123         24.633472   0.000000
    124         25.192906   0.000000
    125         25.677017   0.000000
    126         25.689468   0.000000
    127         26.253148   0.000000
    128         26.344667   0.000000
    129         27.011044   0.000000
    130         27.046393   0.000000
    131         27.202639   0.000000
    132         27.242717   0.000000
    133         27.390475   0.000000
    134         27.444685   0.000000
    135         27.599744   0.000000
    136         27.744002   0.000000
    137         27.814542   0.000000
    138         27.973763   0.000000
    139         28.247402   0.000000
    140         28.405986   0.000000

  0.0000000E+00  0.0000000E+00  0.0000000E+00  0.0000000E+00
      1        -25.453765   1.000000
      2        -25.448668   1.000000
      3        -25.439054   1.000000
      4        -25.438443   1.000000
      5        -25.409231   1.000000
      6        -25.408834   1.000000
      7        -25.386753   1.000000
      8        -25.386041   1.000000
      9        -25.381358   1.000000
     10        -25.380589   1.000000
     11        -12.863589   1.000000
     12        -11.550031   1.000000
     13        -11.376568   1.000000
     14        -11.137581   1.000000
     15        -10.829680   1.000000
     16        -10.824347   1.000000
     17         -6.458436   1.000000
     18         -5.577730   1.000000
     19         -2.893699   1.000000
     20         -2.315881   1.000000
     21         -2.231731   1.000000
     22         -2.117315   1.000000
     23         -1.768465   1.000000
     24         -1.378337   1.000000
     25         -1.319275   1.000000
     26         -0.959082   1.000000
     27         -0.738839   1.000000
     28         -0.655762   1.000000
     29         -0.654232   1.000000
     30         -0.629391   1.000000
     31         -0.597937   1.000000
     32         -0.539052   1.000000
     33         -0.410632   1.000000
     34         -0.410280   1.000000
     35          0.532487   1.000000
     36          0.568031   1.000000
     37          0.598108   1.000000
     38          0.629280   1.000000
     39          0.640025   1.000000
     40          0.665876   1.000000
     41          0.695816   1.000000
     42          0.700959   1.000000
     43          0.731216   1.000000
     44          0.912497   1.000000
     45          1.095148   1.000000
     46          1.116368   1.000000
     47          1.229091   1.000000
     48          1.776254   1.000000
     49          1.938496   1.000000
     50          2.321388   1.000000
     51          2.471685   1.000000
     52          3.307615   1.000000
     53          3.322984   1.000000
     54          3.476218   1.000000
     55          4.078656   0.000000
     56          4.994425   0.000000
     57          6.445989   0.000000
     58          6.773400   0.000000
     59          7.420665   0.000000
     60          7.606165   0.000000
     61          8.332469   0.000000
     62          8.440608   0.000000
     63          8.584485   0.000000
     64          9.231727   0.000000
     65          9.548249   0.000000
     66          9.645138   0.000000
     67          9.729844   0.000000
     68         10.110199   0.000000
     69         10.689197   0.000000
     70         11.259225   0.000000
     71         11.353125   0.000000
     72         11.689659   0.000000
     73         12.249689   0.000000
     74         12.391863   0.000000
     75         12.710475   0.000000
     76         12.729890   0.000000
     77         12.934811   0.000000
     78         13.157309   0.000000
     79         13.500488   0.000000
     80         13.590575   0.000000
     81         13.630492   0.000000
     82         13.879817   0.000000
     83         14.348734   0.000000
     84         14.692351   0.000000
     85         14.846518   0.000000
     86         15.021564   0.000000
     87         15.263549   0.000000
     88         15.461488   0.000000
     89         16.717779   0.000000
     90         16.745532   0.000000
     91         16.818654   0.000000
     92         16.830069   0.000000
     93         16.965449   0.000000
     94         17.315512   0.000000
     95         17.445368   0.000000
     96         17.798541   0.000000
     97         17.967091   0.000000
     98         18.403098   0.000000
     99         18.681264   0.000000
    100         18.801230   0.000000
    101         19.025689   0.000000
    102         19.337256   0.000000
    103         19.897624   0.000000
    104         20.173425   0.000000
    105         20.251103   0.000000
    106         20.757113   0.000000
    107         20.780184   0.000000
    108         20.979681   0.000000
    109         21.406533   0.000000
    110         21.783989   0.000000
    111         21.788528   0.000000
    112         22.024279   0.000000
    113         22.197231   0.000000
    114         22.395655   0.000000
    115         22.790613   0.000000
    116         22.973878   0.000000
    117         22.993909   0.000000
    118         23.096648   0.000000
    119         23.313405   0.000000
    120         24.003771   0.000000
    121         24.016907   0.000000
    122         24.533582   0.000000
    123         24.612358   0.000000
    124         25.194736   0.000000
    125         25.680715   0.000000
    126         25.680814   0.000000
    127         26.254369   0.000000
    128         26.341630   0.000000
    129         27.020512   0.000000
    130         27.059912   0.000000
    131         27.230086   0.000000
    132         27.266026   0.000000
    133         27.396057   0.000000
    134         27.443610   0.000000
    135         27.617333   0.000000
    136         27.738618   0.000000
    137         27.809484   0.000000
    138         27.947525   0.000000
    139         28.264257   0.000000
    140         28.384618   0.000000

  0.0000000E+00  0.0000000E+00  0.1666667E-01  0.0000000E+00
      1        -25.458497   1.000000
      2        -25.453407   1.000000
      3        -25.443788   1.000000
      4        -25.443176   1.000000
      5        -25.413962   1.000000
      6        -25.413565   1.000000
      7        -25.391487   1.000000
      8        -25.390774   1.000000
      9        -25.386089   1.000000
     10        -25.385324   1.000000
     11        -12.867702   1.000000
     12        -11.557456   1.000000
     13        -11.379568   1.000000
     14        -11.142345   1.000000
     15        -10.834409   1.000000
     16        -10.829085   1.000000
     17         -6.462180   1.000000
     18         -5.582840   1.000000
     19         -2.897348   1.000000
     20         -2.327627   1.000000
     21         -2.228411   1.000000
     22         -2.122311   1.000000
     23         -1.772115   1.000000
     24         -1.383796   1.000000
     25         -1.325454   1.000000
     26         -0.964164   1.000000
     27         -0.743709   1.000000
     28         -0.660260   1.000000
     29         -0.658994   1.000000
     30         -0.634114   1.000000
     31         -0.603459   1.000000
     32         -0.543427   1.000000
     33         -0.415388   1.000000
     34         -0.414902   1.000000
     35          0.527766   1.000000
     36          0.563386   1.000000
     37          0.593225   1.000000
     38          0.624349   1.000000
     39          0.635338   1.000000
     40          0.660944   1.000000
     41          0.690001   1.000000
     42          0.696287   1.000000
     43          0.728411   1.000000
     44          0.907781   1.000000
     45          1.083578   1.000000
     46          1.118138   1.000000
     47          1.224221   1.000000
     48          1.772531   1.000000
     49          1.933054   1.000000
     50          2.317515   1.000000
     51          2.467030   1.000000
     52          3.301982   1.000000
     53          3.316581   1.000000
     54          3.458061   1.000000
     55          4.091939   0.000000
     56          4.995042   0.000000
     57          6.448469   0.000000
     58          6.772063   0.000000
     59          7.417987   0.000000
     60          7.605141   0.000000
     61          8.333884   0.000000
     62          8.444560   0.000000
     63          8.583495   0.000000
     64          9.233806   0.000000
     65          9.540622   0.000000
     66          9.653865   0.000000
     67          9.730990   0.000000
     68         10.115189   0.000000
     69         10.688747   0.000000
     70         11.252490   0.000000
     71         11.353152   0.000000
     72         11.687696   0.000000
     73         12.250668   0.000000
     74         12.383181   0.000000
     75         12.707715   0.000000
     76         12.733614   0.000000
     77         12.934975   0.000000
     78         13.149862   0.000000
     79         13.507865   0.000000
     80         13.584644   0.000000
     81         13.636239   0.000000
     82         13.882533   0.000000
     83         14.352827   0.000000
     84         14.699915   0.000000
     85         14.848288   0.000000
     86         15.020909   0.000000
     87         15.255691   0.000000
     88         15.457462   0.000000
     89         16.702570   0.000000
     90         16.729495   0.000000
     91         16.818993   0.000000
     92         16.838494   0.000000
     93         16.961299   0.000000
     94         17.307282   0.000000
     95         17.414432   0.000000
     96         17.837920   0.000000
     97         17.978346   0.000000
     98         18.415645   0.000000
     99         18.647417   0.000000
    100         18.848144   0.000000
    101         19.038688   0.000000
    102         19.348587   0.000000
    103         19.898921   0.000000
    104         20.165872   0.000000
    105         20.242425   0.000000
    106         20.762325   0.000000
    107         20.766329   0.000000
    108         21.000131   0.000000
    109         21.403315   0.000000
    110         21.783218   0.000000
    111         21.784929   0.000000
    112         22.019480   0.000000
    113         22.198286   0.000000
    114         22.396762   0.000000
    115         22.777340   0.000000
    116         22.971951   0.000000
    117         22.990525   0.000000
    118         23.092634   0.000000
    119         23.302404   0.000000
    120         24.019339   0.000000
    121         24.039874   0.000000
    122         24.540459   0.000000
    123         24.621701   0.000000
    124         25.180287   0.000000
    125         25.674776   0.000000
    126         25.678339   0.000000
    127         26.250743   0.000000
    128         26.341211   0.000000
    129         27.006852   0.000000
    130         27.046121   0.000000
    131         27.217948   0.000000
    132         27.248644   0.000000
    133         27.361123   0.000000
    134         27.407403   0.000000
    135         27.645325   0.000000
    136         27.782910   0.000000
    137         27.816327   0.000000
    138         27.959797   0.000000
    139         28.247279   0.000000
    140         28.379770   0.000000

  0.0000000E+00  0.0000000E+00  0.3333333E-01  0.0000000E+00
      1        -25.458443   1.000000
      2        -25.453372   1.000000
      3        -25.443740   1.000000
      4        -25.443130   1.000000
      5        -25.413918   1.000000
      6        -25.413525   1.000000
      7        -25.391441   1.000000
      8        -25.390730   1.000000
      9        -25.386045   1.000000
     10        -25.385282   1.000000
     11        -12.865797   1.000000
     12        -11.565184   1.000000
     13        -11.374634   1.000000
     14        -11.142400   1.000000
     15        -10.834359   1.000000
     16        -10.829060   1.000000
     17         -6.459184   1.000000
     18         -5.583936   1.000000
     19         -2.894057   1.000000
     20         -2.343622   1.000000
     21         -2.209239   1.000000
     22         -2.123048   1.000000
     23         -1.768862   1.000000
     24         -1.385901   1.000000
     25         -1.329709   1.000000
     26         -0.965212   1.000000
     27         -0.744127   1.000000
     28         -0.659547   1.000000
     29         -0.659035   1.000000
     30         -0.633946   1.000000
     31         -0.605683   1.000000
     32         -0.542383   1.000000
     33         -0.415415   1.000000
     34         -0.414536   1.000000
     35          0.527844   1.000000
     36          0.563694   1.000000
     37          0.592820   1.000000
     38          0.623799   1.000000
     39          0.635534   1.000000
     40          0.660383   1.000000
     41          0.687487   1.000000
     42          0.696521   1.000000
     43          0.733545   1.000000
     44          0.907885   1.000000
     45          1.071266   1.000000
     46          1.129501   1.000000
     47          1.223864   1.000000
     48          1.775584   1.000000
     49          1.930995   1.000000
     50          2.320123   1.000000
     51          2.467317   1.000000
     52          3.299332   1.000000
     53          3.310659   1.000000
     54          3.422174   1.000000
     55          4.128384   0.000000
     56          4.996872   0.000000
     57          6.455859   0.000000
     58          6.768043   0.000000
     59          7.410079   0.000000
     60          7.602373   0.000000
     61          8.338061   0.000000
     62          8.456196   0.000000
     63          8.580679   0.000000
     64          9.240015   0.000000
     65          9.523800   0.000000
     66          9.673587   0.000000
     67          9.734404   0.000000
     68         10.130195   0.000000
     69         10.687356   0.000000
     70         11.232320   0.000000
     71         11.353264   0.000000
     72         11.682771   0.000000
     73         12.253178   0.000000
     74         12.357475   0.000000
     75         12.699998   0.000000
     76         12.744287   0.000000
     77         12.935508   0.000000
     78         13.131424   0.000000
     79         13.523694   0.000000
     80         13.568324   0.000000
     81         13.655091   0.000000
     82         13.889295   0.000000
     83         14.365003   0.000000
     84         14.722260   0.000000
     85         14.848503   0.000000
     86         15.024518   0.000000
     87         15.232839   0.000000
     88         15.445800   0.000000
     89         16.658708   0.000000
     90         16.686827   0.000000
     91         16.808451   0.000000
     92         16.863499   0.000000
     93         16.954248   0.000000
     94         17.282028   0.000000
     95         17.351838   0.000000
     96         17.927254   0.000000
     97         18.009885   0.000000
     98         18.452867   0.000000
     99         18.602972   0.000000
    100         18.931700   0.000000
    101         19.076983   0.000000
    102         19.382078   0.000000
    103         19.900532   0.000000
    104         20.145891   0.000000
    105         20.222148   0.000000
    106         20.717382   0.000000
    107         20.789238   0.000000
    108         21.051347   0.000000
    109         21.394349   0.000000
    110         21.774695   0.000000
    111         21.780756   0.000000
    112         22.006393   0.000000
    113         22.201532   0.000000
    114         22.399871   0.000000
    115         22.744002   0.000000
    116         22.951349   0.000000
    117         22.977638   0.000000
    118         23.094739   0.000000
    119         23.275823   0.000000
    120         24.062226   0.000000
    121         24.103197   0.000000
    122         24.560256   0.000000
    123         24.645150   0.000000
    124         25.141021   0.000000
    125         25.659762   0.000000
    126         25.671517   0.000000
    127         26.238636   0.000000
    128         26.338033   0.000000
    129         26.939868   0.000000
    130         26.997225   0.000000
    131         27.176906   0.000000
    132         27.215679   0.000000
    133         27.339374   0.000000
    134         27.352931   0.000000
    135         27.671979   0.000000
    136         27.799457   0.000000
    137         27.889445   0.000000
    138         27.997486   0.000000
    139         28.191035   0.000000
    140         28.360506   0.000000

  0.0000000E+00  0.0000000E+00  0.5000000E-01  0.0000000E+00
      1        -25.458353   1.000000
      2        -25.453314   1.000000
      3        -25.443662   1.000000
      4        -25.443060   1.000000
      5        -25.413844   1.000000
      6        -25.413455   1.000000
      7        -25.391371   1.000000
      8        -25.390658   1.000000
      9        -25.385969   1.000000
     10        -25.385211   1.000000
     11        -12.862621   1.000000
     12        -11.577222   1.000000
     13        -11.367236   1.000000
     14        -11.142491   1.000000
     15        -10.834277   1.000000
     16        -10.829019   1.000000
     17         -6.454218   1.000000
     18         -5.585763   1.000000
     19         -2.888565   1.000000
     20         -2.362571   1.000000
     21         -2.185060   1.000000
     22         -2.124233   1.000000
     23         -1.763542   1.000000
     24         -1.389282   1.000000
     25         -1.336655   1.000000
     26         -0.967094   1.000000
     27         -0.744990   1.000000
     28         -0.659129   1.000000
     29         -0.658515   1.000000
     30         -0.633379   1.000000
     31         -0.609118   1.000000
     32         -0.540841   1.000000
     33         -0.415466   1.000000
     34         -0.413970   1.000000
     35          0.527946   1.000000
     36          0.564195   1.000000
     37          0.592188   1.000000
     38          0.622865   1.000000
     39          0.635878   1.000000
     40          0.659441   1.000000
     41          0.684687   1.000000
     42          0.696932   1.000000
     43          0.740650   1.000000
     44          0.908109   1.000000
     45          1.057907   1.000000
     46          1.141194   1.000000
     47          1.223287   1.000000
     48          1.780605   1.000000
     49          1.927662   1.000000
     50          2.324444   1.000000
     51          2.467845   1.000000
     52          3.294952   1.000000
     53          3.295345   1.000000
     54          3.376137   1.000000
     55          4.180768   0.000000
     56          4.999838   0.000000
     57          6.467988   0.000000
     58          6.761321   0.000000
     59          7.397313   0.000000
     60          7.598686   0.000000
     61          8.344839   0.000000
     62          8.474856   0.000000
     63          8.576459   0.000000
     64          9.250254   0.000000
     65          9.505192   0.000000
     66          9.695849   0.000000
     67          9.740006   0.000000
     68         10.155150   0.000000
     69         10.684876   0.000000
     70         11.199052   0.000000
     71         11.353533   0.000000
     72         11.677207   0.000000
     73         12.256189   0.000000
     74         12.316046   0.000000
     75         12.688628   0.000000
     76         12.760446   0.000000
     77         12.936544   0.000000
     78         13.109090   0.000000
     79         13.537472   0.000000
     80         13.544958   0.000000
     81         13.688212   0.000000
     82         13.897051   0.000000
     83         14.384896   0.000000
     84         14.758160   0.000000
     85         14.834849   0.000000
     86         15.046002   0.000000
     87         15.196990   0.000000
     88         15.427728   0.000000
     89         16.591837   0.000000
     90         16.623430   0.000000
     91         16.771922   0.000000
     92         16.901979   0.000000
     93         16.949948   0.000000
     94         17.240020   0.000000
     95         17.296600   0.000000
     96         18.032826   0.000000
     97         18.056088   0.000000
     98         18.513652   0.000000
     99         18.579920   0.000000
    100         19.019440   0.000000
    101         19.138567   0.000000
    102         19.435273   0.000000
    103         19.895598   0.000000
    104         20.120543   0.000000
    105         20.204306   0.000000
    106         20.655125   0.000000
    107         20.814837   0.000000
    108         21.120204   0.000000
    109         21.381778   0.000000
    110         21.759460   0.000000
    111         21.776109   0.000000
    112         21.988344   0.000000
    113         22.207136   0.000000
    114         22.404470   0.000000
    115         22.700427   0.000000
    116         22.904441   0.000000
    117         22.948992   0.000000
    118         23.113439   0.000000
    119         23.247790   0.000000
    120         24.123599   0.000000
    121         24.194710   0.000000
    122         24.590434   0.000000
    123         24.667399   0.000000
    124         25.091878   0.000000
    125         25.642423   0.000000
    126         25.661173   0.000000
    127         26.214010   0.000000
    128         26.325318   0.000000
    129         26.816177   0.000000
    130         26.903087   0.000000
    131         27.121163   0.000000
    132         27.204272   0.000000
    133         27.326422   0.000000
    134         27.346631   0.000000
    135         27.689827   0.000000
    136         27.756577   0.000000
    137         27.992706   0.000000
    138         28.030031   0.000000
    139         28.123652   0.000000
    140         28.330249   0.000000

  0.0000000E+00  0.0000000E+00  0.6666667E-01  0.0000000E+00
      1        -25.458230   1.000000
      2        -25.453238   1.000000
      3        -25.443553   1.000000
      4        -25.442956   1.000000
      5        -25.413738   1.000000
      6        -25.413354   1.000000
      7        -25.391267   1.000000
      8        -25.390559   1.000000
      9        -25.385863   1.000000
     10        -25.385110   1.000000
     11        -12.858178   1.000000
     12        -11.592730   1.000000
     13        -11.358183   1.000000
     14        -11.142620   1.000000
     15        -10.834163   1.000000
     16        -10.828960   1.000000
     17         -6.447321   1.000000
     18         -5.588323   1.000000
     19         -2.880866   1.000000
     20         -2.381844   1.000000
     21         -2.158603   1.000000
     22         -2.125805   1.000000
     23         -1.756298   1.000000
     24         -1.393751   1.000000
     25         -1.346082   1.000000
     26         -0.970000   1.000000
     27         -0.746509   1.000000
     28         -0.659329   1.000000
     29         -0.657365   1.000000
     30         -0.632041   1.000000
     31         -0.613433   1.000000
     32         -0.539000   1.000000
     33         -0.415551   1.000000
     34         -0.413261   1.000000
     35          0.528035   1.000000
     36          0.564885   1.000000
     37          0.591380   1.000000
     38          0.621559   1.000000
     39          0.636387   1.000000
     40          0.658163   1.000000
     41          0.682329   1.000000
     42          0.697540   1.000000
     43          0.748840   1.000000
     44          0.908540   1.000000
     45          1.044309   1.000000
     46          1.152302   1.000000
     47          1.222522   1.000000
     48          1.787488   1.000000
     49          1.923194   1.000000
     50          2.330441   1.000000
     51          2.468689   1.000000
     52          3.256027   1.000000
     53          3.288895   1.000000
     54          3.341211   1.000000
     55          4.242409   0.000000
     56          5.003821   0.000000
     57          6.484557   0.000000
     58          6.751906   0.000000
     59          7.380327   0.000000
     60          7.595216   0.000000
     61          8.354087   0.000000
     62          8.499519   0.000000
     63          8.571430   0.000000
     64          9.264361   0.000000
     65          9.488010   0.000000
     66          9.716241   0.000000
     67          9.747660   0.000000
     68         10.189486   0.000000
     69         10.681048   0.000000
     70         11.153834   0.000000
     71         11.354092   0.000000
     72         11.673510   0.000000
     73         12.258579   0.000000
     74         12.261570   0.000000
     75         12.674857   0.000000
     76         12.779793   0.000000
     77         12.938391   0.000000
     78         13.087600   0.000000
     79         13.518036   0.000000
     80         13.545591   0.000000
     81         13.731288   0.000000
     82         13.902989   0.000000
     83         14.411681   0.000000
     84         14.801076   0.000000
     85         14.804991   0.000000
     86         15.093511   0.000000
     87         15.151106   0.000000
     88         15.405387   0.000000
     89         16.509255   0.000000
     90         16.543294   0.000000
     91         16.709708   0.000000
     92         16.937027   0.000000
     93         16.943919   0.000000
     94         17.188627   0.000000
     95         17.273717   0.000000
     96         18.110403   0.000000
     97         18.139374   0.000000
     98         18.584495   0.000000
     99         18.596292   0.000000
    100         19.103508   0.000000
    101         19.220458   0.000000
    102         19.501822   0.000000
    103         19.875548   0.000000
    104         20.099711   0.000000
    105         20.203781   0.000000
    106         20.580356   0.000000
    107         20.830923   0.000000
    108         21.199017   0.000000
    109         21.369146   0.000000
    110         21.741864   0.000000
    111         21.768500   0.000000
    112         21.969506   0.000000
    113         22.215085   0.000000
    114         22.409993   0.000000
    115         22.652501   0.000000
    116         22.847335   0.000000
    117         22.901434   0.000000
    118         23.139405   0.000000
    119         23.229204   0.000000
    120         24.192078   0.000000
    121         24.302386   0.000000
    122         24.626787   0.000000
    123         24.662470   0.000000
    124         25.060875   0.000000
    125         25.629394   0.000000
    126         25.648976   0.000000
    127         26.169545   0.000000
    128         26.287439   0.000000
    129         26.688182   0.000000
    130         26.783499   0.000000
    131         27.068598   0.000000
    132         27.193554   0.000000
    133         27.317326   0.000000
    134         27.365557   0.000000
    135         27.691190   0.000000
    136         27.708051   0.000000
    137         28.016564   0.000000
    138         28.031385   0.000000
    139         28.111334   0.000000
    140         28.240137   0.000000

  0.0000000E+00  0.0000000E+00  0.8333333E-01  0.0000000E+00
      1        -25.458072   1.000000
      2        -25.453149   1.000000
      3        -25.443412   1.000000
      4        -25.442821   1.000000
      5        -25.413602   1.000000
      6        -25.413224   1.000000
      7        -25.391129   1.000000
      8        -25.390430   1.000000
      9        -25.385726   1.000000
     10        -25.384981   1.000000
     11        -12.852473   1.000000
     12        -11.610990   1.000000
     13        -11.348161   1.000000
     14        -11.142789   1.000000
     15        -10.834017   1.000000
     16        -10.828887   1.000000
     17         -6.438547   1.000000
     18         -5.591619   1.000000
     19         -2.870949   1.000000
     20         -2.400388   1.000000
     21         -2.131062   1.000000
     22         -2.127698   1.000000
     23         -1.747326   1.000000
     24         -1.399070   1.000000
     25         -1.357719   1.000000
     26         -0.974179   1.000000
     27         -0.748905   1.000000
     28         -0.659724   1.000000
     29         -0.656279   1.000000
     30         -0.629581   1.000000
     31         -0.618252   1.000000
     32         -0.537055   1.000000
     33         -0.415686   1.000000
     34         -0.412481   1.000000
     35          0.528067   1.000000
     36          0.565747   1.000000
     37          0.590477   1.000000
     38          0.619885   1.000000
     39          0.637066   1.000000
     40          0.656664   1.000000
     41          0.680688   1.000000
     42          0.698378   1.000000
     43          0.757582   1.000000
     44          0.909295   1.000000
     45          1.030736   1.000000
     46          1.162409   1.000000
     47          1.221618   1.000000
     48          1.796087   1.000000
     49          1.917764   1.000000
     50          2.338060   1.000000
     51          2.469936   1.000000
     52          3.191157   1.000000
     53          3.281233   1.000000
     54          3.323624   1.000000
     55          4.308584   0.000000
     56          5.008665   0.000000
     57          6.505103   0.000000
     58          6.739886   0.000000
     59          7.360048   0.000000
     60          7.593156   0.000000
     61          8.365748   0.000000
     62          8.528964   0.000000
     63          8.566232   0.000000
     64          9.282105   0.000000
     65          9.473341   0.000000
     66          9.732733   0.000000
     67          9.757149   0.000000
     68         10.231755   0.000000
     69         10.675467   0.000000
     70         11.098895   0.000000
     71         11.355149   0.000000
     72         11.673471   0.000000
     73         12.197942   0.000000
     74         12.259509   0.000000
     75         12.659338   0.000000
     76         12.799360   0.000000
     77         12.941645   0.000000
     78         13.068719   0.000000
     79         13.490374   0.000000
     80         13.549605   0.000000
     81         13.777667   0.000000
     82         13.905425   0.000000
     83         14.443474   0.000000
     84         14.752574   0.000000
     85         14.857573   0.000000
     86         15.099152   0.000000
     87         15.164266   0.000000
     88         15.382138   0.000000
     89         16.417739   0.000000
     90         16.450842   0.000000
     91         16.629757   0.000000
     92         16.902713   0.000000
     93         16.956745   0.000000
     94         17.159941   0.000000
     95         17.293892   0.000000
     96         18.167541   0.000000
     97         18.240530   0.000000
     98         18.615328   0.000000
     99         18.697806   0.000000
    100         19.180823   0.000000
    101         19.319013   0.000000
    102         19.571066   0.000000
    103         19.838079   0.000000
    104         20.094826   0.000000
    105         20.226872   0.000000
    106         20.498126   0.000000
    107         20.827704   0.000000
    108         21.281917   0.000000
    109         21.359759   0.000000
    110         21.725465   0.000000
    111         21.757210   0.000000
    112         21.953882   0.000000
    113         22.224772   0.000000
    114         22.415842   0.000000
    115         22.604250   0.000000
    116         22.793370   0.000000
    117         22.840270   0.000000
    118         23.165605   0.000000
    119         23.221322   0.000000
    120         24.248398   0.000000
    121         24.416318   0.000000
    122         24.621170   0.000000
    123         24.663794   0.000000
    124         25.066371   0.000000
    125         25.627357   0.000000
    126         25.637230   0.000000
    127         26.096430   0.000000
    128         26.201613   0.000000
    129         26.599996   0.000000
    130         26.670034   0.000000
    131         27.017223   0.000000
    132         27.169745   0.000000
    133         27.314639   0.000000
    134         27.380043   0.000000
    135         27.658223   0.000000
    136         27.665194   0.000000
    137         27.972879   0.000000
    138         27.984724   0.000000
    139         28.158899   0.000000
    140         28.199008   0.000000

  0.0000000E+00  0.0000000E+00  0.1000000E+00  0.0000000E+00
      1        -25.457882   1.000000
      2        -25.453037   1.000000
      3        -25.443246   1.000000
      4        -25.442662   1.000000
      5        -25.413446   1.000000
      6        -25.413072   1.000000
      7        -25.390966   1.000000
      8        -25.390278   1.000000
      9        -25.385565   1.000000
     10        -25.384830   1.000000
     11        -12.845516   1.000000
     12        -11.631465   1.000000
     13        -11.337665   1.000000
     14        -11.142999   1.000000
     15        -10.833842   1.000000
     16        -10.828800   1.000000
     17         -6.427965   1.000000
     18         -5.595653   1.000000
     19         -2.858803   1.000000
     20         -2.417708   1.000000
     21         -2.129846   1.000000
     22         -2.103116   1.000000
     23         -1.736859   1.000000
     24         -1.404948   1.000000
     25         -1.371238   1.000000
     26         -0.979916   1.000000
     27         -0.752357   1.000000
     28         -0.660482   1.000000
     29         -0.655300   1.000000
     30         -0.625839   1.000000
     31         -0.623144   1.000000
     32         -0.535168   1.000000
     33         -0.415879   1.000000
     34         -0.411710   1.000000
     35          0.527978   1.000000
     36          0.566756   1.000000
     37          0.589559   1.000000
     38          0.617865   1.000000
     39          0.637903   1.000000
     40          0.655102   1.000000
     41          0.679770   1.000000
     42          0.699481   1.000000
     43          0.766492   1.000000
     44          0.910512   1.000000
     45          1.017307   1.000000
     46          1.171216   1.000000
     47          1.220631   1.000000
     48          1.806220   1.000000
     49          1.911586   1.000000
     50          2.347230   1.000000
     51          2.471690   1.000000
     52          3.115304   1.000000
     53          3.272060   1.000000
     54          3.311858   1.000000
     55          4.376201   0.000000
     56          5.014187   0.000000
     57          6.528957   0.000000
     58          6.725472   0.000000
     59          7.337710   0.000000
     60          7.593554   0.000000
     61          8.379807   0.000000
     62          8.561435   0.000000
     63          8.561972   0.000000
     64          9.303185   0.000000
     65          9.461427   0.000000
     66          9.744566   0.000000
     67          9.768174   0.000000
     68         10.279466   0.000000
     69         10.667564   0.000000
     70         11.037486   0.000000
     71         11.356992   0.000000
     72         11.677985   0.000000
     73         12.129620   0.000000
     74         12.258529   0.000000
     75         12.642100   0.000000
     76         12.815757   0.000000
     77         12.947206   0.000000
     78         13.052554   0.000000
     79         13.464073   0.000000
     80         13.551371   0.000000
     81         13.822541   0.000000
     82         13.903785   0.000000
     83         14.475263   0.000000
     84         14.699719   0.000000
     85         14.904673   0.000000
     86         15.048190   0.000000
     87         15.252918   0.000000
     88         15.363265   0.000000
     89         16.323300   0.000000
     90         16.350714   0.000000
     91         16.538854   0.000000
     92         16.850934   0.000000
     93         16.899343   0.000000
     94         17.196489   0.000000
     95         17.349155   0.000000
     96         18.224195   0.000000
     97         18.334469   0.000000
     98         18.666519   0.000000
     99         18.813261   0.000000
    100         19.247652   0.000000
    101         19.430039   0.000000
    102         19.632918   0.000000
    103         19.789518   0.000000
    104         20.114200   0.000000
    105         20.269358   0.000000
    106         20.417681   0.000000
    107         20.801595   0.000000
    108         21.353419   0.000000
    109         21.362491   0.000000
    110         21.714531   0.000000
    111         21.742603   0.000000
    112         21.944661   0.000000
    113         22.234369   0.000000
    114         22.421115   0.000000
    115         22.560906   0.000000
    116         22.748607   0.000000
    117         22.775861   0.000000
    118         23.189437   0.000000
    119         23.219968   0.000000
    120         24.250742   0.000000
    121         24.526571   0.000000
    122         24.591077   0.000000
    123         24.696674   0.000000
    124         25.089347   0.000000
    125         25.627380   0.000000
    126         25.644135   0.000000
    127         25.992817   0.000000
    128         26.068864   0.000000
    129         26.558991   0.000000
    130         26.577941   0.000000
    131         26.967173   0.000000
    132         27.129566   0.000000
    133         27.313748   0.000000
    134         27.376376   0.000000
    135         27.602440   0.000000
    136         27.633060   0.000000
    137         27.900638   0.000000
    138         27.925954   0.000000
    139         28.191836   0.000000
    140         28.209400   0.000000

  0.0000000E+00  0.0000000E+00  0.1166667E+00  0.0000000E+00
      1        -25.457660   1.000000
      2        -25.452907   1.000000
      3        -25.443053   1.000000
      4        -25.442476   1.000000
      5        -25.413262   1.000000
      6        -25.412894   1.000000
      7        -25.390778   1.000000
      8        -25.390101   1.000000
      9        -25.385377   1.000000
     10        -25.384653   1.000000
     11        -12.837314   1.000000
     12        -11.653759   1.000000
     13        -11.327036   1.000000
     14        -11.143255   1.000000
     15        -10.833640   1.000000
     16        -10.828699   1.000000
     17         -6.415656   1.000000
     18         -5.600429   1.000000
     19         -2.844415   1.000000
     20         -2.433533   1.000000
     21         -2.132193   1.000000
     22         -2.075258   1.000000
     23         -1.725170   1.000000
     24         -1.411059   1.000000
     25         -1.386272   1.000000
     26         -0.987515   1.000000
     27         -0.756950   1.000000
     28         -0.661847   1.000000
     29         -0.654310   1.000000
     30         -0.627611   1.000000
     31         -0.620868   1.000000
     32         -0.533462   1.000000
     33         -0.416137   1.000000
     34         -0.411026   1.000000
     35          0.527747   1.000000
     36          0.567892   1.000000
     37          0.588715   1.000000
     38          0.615537   1.000000
     39          0.638883   1.000000
     40          0.653622   1.000000
     41          0.679471   1.000000
     42          0.700892   1.000000
     43          0.775273   1.000000
     44          0.912365   1.000000
     45          1.004097   1.000000
     46          1.178465   1.000000
     47          1.219660   1.000000
     48          1.817661   1.000000
     49          1.904887   1.000000
     50          2.357859   1.000000
     51          2.474066   1.000000
     52          3.035338   1.000000
     53          3.261486   1.000000
     54          3.301080   1.000000
     55          4.443207   0.000000
     56          5.020187   0.000000
     57          6.555180   0.000000
     58          6.709019   0.000000
     59          7.314894   0.000000
     60          7.597185   0.000000
     61          8.396245   0.000000
     62          8.557462   0.000000
     63          8.597490   0.000000
     64          9.327241   0.000000
     65          9.452151   0.000000
     66          9.751645   0.000000
     67          9.780342   0.000000
     68         10.329064   0.000000
     69         10.656608   0.000000
     70         10.973723   0.000000
     71         11.359997   0.000000
     72         11.687262   0.000000
     73         12.060994   0.000000
     74         12.255538   0.000000
     75         12.622770   0.000000
     76         12.825828   0.000000
     77         12.955865   0.000000
     78         13.038641   0.000000
     79         13.440700   0.000000
     80         13.551949   0.000000
     81         13.863195   0.000000
     82         13.898274   0.000000
     83         14.491598   0.000000
     84         14.661849   0.000000
     85         14.917620   0.000000
     86         15.018582   0.000000
     87         15.354653   0.000000
     88         15.356542   0.000000
     89         16.231903   0.000000
     90         16.247140   0.000000
     91         16.442112   0.000000
     92         16.791051   0.000000
     93         16.798288   0.000000
     94         17.273985   0.000000
     95         17.427066   0.000000
     96         18.278272   0.000000
     97         18.421601   0.000000
     98         18.729931   0.000000
     99         18.935782   0.000000
    100         19.296226   0.000000
    101         19.548029   0.000000
    102         19.688320   0.000000
    103         19.739565   0.000000
    104         20.146423   0.000000
    105         20.322775   0.000000
    106         20.361778   0.000000
    107         20.757905   0.000000
    108         21.345468   0.000000
    109         21.431552   0.000000
    110         21.713158   0.000000
    111         21.728203   0.000000
    112         21.944004   0.000000
    113         22.240335   0.000000
    114         22.424224   0.000000
    115         22.529651   0.000000
    116         22.714646   0.000000
    117         22.718891   0.000000
    118         23.210200   0.000000
    119         23.221064   0.000000
    120         24.167819   0.000000
    121         24.612738   0.000000
    122         24.618121   0.000000
    123         24.731998   0.000000
    124         25.100931   0.000000
    125         25.612183   0.000000
    126         25.682453   0.000000
    127         25.877108   0.000000
    128         25.921034   0.000000
    129         26.504242   0.000000
    130         26.540212   0.000000
    131         26.922884   0.000000
    132         27.072278   0.000000
    133         27.311487   0.000000
    134         27.347487   0.000000
    135         27.557421   0.000000
    136         27.612968   0.000000
    137         27.805838   0.000000
    138         27.873635   0.000000
    139         28.194423   0.000000
    140         28.252992   0.000000

  0.0000000E+00  0.0000000E+00  0.1333333E+00  0.0000000E+00
      1        -25.457412   1.000000
      2        -25.452765   1.000000
      3        -25.442833   1.000000
      4        -25.442266   1.000000
      5        -25.413053   1.000000
      6        -25.412692   1.000000
      7        -25.390567   1.000000
      8        -25.389905   1.000000
      9        -25.385170   1.000000
     10        -25.384457   1.000000
     11        -12.827879   1.000000
     12        -11.677589   1.000000
     13        -11.316494   1.000000
     14        -11.143559   1.000000
     15        -10.833410   1.000000
     16        -10.828586   1.000000
     17         -6.401712   1.000000
     18         -5.605950   1.000000
     19         -2.827774   1.000000
     20         -2.447694   1.000000
     21         -2.134699   1.000000
     22         -2.047923   1.000000
     23         -1.712574   1.000000
     24         -1.417052   1.000000
     25         -1.402405   1.000000
     26         -0.997282   1.000000
     27         -0.762666   1.000000
     28         -0.664121   1.000000
     29         -0.653143   1.000000
     30         -0.631142   1.000000
     31         -0.614882   1.000000
     32         -0.532033   1.000000
     33         -0.416475   1.000000
     34         -0.410509   1.000000
     35          0.527354   1.000000
     36          0.569133   1.000000
     37          0.588011   1.000000
     38          0.612949   1.000000
     39          0.639974   1.000000
     40          0.652314   1.000000
     41          0.679666   1.000000
     42          0.702660   1.000000
     43          0.783672   1.000000
     44          0.915037   1.000000
     45          0.991156   1.000000
     46          1.183919   1.000000
     47          1.218814   1.000000
     48          1.830149   1.000000
     49          1.897883   1.000000
     50          2.369833   1.000000
     51          2.477180   1.000000
     52          2.954010   1.000000
     53          3.249639   1.000000
     54          3.289973   1.000000
     55          4.508181   0.000000
     56          5.026461   0.000000
     57          6.582494   0.000000
     58          6.691015   0.000000
     59          7.293545   0.000000
     60          7.604520   0.000000
     61          8.414973   0.000000
     62          8.554542   0.000000
     63          8.634714   0.000000
     64          9.353846   0.000000
     65          9.445241   0.000000
     66          9.754107   0.000000
     67          9.793181   0.000000
     68         10.375803   0.000000
     69         10.641761   0.000000
     70         10.912708   0.000000
     71         11.364599   0.000000
     72         11.701072   0.000000
     73         11.996037   0.000000
     74         12.250732   0.000000
     75         12.600783   0.000000
     76         12.827743   0.000000
     77         12.967374   0.000000
     78         13.026477   0.000000
     79         13.421405   0.000000
     80         13.551752   0.000000
     81         13.889542   0.000000
     82         13.898064   0.000000
     83         14.467241   0.000000
     84         14.667029   0.000000
     85         14.879105   0.000000
     86         15.017582   0.000000
     87         15.368795   0.000000
     88         15.464388   0.000000
     89         16.143826   0.000000
     90         16.150754   0.000000
     91         16.343857   0.000000
     92         16.679998   0.000000
     93         16.729413   0.000000
     94         17.368325   0.000000
     95         17.519592   0.000000
     96         18.327767   0.000000
     97         18.502600   0.000000
     98         18.796451   0.000000
     99         19.056431   0.000000
    100         19.317559   0.000000
    101         19.652990   0.000000
    102         19.711323   0.000000
    103         19.750835   0.000000
    104         20.145202   0.000000
    105         20.376607   0.000000
    106         20.377796   0.000000
    107         20.711076   0.000000
    108         21.331175   0.000000
    109         21.474832   0.000000
    110         21.722916   0.000000
    111         21.723286   0.000000
    112         21.953279   0.000000
    113         22.238683   0.000000
    114         22.422961   0.000000
    115         22.516501   0.000000
    116         22.679073   0.000000
    117         22.691848   0.000000
    118         23.221854   0.000000
    119         23.227998   0.000000
    120         24.034383   0.000000
    121         24.635139   0.000000
    122         24.671452   0.000000
    123         24.798074   0.000000
    124         25.089226   0.000000
    125         25.552420   0.000000
    126         25.685001   0.000000
    127         25.804295   0.000000
    128         25.837312   0.000000
    129         26.438175   0.000000
    130         26.518559   0.000000
    131         26.889028   0.000000
    132         27.005465   0.000000
    133         27.302335   0.000000
    134         27.303911   0.000000
    135         27.534216   0.000000
    136         27.603895   0.000000
    137         27.719070   0.000000
    138         27.822290   0.000000
    139         28.198660   0.000000
    140         28.274825   0.000000

  0.0000000E+00  0.0000000E+00  0.1500000E+00  0.0000000E+00
      1        -25.457133   1.000000
      2        -25.452606   1.000000
      3        -25.442591   1.000000
      4        -25.442033   1.000000
      5        -25.412824   1.000000
      6        -25.412471   1.000000
      7        -25.390334   1.000000
      8        -25.389687   1.000000
      9        -25.384936   1.000000
     10        -25.384241   1.000000
     11        -12.817223   1.000000
     12        -11.702740   1.000000
     13        -11.306182   1.000000
     14        -11.143916   1.000000
     15        -10.833156   1.000000
     16        -10.828462   1.000000
     17         -6.386237   1.000000
     18         -5.612218   1.000000
     19         -2.808866   1.000000
     20         -2.460082   1.000000
     21         -2.137348   1.000000
     22         -2.021518   1.000000
     23         -1.699438   1.000000
     24         -1.422564   1.000000
     25         -1.419175   1.000000
     26         -1.009498   1.000000
     27         -0.769382   1.000000
     28         -0.667485   1.000000
     29         -0.651673   1.000000
     30         -0.633360   1.000000
     31         -0.608133   1.000000
     32         -0.530962   1.000000
     33         -0.416891   1.000000
     34         -0.410226   1.000000
     35          0.526810   1.000000
     36          0.570445   1.000000
     37          0.587489   1.000000
     38          0.610163   1.000000
     39          0.641150   1.000000
     40          0.651217   1.000000
     41          0.680263   1.000000
     42          0.704833   1.000000
     43          0.791481   1.000000
     44          0.918683   1.000000
     45          0.978513   1.000000
     46          1.187383   1.000000
     47          1.218255   1.000000
     48          1.843392   1.000000
     49          1.890776   1.000000
     50          2.382988   1.000000
     51          2.481142   1.000000
     52          2.872849   1.000000
     53          3.236658   1.000000
     54          3.278118   1.000000
     55          4.570101   0.000000
     56          5.032812   0.000000
     57          6.609232   0.000000
     58          6.672053   0.000000
     59          7.275988   0.000000
     60          7.615743   0.000000
     61          8.435797   0.000000
     62          8.552711   0.000000
     63          8.673130   0.000000
     64          9.382510   0.000000
     65          9.440364   0.000000
     66          9.752080   0.000000
     67          9.806173   0.000000
     68         10.413384   0.000000
     69         10.622210   0.000000
     70         10.860988   0.000000
     71         11.371199   0.000000
     72         11.718792   0.000000
     73         11.938180   0.000000
     74         12.244614   0.000000
     75         12.575504   0.000000
     76         12.821422   0.000000
     77         12.980179   0.000000
     78         13.015725   0.000000
     79         13.406968   0.000000
     80         13.550710   0.000000
     81         13.878453   0.000000
     82         13.925926   0.000000
     83         14.412908   0.000000
     84         14.706935   0.000000
     85         14.823614   0.000000
     86         15.008056   0.000000
     87         15.395308   0.000000
     88         15.574924   0.000000
     89         16.044687   0.000000
     90         16.089965   0.000000
     91         16.248678   0.000000
     92         16.554352   0.000000
     93         16.670461   0.000000
     94         17.471747   0.000000
     95         17.622234   0.000000
     96         18.370245   0.000000
     97         18.577118   0.000000
     98         18.854947   0.000000
     99         19.162612   0.000000
    100         19.312909   0.000000
    101         19.656196   0.000000
    102         19.795713   0.000000
    103         19.830153   0.000000
    104         20.112061   0.000000
    105         20.417295   0.000000
    106         20.461715   0.000000
    107         20.684524   0.000000
    108         21.310675   0.000000
    109         21.479209   0.000000
    110         21.735174   0.000000
    111         21.743501   0.000000
    112         21.973219   0.000000
    113         22.228793   0.000000
    114         22.416512   0.000000
    115         22.520254   0.000000
    116         22.663199   0.000000
    117         22.682116   0.000000
    118         23.220268   0.000000
    119         23.243308   0.000000
    120         23.884121   0.000000
    121         24.602285   0.000000
    122         24.708493   0.000000
    123         24.879346   0.000000
    124         25.063798   0.000000
    125         25.421127   0.000000
    126         25.566791   0.000000
    127         25.812138   0.000000
    128         25.906509   0.000000
    129         26.372086   0.000000
    130         26.473422   0.000000
    131         26.867330   0.000000
    132         26.948906   0.000000
    133         27.255678   0.000000
    134         27.285920   0.000000
    135         27.524382   0.000000
    136         27.599488   0.000000
    137         27.658836   0.000000
    138         27.779284   0.000000
    139         28.200526   0.000000
    140         28.268963   0.000000

  0.0000000E+00  0.0000000E+00  0.1666667E+00  0.0000000E+00
      1        -25.456835   1.000000
      2        -25.452439   1.000000
      3        -25.442332   1.000000
      4        -25.441784   1.000000
      5        -25.412579   1.000000
      6        -25.412232   1.000000
      7        -25.390085   1.000000
      8        -25.389453   1.000000
      9        -25.384684   1.000000
     10        -25.384009   1.000000
     11        -12.805362   1.000000
     12        -11.729051   1.000000
     13        -11.296190   1.000000
     14        -11.144330   1.000000
     15        -10.832882   1.000000
     16        -10.828331   1.000000
     17         -6.369341   1.000000
     18         -5.619238   1.000000
     19         -2.787684   1.000000
     20         -2.470622   1.000000
     21         -2.140149   1.000000
     22         -1.996446   1.000000
     23         -1.686212   1.000000
     24         -1.436043   1.000000
     25         -1.427237   1.000000
     26         -1.024404   1.000000
     27         -0.776903   1.000000
     28         -0.671851   1.000000
     29         -0.649848   1.000000
     30         -0.634211   1.000000
     31         -0.600868   1.000000
     32         -0.530318   1.000000
     33         -0.417396   1.000000
     34         -0.410242   1.000000
     35          0.526154   1.000000
     36          0.571799   1.000000
     37          0.587153   1.000000
     38          0.607215   1.000000
     39          0.642366   1.000000
     40          0.650318   1.000000
     41          0.681158   1.000000
     42          0.707454   1.000000
     43          0.798549   1.000000
     44          0.923398   1.000000
     45          0.966191   1.000000
     46          1.188713   1.000000
     47          1.218170   1.000000
     48          1.857061   1.000000
     49          1.883723   1.000000
     50          2.397075   1.000000
     51          2.486052   1.000000
     52          2.792958   1.000000
     53          3.222687   1.000000
     54          3.265370   1.000000
     55          4.628219   0.000000
     56          5.039052   0.000000
     57          6.633370   0.000000
     58          6.652766   0.000000
     59          7.264849   0.000000
     60          7.630812   0.000000
     61          8.458381   0.000000
     62          8.551822   0.000000
     63          8.712508   0.000000
     64          9.412647   0.000000
     65          9.437170   0.000000
     66          9.745590   0.000000
     67          9.818818   0.000000
     68         10.434276   0.000000
     69         10.597393   0.000000
     70         10.826332   0.000000
     71         11.379994   0.000000
     72         11.739271   0.000000
     73         11.890296   0.000000
     74         12.238107   0.000000
     75         12.546289   0.000000
     76         12.807727   0.000000
     77         12.992326   0.000000
     78         13.006225   0.000000
     79         13.397783   0.000000
     80         13.548293   0.000000
     81         13.865939   0.000000
     82         13.945356   0.000000
     83         14.353083   0.000000
     84         14.759398   0.000000
     85         14.766659   0.000000
     86         14.982147   0.000000
     87         15.416596   0.000000
     88         15.671541   0.000000
     89         15.956873   0.000000
     90         16.062457   0.000000
     91         16.163542   0.000000
     92         16.427151   0.000000
     93         16.618913   0.000000
     94         17.580864   0.000000
     95         17.732283   0.000000
     96         18.402774   0.000000
     97         18.642997   0.000000
     98         18.889105   0.000000
     99         19.237677   0.000000
    100         19.300869   0.000000
    101         19.664072   0.000000
    102         19.884922   0.000000
    103         19.920879   0.000000
    104         20.091428   0.000000
    105         20.443036   0.000000
    106         20.570051   0.000000
    107         20.697251   0.000000
    108         21.289614   0.000000
    109         21.449381   0.000000
    110         21.758201   0.000000
    111         21.770458   0.000000
    112         22.002664   0.000000
    113         22.214561   0.000000
    114         22.408517   0.000000
    115         22.530308   0.000000
    116         22.671765   0.000000
    117         22.690121   0.000000
    118         23.213913   0.000000
    119         23.256809   0.000000
    120         23.733772   0.000000
    121         24.536976   0.000000
    122         24.693625   0.000000
    123         24.949450   0.000000
    124         25.048166   0.000000
    125         25.260135   0.000000
    126         25.437837   0.000000
    127         25.863076   0.000000
    128         26.013058   0.000000
    129         26.304586   0.000000
    130         26.396802   0.000000
    131         26.856028   0.000000
    132         26.919189   0.000000
    133         27.213851   0.000000
    134         27.254470   0.000000
    135         27.522944   0.000000
    136         27.581467   0.000000
    137         27.650513   0.000000
    138         27.747843   0.000000
    139         28.195463   0.000000
    140         28.239629   0.000000

  0.0000000E+00  0.0000000E+00  0.1833333E+00  0.0000000E+00
      1        -25.456516   1.000000
      2        -25.452265   1.000000
      3        -25.442057   1.000000
      4        -25.441520   1.000000
      5        -25.412315   1.000000
      6        -25.411974   1.000000
      7        -25.389821   1.000000
      8        -25.389206   1.000000
      9        -25.384418   1.000000
     10        -25.383764   1.000000
     11        -12.792315   1.000000
     12        -11.756388   1.000000
     13        -11.286572   1.000000
     14        -11.144807   1.000000
     15        -10.832588   1.000000
     16        -10.828193   1.000000
     17         -6.351143   1.000000
     18         -5.627010   1.000000
     19         -2.764226   1.000000
     20         -2.479267   1.000000
     21         -2.143133   1.000000
     22         -1.973094   1.000000
     23         -1.673467   1.000000
     24         -1.452354   1.000000
     25         -1.430733   1.000000
     26         -1.042189   1.000000
     27         -0.784979   1.000000
     28         -0.676892   1.000000
     29         -0.647667   1.000000
     30         -0.633896   1.000000
     31         -0.593290   1.000000
     32         -0.530150   1.000000
     33         -0.417988   1.000000
     34         -0.410601   1.000000
     35          0.525445   1.000000
     36          0.573160   1.000000
     37          0.586978   1.000000
     38          0.604172   1.000000
     39          0.643588   1.000000
     40          0.649593   1.000000
     41          0.682281   1.000000
     42          0.710561   1.000000
     43          0.804824   1.000000
     44          0.929172   1.000000
     45          0.954208   1.000000
     46          1.187827   1.000000
     47          1.218801   1.000000
     48          1.870816   1.000000
     49          1.876827   1.000000
     50          2.411639   1.000000
     51          2.492002   1.000000
     52          2.715397   1.000000
     53          3.207882   1.000000
     54          3.251687   1.000000
     55          4.682002   0.000000
     56          5.045017   0.000000
     57          6.633776   0.000000
     58          6.652751   0.000000
     59          7.262791   0.000000
     60          7.649523   0.000000
     61          8.482224   0.000000
     62          8.551586   0.000000
     63          8.752879   0.000000
     64          9.435302   0.000000
     65          9.443532   0.000000
     66          9.734598   0.000000
     67          9.830748   0.000000
     68         10.433322   0.000000
     69         10.567247   0.000000
     70         10.814213   0.000000
     71         11.390741   0.000000
     72         11.760543   0.000000
     73         11.854733   0.000000
     74         12.232750   0.000000
     75         12.512529   0.000000
     76         12.787672   0.000000
     77         12.997979   0.000000
     78         13.002306   0.000000
     79         13.393891   0.000000
     80         13.543480   0.000000
     81         13.852919   0.000000
     82         13.954657   0.000000
     83         14.300142   0.000000
     84         14.712359   0.000000
     85         14.814177   0.000000
     86         14.945156   0.000000
     87         15.413266   0.000000
     88         15.716017   0.000000
     89         15.899823   0.000000
     90         16.074211   0.000000
     91         16.103933   0.000000
     92         16.306984   0.000000
     93         16.581741   0.000000
     94         17.693261   0.000000
     95         17.847916   0.000000
     96         18.421821   0.000000
     97         18.695655   0.000000
     98         18.880564   0.000000
     99         19.273980   0.000000
    100         19.309033   0.000000
    101         19.706704   0.000000
    102         19.933598   0.000000
    103         19.997221   0.000000
    104         20.117381   0.000000
    105         20.487156   0.000000
    106         20.683508   0.000000
    107         20.737573   0.000000
    108         21.277268   0.000000
    109         21.400350   0.000000
    110         21.779998   0.000000
    111         21.801182   0.000000
    112         22.037299   0.000000
    113         22.200762   0.000000
    114         22.405327   0.000000
    115         22.535244   0.000000
    116         22.699564   0.000000
    117         22.718700   0.000000
    118         23.198946   0.000000
    119         23.269415   0.000000
    120         23.596045   0.000000
    121         24.449723   0.000000
    122         24.615103   0.000000
    123         24.982729   0.000000
    124         25.045796   0.000000
    125         25.110287   0.000000
    126         25.329550   0.000000
    127         25.928594   0.000000
    128         26.104130   0.000000
    129         26.240166   0.000000
    130         26.317292   0.000000
    131         26.851967   0.000000
    132         26.913150   0.000000
    133         27.179555   0.000000
    134         27.213393   0.000000
    135         27.530210   0.000000
    136         27.564762   0.000000
    137         27.676132   0.000000
    138         27.727373   0.000000
    139         28.175757   0.000000
    140         28.188556   0.000000

  0.0000000E+00  0.0000000E+00  0.2000000E+00  0.0000000E+00
      1        -25.456178   1.000000
      2        -25.452078   1.000000
      3        -25.441765   1.000000
      4        -25.441241   1.000000
      5        -25.412034   1.000000
      6        -25.411706   1.000000
      7        -25.389541   1.000000
      8        -25.388945   1.000000
      9        -25.384137   1.000000
     10        -25.383506   1.000000
     11        -12.778101   1.000000
     12        -11.784635   1.000000
     13        -11.277359   1.000000
     14        -11.145351   1.000000
     15        -10.832278   1.000000
     16        -10.828051   1.000000
     17         -6.331765   1.000000
     18         -5.635538   1.000000
     19         -2.738493   1.000000
     20         -2.485991   1.000000
     21         -2.146358   1.000000
     22         -1.951820   1.000000
     23         -1.661956   1.000000
     24         -1.467278   1.000000
     25         -1.432755   1.000000
     26         -1.062977   1.000000
     27         -0.793338   1.000000
     28         -0.682243   1.000000
     29         -0.645164   1.000000
     30         -0.632706   1.000000
     31         -0.585578   1.000000
     32         -0.530490   1.000000
     33         -0.418667   1.000000
     34         -0.411343   1.000000
     35          0.524758   1.000000
     36          0.574496   1.000000
     37          0.586933   1.000000
     38          0.601090   1.000000
     39          0.644776   1.000000
     40          0.649018   1.000000
     41          0.683556   1.000000
     42          0.714184   1.000000
     43          0.810344   1.000000
     44          0.935871   1.000000
     45          0.942583   1.000000
     46          1.184709   1.000000
     47          1.220440   1.000000
     48          1.870133   1.000000
     49          1.884299   1.000000
     50          2.425635   1.000000
     51          2.499067   1.000000
     52          2.641665   1.000000
     53          3.192401   1.000000
     54          3.237070   1.000000
     55          4.731110   0.000000
     56          5.050568   0.000000
     57          6.615641   0.000000
     58          6.665569   0.000000
     59          7.271996   0.000000
     60          7.671558   0.000000
     61          8.506664   0.000000
     62          8.551600   0.000000
     63          8.794495   0.000000
     64          9.434384   0.000000
     65          9.474195   0.000000
     66          9.719141   0.000000
     67          9.841869   0.000000
     68         10.413276   0.000000
     69         10.532405   0.000000
     70         10.822276   0.000000
     71         11.402562   0.000000
     72         11.779543   0.000000
     73         11.833346   0.000000
     74         12.230872   0.000000
     75         12.473698   0.000000
     76         12.762222   0.000000
     77         12.991099   0.000000
     78         13.009197   0.000000
     79         13.395088   0.000000
     80         13.534783   0.000000
     81         13.840238   0.000000
     82         13.952952   0.000000
     83         14.260848   0.000000
     84         14.662441   0.000000
     85         14.865212   0.000000
     86         14.901696   0.000000
     87         15.381704   0.000000
     88         15.676317   0.000000
     89         15.871962   0.000000
     90         16.081890   0.000000
     91         16.096124   0.000000
     92         16.237739   0.000000
     93         16.570087   0.000000
     94         17.806298   0.000000
     95         17.967699   0.000000
     96         18.422380   0.000000
     97         18.728052   0.000000
     98         18.830803   0.000000
     99         19.288075   0.000000
    100         19.349458   0.000000
    101         19.753314   0.000000
    102         19.952225   0.000000
    103         20.036896   0.000000
    104         20.206647   0.000000
    105         20.575524   0.000000
    106         20.782725   0.000000
    107         20.793202   0.000000
    108         21.283853   0.000000
    109         21.344172   0.000000
    110         21.796302   0.000000
    111         21.834000   0.000000
    112         22.071398   0.000000
    113         22.190707   0.000000
    114         22.411105   0.000000
    115         22.532695   0.000000
    116         22.738269   0.000000
    117         22.761610   0.000000
    118         23.170026   0.000000
    119         23.282338   0.000000
    120         23.485426   0.000000
    121         24.348615   0.000000
    122         24.493871   0.000000
    123         24.879217   0.000000
    124         25.020930   0.000000
    125         25.075892   0.000000
    126         25.259633   0.000000
    127         25.985067   0.000000
    128         26.082362   0.000000
    129         26.192810   0.000000
    130         26.338760   0.000000
    131         26.853187   0.000000
    132         26.917840   0.000000
    133         27.155341   0.000000
    134         27.170469   0.000000
    135         27.545744   0.000000
    136         27.558858   0.000000
    137         27.712363   0.000000
    138         27.716045   0.000000
    139         28.111359   0.000000
    140         28.128780   0.000000

  0.0000000E+00  0.0000000E+00  0.2166667E+00  0.0000000E+00
      1        -25.455826   1.000000
      2        -25.451895   1.000000
      3        -25.441466   1.000000
      4        -25.440959   1.000000
      5        -25.411748   1.000000
      6        -25.411430   1.000000
      7        -25.389251   1.000000
      8        -25.388678   1.000000
      9        -25.383849   1.000000
     10        -25.383241   1.000000
     11        -12.762737   1.000000
     12        -11.813691   1.000000
     13        -11.268564   1.000000
     14        -11.145970   1.000000
     15        -10.831955   1.000000
     16        -10.827908   1.000000
     17         -6.311334   1.000000
     18         -5.644824   1.000000
     19         -2.710492   1.000000
     20         -2.490785   1.000000
     21         -2.149901   1.000000
     22         -1.932928   1.000000
     23         -1.652673   1.000000
     24         -1.479758   1.000000
     25         -1.433086   1.000000
     26         -1.086833   1.000000
     27         -0.801705   1.000000
     28         -0.687638   1.000000
     29         -0.642403   1.000000
     30         -0.630914   1.000000
     31         -0.577884   1.000000
     32         -0.531346   1.000000
     33         -0.419437   1.000000
     34         -0.412490   1.000000
     35          0.524152   1.000000
     36          0.575757   1.000000
     37          0.586959   1.000000
     38          0.598031   1.000000
     39          0.645896   1.000000
     40          0.648564   1.000000
     41          0.684902   1.000000
     42          0.718316   1.000000
     43          0.815237   1.000000
     44          0.931337   1.000000
     45          0.943207   1.000000
     46          1.179418   1.000000
     47          1.223419   1.000000
     48          1.863614   1.000000
     49          1.897149   1.000000
     50          2.435778   1.000000
     51          2.507308   1.000000
     52          2.575388   1.000000
     53          3.176392   1.000000
     54          3.221534   1.000000
     55          4.775364   0.000000
     56          5.055593   0.000000
     57          6.598815   0.000000
     58          6.670972   0.000000
     59          7.293545   0.000000
     60          7.696527   0.000000
     61          8.530896   0.000000
     62          8.551387   0.000000
     63          8.837754   0.000000
     64          9.433994   0.000000
     65          9.503294   0.000000
     66          9.699527   0.000000
     67          9.852553   0.000000
     68         10.382944   0.000000
     69         10.494222   0.000000
     70         10.842125   0.000000
     71         11.413988   0.000000
     72         11.792169   0.000000
     73         11.827417   0.000000
     74         12.235458   0.000000
     75         12.429416   0.000000
     76         12.732308   0.000000
     77         12.985747   0.000000
     78         13.012507   0.000000
     79         13.401083   0.000000
     80         13.520509   0.000000
     81         13.828629   0.000000
     82         13.942520   0.000000
     83         14.237335   0.000000
     84         14.617777   0.000000
     85         14.854497   0.000000
     86         14.907136   0.000000
     87         15.331531   0.000000
     88         15.599379   0.000000
     89         15.830941   0.000000
     90         15.996943   0.000000
     91         16.125905   0.000000
     92         16.297004   0.000000
     93         16.597554   0.000000
     94         17.915808   0.000000
     95         18.090330   0.000000
     96         18.396788   0.000000
     97         18.733024   0.000000
     98         18.767552   0.000000
     99         19.303021   0.000000
    100         19.413067   0.000000
    101         19.751192   0.000000
    102         19.993125   0.000000
    103         20.068166   0.000000
    104         20.319930   0.000000
    105         20.694247   0.000000
    106         20.826130   0.000000
    107         20.892178   0.000000
    108         21.291597   0.000000
    109         21.315663   0.000000
    110         21.807531   0.000000
    111         21.868243   0.000000
    112         22.100951   0.000000
    113         22.186520   0.000000
    114         22.425858   0.000000
    115         22.525722   0.000000
    116         22.774858   0.000000
    117         22.807199   0.000000
    118         23.128926   0.000000
    119         23.297138   0.000000
    120         23.413861   0.000000
    121         24.241140   0.000000
    122         24.352471   0.000000
    123         24.715699   0.000000
    124         24.949125   0.000000
    125         25.082518   0.000000
    126         25.230376   0.000000
    127         25.979812   0.000000
    128         25.997177   0.000000
    129         26.191538   0.000000
    130         26.435635   0.000000
    131         26.860426   0.000000
    132         26.925296   0.000000
    133         27.130089   0.000000
    134         27.142679   0.000000
    135         27.558644   0.000000
    136         27.559045   0.000000
    137         27.715872   0.000000
    138         27.736281   0.000000
    139         28.020543   0.000000
    140         28.063526   0.000000

  0.0000000E+00  0.0000000E+00  0.2333333E+00  0.0000000E+00
      1        -25.455465   1.000000
      2        -25.451714   1.000000
      3        -25.441159   1.000000
      4        -25.440671   1.000000
      5        -25.411458   1.000000
      6        -25.411151   1.000000
      7        -25.388957   1.000000
      8        -25.388405   1.000000
      9        -25.383553   1.000000
     10        -25.382971   1.000000
     11        -12.746240   1.000000
     12        -11.843462   1.000000
     13        -11.260192   1.000000
     14        -11.146667   1.000000
     15        -10.831622   1.000000
     16        -10.827765   1.000000
     17         -6.289979   1.000000
     18         -5.654868   1.000000
     19         -2.680243   1.000000
     20         -2.493658   1.000000
     21         -2.153857   1.000000
     22         -1.916640   1.000000
     23         -1.646791   1.000000
     24         -1.488559   1.000000
     25         -1.431606   1.000000
     26         -1.113756   1.000000
     27         -0.809805   1.000000
     28         -0.692878   1.000000
     29         -0.639443   1.000000
     30         -0.628741   1.000000
     31         -0.570326   1.000000
     32         -0.532689   1.000000
     33         -0.420305   1.000000
     34         -0.414054   1.000000
     35          0.523700   1.000000
     36          0.576880   1.000000
     37          0.587008   1.000000
     38          0.595075   1.000000
     39          0.646922   1.000000
     40          0.648218   1.000000
     41          0.686255   1.000000
     42          0.722937   1.000000
     43          0.819697   1.000000
     44          0.920510   1.000000
     45          0.950805   1.000000
     46          1.172081   1.000000
     47          1.228103   1.000000
     48          1.857182   1.000000
     49          1.909014   1.000000
     50          2.429695   1.000000
     51          2.516778   1.000000
     52          2.529215   1.000000
     53          3.159994   1.000000
     54          3.205106   1.000000
     55          4.814756   0.000000
     56          5.060009   0.000000
     57          6.583631   0.000000
     58          6.669353   0.000000
     59          7.327089   0.000000
     60          7.723972   0.000000
     61          8.550440   0.000000
     62          8.554049   0.000000
     63          8.883125   0.000000
     64          9.433619   0.000000
     65          9.528992   0.000000
     66          9.676579   0.000000
     67          9.863806   0.000000
     68         10.350422   0.000000
     69         10.454636   0.000000
     70         10.865946   0.000000
     71         11.423391   0.000000
     72         11.794175   0.000000
     73         11.837342   0.000000
     74         12.249225   0.000000
     75         12.379557   0.000000
     76         12.698856   0.000000
     77         12.982100   0.000000
     78         13.012046   0.000000
     79         13.411660   0.000000
     80         13.499449   0.000000
     81         13.818694   0.000000
     82         13.929325   0.000000
     83         14.226858   0.000000
     84         14.578685   0.000000
     85         14.805235   0.000000
     86         14.935020   0.000000
     87         15.273541   0.000000
     88         15.514772   0.000000
     89         15.785066   0.000000
     90         15.882172   0.000000
     91         16.154424   0.000000
     92         16.410517   0.000000
     93         16.668584   0.000000
     94         18.012474   0.000000
     95         18.214249   0.000000
     96         18.340652   0.000000
     97         18.708475   0.000000
     98         18.722171   0.000000
     99         19.329590   0.000000
    100         19.489067   0.000000
    101         19.704949   0.000000
    102         20.059765   0.000000
    103         20.099581   0.000000
    104         20.434594   0.000000
    105         20.796636   0.000000
    106         20.900370   0.000000
    107         20.970253   0.000000
    108         21.257836   0.000000
    109         21.370564   0.000000
    110         21.815159   0.000000
    111         21.903502   0.000000
    112         22.124269   0.000000
    113         22.190025   0.000000
    114         22.445630   0.000000
    115         22.517126   0.000000
    116         22.790357   0.000000
    117         22.843989   0.000000
    118         23.099477   0.000000
    119         23.315380   0.000000
    120         23.377782   0.000000
    121         24.134225   0.000000
    122         24.205970   0.000000
    123         24.552881   0.000000
    124         24.848660   0.000000
    125         25.073309   0.000000
    126         25.209051   0.000000
    127         25.877657   0.000000
    128         25.965681   0.000000
    129         26.229823   0.000000
    130         26.528957   0.000000
    131         26.876258   0.000000
    132         26.935362   0.000000
    133         27.090641   0.000000
    134         27.142172   0.000000
    135         27.539401   0.000000
    136         27.558328   0.000000
    137         27.701408   0.000000
    138         27.737151   0.000000
    139         27.931397   0.000000
    140         28.037057   0.000000

  0.0000000E+00  0.0000000E+00  0.2500000E+00  0.0000000E+00
      1        -25.455094   1.000000
      2        -25.451528   1.000000
      3        -25.440847   1.000000
      4        -25.440379   1.000000
      5        -25.411161   1.000000
      6        -25.410867   1.000000
      7        -25.388656   1.000000
      8        -25.388127   1.000000
      9        -25.383250   1.000000
     10        -25.382696   1.000000
     11        -12.728634   1.000000
     12        -11.873859   1.000000
     13        -11.252238   1.000000
     14        -11.147450   1.000000
     15        -10.831282   1.000000
     16        -10.827623   1.000000
     17         -6.267827   1.000000
     18         -5.665669   1.000000
     19         -2.647778   1.000000
     20         -2.494631   1.000000
     21         -2.158335   1.000000
     22         -1.903068   1.000000
     23         -1.645325   1.000000
     24         -1.492613   1.000000
     25         -1.428328   1.000000
     26         -1.143679   1.000000
     27         -0.817376   1.000000
     28         -0.697844   1.000000
     29         -0.636359   1.000000
     30         -0.626388   1.000000
     31         -0.562999   1.000000
     32         -0.534430   1.000000
     33         -0.421275   1.000000
     34         -0.416027   1.000000
     35          0.523462   1.000000
     36          0.577778   1.000000
     37          0.587048   1.000000
     38          0.592323   1.000000
     39          0.647841   1.000000
     40          0.647983   1.000000
     41          0.687557   1.000000
     42          0.727980   1.000000
     43          0.823937   1.000000
     44          0.910161   1.000000
     45          0.958228   1.000000
     46          1.162889   1.000000
     47          1.234873   1.000000
     48          1.850705   1.000000
     49          1.919572   1.000000
     50          2.390652   1.000000
     51          2.520098   1.000000
     52          2.527514   1.000000
     53          3.143330   1.000000
     54          3.187821   1.000000
     55          4.849424   0.000000
     56          5.063768   0.000000
     57          6.570299   0.000000
     58          6.662109   0.000000
     59          7.371088   0.000000
     60          7.753377   0.000000
     61          8.548274   0.000000
     62          8.575267   0.000000
     63          8.931033   0.000000
     64          9.432584   0.000000
     65          9.549009   0.000000
     66          9.651812   0.000000
     67          9.877259   0.000000
     68         10.320526   0.000000
     69         10.415904   0.000000
     70         10.888901   0.000000
     71         11.429601   0.000000
     72         11.782816   0.000000
     73         11.862156   0.000000
     74         12.272972   0.000000
     75         12.324399   0.000000
     76         12.662782   0.000000
     77         12.980307   0.000000
     78         13.007928   0.000000
     79         13.426699   0.000000
     80         13.471786   0.000000
     81         13.810901   0.000000
     82         13.919621   0.000000
     83         14.224530   0.000000
     84         14.544963   0.000000
     85         14.755282   0.000000
     86         14.945466   0.000000
     87         15.214818   0.000000
     88         15.430185   0.000000
     89         15.742594   0.000000
     90         15.767197   0.000000
     91         16.179231   0.000000
     92         16.540665   0.000000
     93         16.771135   0.000000
     94         18.065531   0.000000
     95         18.281020   0.000000
     96         18.336533   0.000000
     97         18.660750   0.000000
     98         18.711064   0.000000
     99         19.365266   0.000000
    100         19.571112   0.000000
    101         19.649222   0.000000
    102         20.124172   0.000000
    103         20.125281   0.000000
    104         20.540416   0.000000
    105         20.848909   0.000000
    106         21.011860   0.000000
    107         21.037917   0.000000
    108         21.265203   0.000000
    109         21.440474   0.000000
    110         21.820766   0.000000
    111         21.938874   0.000000
    112         22.140561   0.000000
    113         22.203123   0.000000
    114         22.462694   0.000000
    115         22.508950   0.000000
    116         22.779663   0.000000
    117         22.862437   0.000000
    118         23.102305   0.000000
    119         23.337312   0.000000
    120         23.363746   0.000000
    121         24.033293   0.000000
    122         24.066210   0.000000
    123         24.401156   0.000000
    124         24.737289   0.000000
    125         25.045787   0.000000
    126         25.170850   0.000000
    127         25.797585   0.000000
    128         25.924658   0.000000
    129         26.268313   0.000000
    130         26.595711   0.000000
    131         26.900506   0.000000
    132         26.947404   0.000000
    133         27.045609   0.000000
    134         27.157426   0.000000
    135         27.459620   0.000000
    136         27.547063   0.000000
    137         27.609029   0.000000
    138         27.775636   0.000000
    139         27.866945   0.000000
    140         28.079907   0.000000

  0.0000000E+00  0.0000000E+00  0.2666667E+00  0.0000000E+00
      1        -25.454718   1.000000
      2        -25.451350   1.000000
      3        -25.440534   1.000000
      4        -25.440088   1.000000
      5        -25.410865   1.000000
      6        -25.410585   1.000000
      7        -25.388354   1.000000
      8        -25.387853   1.000000
      9        -25.382948   1.000000
     10        -25.382424   1.000000
     11        -12.709943   1.000000
     12        -11.904799   1.000000
     13        -11.244695   1.000000
     14        -11.148326   1.000000
     15        -10.830938   1.000000
     16        -10.827488   1.000000
     17         -6.245005   1.000000
     18         -5.677227   1.000000
     19         -2.613140   1.000000
     20         -2.493740   1.000000
     21         -2.163447   1.000000
     22         -1.892206   1.000000
     23         -1.648549   1.000000
     24         -1.491602   1.000000
     25         -1.423409   1.000000
     26         -1.176485   1.000000
     27         -0.824174   1.000000
     28         -0.702469   1.000000
     29         -0.633230   1.000000
     30         -0.624066   1.000000
     31         -0.555985   1.000000
     32         -0.536438   1.000000
     33         -0.422363   1.000000
     34         -0.418396   1.000000
     35          0.523475   1.000000
     36          0.578297   1.000000
     37          0.587036   1.000000
     38          0.589925   1.000000
     39          0.647864   1.000000
     40          0.648642   1.000000
     41          0.688762   1.000000
     42          0.733323   1.000000
     43          0.828145   1.000000
     44          0.900374   1.000000
     45          0.965042   1.000000
     46          1.152079   1.000000
     47          1.244079   1.000000
     48          1.844010   1.000000
     49          1.928529   1.000000
     50          2.335133   1.000000
     51          2.531709   1.000000
     52          2.539540   1.000000
     53          3.126500   1.000000
     54          3.169707   1.000000
     55          4.879635   0.000000
     56          5.066844   0.000000
     57          6.558913   0.000000
     58          6.651059   0.000000
     59          7.423360   0.000000
     60          7.784145   0.000000
     61          8.544493   0.000000
     62          8.593818   0.000000
     63          8.981762   0.000000
     64          9.430003   0.000000
     65          9.561096   0.000000
     66          9.627461   0.000000
     67          9.894676   0.000000
     68         10.295434   0.000000
     69         10.380363   0.000000
     70         10.908403   0.000000
     71         11.432207   0.000000
     72         11.757900   0.000000
     73         11.899238   0.000000
     74         12.264944   0.000000
     75         12.304455   0.000000
     76         12.625136   0.000000
     77         12.980458   0.000000
     78         13.000652   0.000000
     79         13.439487   0.000000
     80         13.446080   0.000000
     81         13.805608   0.000000
     82         13.916776   0.000000
     83         14.226189   0.000000
     84         14.515769   0.000000
     85         14.706250   0.000000
     86         14.937823   0.000000
     87         15.158992   0.000000
     88         15.348918   0.000000
     89         15.658171   0.000000
     90         15.702014   0.000000
     91         16.213515   0.000000
     92         16.675463   0.000000
     93         16.887894   0.000000
     94         18.015890   0.000000
     95         18.284331   0.000000
     96         18.445225   0.000000
     97         18.609298   0.000000
     98         18.736903   0.000000
     99         19.400038   0.000000
    100         19.602957   0.000000
    101         19.655068   0.000000
    102         20.137775   0.000000
    103         20.176228   0.000000
    104         20.627737   0.000000
    105         20.895207   0.000000
    106         21.020594   0.000000
    107         21.194008   0.000000
    108         21.318234   0.000000
    109         21.517697   0.000000
    110         21.826181   0.000000
    111         21.972896   0.000000
    112         22.149059   0.000000
    113         22.226914   0.000000
    114         22.468208   0.000000
    115         22.503448   0.000000
    116         22.769993   0.000000
    117         22.857026   0.000000
    118         23.120202   0.000000
    119         23.360099   0.000000
    120         23.360732   0.000000
    121         23.939911   0.000000
    122         23.945897   0.000000
    123         24.270314   0.000000
    124         24.622808   0.000000
    125         25.004527   0.000000
    126         25.111384   0.000000
    127         25.744579   0.000000
    128         25.887563   0.000000
    129         26.290050   0.000000
    130         26.629363   0.000000
    131         26.915433   0.000000
    132         26.949785   0.000000
    133         26.993536   0.000000
    134         27.192929   0.000000
    135         27.329686   0.000000
    136         27.478102   0.000000
    137         27.558614   0.000000
    138         27.780816   0.000000
    139         27.851365   0.000000
    140         28.139870   0.000000

  0.0000000E+00  0.0000000E+00  0.2833333E+00  0.0000000E+00
      1        -25.454342   1.000000
      2        -25.451177   1.000000
      3        -25.440223   1.000000
      4        -25.439801   1.000000
      5        -25.410571   1.000000
      6        -25.410306   1.000000
      7        -25.388056   1.000000
      8        -25.387586   1.000000
      9        -25.382651   1.000000
     10        -25.382156   1.000000
     11        -12.690194   1.000000
     12        -11.936205   1.000000
     13        -11.237551   1.000000
     14        -11.149302   1.000000
     15        -10.830592   1.000000
     16        -10.827359   1.000000
     17         -6.221639   1.000000
     18         -5.689538   1.000000
     19         -2.576393   1.000000
     20         -2.491037   1.000000
     21         -2.169306   1.000000
     22         -1.883932   1.000000
     23         -1.655740   1.000000
     24         -1.486205   1.000000
     25         -1.417147   1.000000
     26         -1.211998   1.000000
     27         -0.829974   1.000000
     28         -0.706731   1.000000
     29         -0.630135   1.000000
     30         -0.622003   1.000000
     31         -0.549341   1.000000
     32         -0.538517   1.000000
     33         -0.423588   1.000000
     34         -0.421131   1.000000
     35          0.523771   1.000000
     36          0.578202   1.000000
     37          0.586956   1.000000
     38          0.588108   1.000000
     39          0.647871   1.000000
     40          0.649330   1.000000
     41          0.689851   1.000000
     42          0.738784   1.000000
     43          0.832481   1.000000
     44          0.891287   1.000000
     45          0.970881   1.000000
     46          1.139921   1.000000
     47          1.255996   1.000000
     48          1.836906   1.000000
     49          1.935654   1.000000
     50          2.277666   1.000000
     51          2.549626   1.000000
     52          2.552868   1.000000
     53          3.109577   1.000000
     54          3.150796   1.000000
     55          4.905759   0.000000
     56          5.069238   0.000000
     57          6.549475   0.000000
     58          6.637952   0.000000
     59          7.481568   0.000000
     60          7.815597   0.000000
     61          8.538869   0.000000
     62          8.609171   0.000000
     63          9.035372   0.000000
     64          9.424851   0.000000
     65          9.563987   0.000000
     66          9.606228   0.000000
     67          9.916922   0.000000
     68         10.275697   0.000000
     69         10.350327   0.000000
     70         10.923123   0.000000
     71         11.431321   0.000000
     72         11.721290   0.000000
     73         11.943864   0.000000
     74         12.203860   0.000000
     75         12.338478   0.000000
     76         12.587644   0.000000
     77         12.982550   0.000000
     78         12.991194   0.000000
     79         13.405733   0.000000
     80         13.469505   0.000000
     81         13.803125   0.000000
     82         13.921166   0.000000
     83         14.229119   0.000000
     84         14.489421   0.000000
     85         14.660478   0.000000
     86         14.914199   0.000000
     87         15.107144   0.000000
     88         15.273469   0.000000
     89         15.558669   0.000000
     90         15.659422   0.000000
     91         16.266474   0.000000
     92         16.805131   0.000000
     93         17.004293   0.000000
     94         17.905576   0.000000
     95         18.319785   0.000000
     96         18.469361   0.000000
     97         18.633727   0.000000
     98         18.798919   0.000000
     99         19.422159   0.000000
    100         19.576963   0.000000
    101         19.736742   0.000000
    102         20.132660   0.000000
    103         20.218783   0.000000
    104         20.685121   0.000000
    105         20.947215   0.000000
    106         21.026841   0.000000
    107         21.348476   0.000000
    108         21.394076   0.000000
    109         21.598617   0.000000
    110         21.833928   0.000000
    111         22.005115   0.000000
    112         22.149799   0.000000
    113         22.258975   0.000000
    114         22.462412   0.000000
    115         22.503682   0.000000
    116         22.782042   0.000000
    117         22.828739   0.000000
    118         23.128283   0.000000
    119         23.356944   0.000000
    120         23.377944   0.000000
    121         23.849650   0.000000
    122         23.859979   0.000000
    123         24.173134   0.000000
    124         24.510426   0.000000
    125         24.957606   0.000000
    126         25.040532   0.000000
    127         25.713340   0.000000
    128         25.856761   0.000000
    129         26.291019   0.000000
    130         26.634008   0.000000
    131         26.848465   0.000000
    132         26.927359   0.000000
    133         26.977925   0.000000
    134         27.155989   0.000000
    135         27.263733   0.000000
    136         27.408379   0.000000
    137         27.530627   0.000000
    138         27.721413   0.000000
    139         27.865410   0.000000
    140         28.000217   0.000000

  0.0000000E+00  0.0000000E+00  0.3000000E+00  0.0000000E+00
      1        -25.453969   1.000000
      2        -25.451014   1.000000
      3        -25.439917   1.000000
      4        -25.439521   1.000000
      5        -25.410281   1.000000
      6        -25.410034   1.000000
      7        -25.387762   1.000000
      8        -25.387320   1.000000
      9        -25.382356   1.000000
     10        -25.381895   1.000000
     11        -12.669413   1.000000
     12        -11.967991   1.000000
     13        -11.230792   1.000000
     14        -11.150384   1.000000
     15        -10.830248   1.000000
     16        -10.827239   1.000000
     17         -6.197850   1.000000
     18         -5.702600   1.000000
     19         -2.537622   1.000000
     20         -2.486580   1.000000
     21         -2.176011   1.000000
     22         -1.878034   1.000000
     23         -1.665620   1.000000
     24         -1.477663   1.000000
     25         -1.409983   1.000000
     26         -1.249959   1.000000
     27         -0.834579   1.000000
     28         -0.710638   1.000000
     29         -0.627165   1.000000
     30         -0.620434   1.000000
     31         -0.543112   1.000000
     32         -0.540406   1.000000
     33         -0.424964   1.000000
     34         -0.424190   1.000000
     35          0.524371   1.000000
     36          0.577302   1.000000
     37          0.586797   1.000000
     38          0.587066   1.000000
     39          0.648016   1.000000
     40          0.649926   1.000000
     41          0.690830   1.000000
     42          0.744111   1.000000
     43          0.837067   1.000000
     44          0.883099   1.000000
     45          0.975490   1.000000
     46          1.126698   1.000000
     47          1.270778   1.000000
     48          1.829201   1.000000
     49          1.940782   1.000000
     50          2.222181   1.000000
     51          2.567494   1.000000
     52          2.569996   1.000000
     53          3.092606   1.000000
     54          3.131123   1.000000
     55          4.928233   0.000000
     56          5.070972   0.000000
     57          6.541914   0.000000
     58          6.624205   0.000000
     59          7.543445   0.000000
     60          7.846964   0.000000
     61          8.531433   0.000000
     62          8.621043   0.000000
     63          9.091643   0.000000
     64          9.416351   0.000000
     65          9.558178   0.000000
     66          9.590620   0.000000
     67          9.942936   0.000000
     68         10.260961   0.000000
     69         10.328203   0.000000
     70         10.932338   0.000000
     71         11.427098   0.000000
     72         11.675743   0.000000
     73         11.985495   0.000000
     74         12.149825   0.000000
     75         12.366596   0.000000
     76         12.554395   0.000000
     77         12.980995   0.000000
     78         12.986448   0.000000
     79         13.373957   0.000000
     80         13.496297   0.000000
     81         13.803758   0.000000
     82         13.931518   0.000000
     83         14.231688   0.000000
     84         14.463305   0.000000
     85         14.621203   0.000000
     86         14.878232   0.000000
     87         15.058340   0.000000
     88         15.206047   0.000000
     89         15.472428   0.000000
     90         15.612723   0.000000
     91         16.340115   0.000000
     92         16.915404   0.000000
     93         17.107288   0.000000
     94         17.795116   0.000000
     95         18.347302   0.000000
     96         18.416629   0.000000
     97         18.735670   0.000000
     98         18.891635   0.000000
     99         19.428811   0.000000
    100         19.571767   0.000000
    101         19.809517   0.000000
    102         20.112070   0.000000
    103         20.260272   0.000000
    104         20.704429   0.000000
    105         21.000287   0.000000
    106         21.049698   0.000000
    107         21.473026   0.000000
    108         21.487925   0.000000
    109         21.684378   0.000000
    110         21.848054   0.000000
    111         22.038913   0.000000
    112         22.145424   0.000000
    113         22.291359   0.000000
    114         22.456335   0.000000
    115         22.510791   0.000000
    116         22.787893   0.000000
    117         22.810141   0.000000
    118         23.117430   0.000000
    119         23.340562   0.000000
    120         23.384743   0.000000
    121         23.758135   0.000000
    122         23.816791   0.000000
    123         24.117481   0.000000
    124         24.406818   0.000000
    125         24.915159   0.000000
    126         24.973750   0.000000
    127         25.694895   0.000000
    128         25.831369   0.000000
    129         26.269527   0.000000
    130         26.612530   0.000000
    131         26.718114   0.000000
    132         26.860746   0.000000
    133         26.960538   0.000000
    134         27.011242   0.000000
    135         27.314209   0.000000
    136         27.380700   0.000000
    137         27.497292   0.000000
    138         27.637467   0.000000
    139         27.867229   0.000000
    140         27.910286   0.000000

  0.0000000E+00  0.0000000E+00  0.3166667E+00  0.0000000E+00
      1        -25.453602   1.000000
      2        -25.450864   1.000000
      3        -25.439625   1.000000
      4        -25.439255   1.000000
      5        -25.410005   1.000000
      6        -25.409781   1.000000
      7        -25.387478   1.000000
      8        -25.387070   1.000000
      9        -25.382071   1.000000
     10        -25.381644   1.000000
     11        -12.647632   1.000000
     12        -12.000082   1.000000
     13        -11.224405   1.000000
     14        -11.151582   1.000000
     15        -10.829910   1.000000
     16        -10.827132   1.000000
     17         -6.173752   1.000000
     18         -5.716407   1.000000
     19         -2.496938   1.000000
     20         -2.480449   1.000000
     21         -2.183648   1.000000
     22         -1.874253   1.000000
     23         -1.676936   1.000000
     24         -1.467196   1.000000
     25         -1.402532   1.000000
     26         -1.289950   1.000000
     27         -0.837824   1.000000
     28         -0.714252   1.000000
     29         -0.624399   1.000000
     30         -0.619583   1.000000
     31         -0.541816   1.000000
     32         -0.537334   1.000000
     33         -0.427515   1.000000
     34         -0.426511   1.000000
     35          0.525269   1.000000
     36          0.575677   1.000000
     37          0.586556   1.000000
     38          0.586696   1.000000
     39          0.648308   1.000000
     40          0.650436   1.000000
     41          0.691720   1.000000
     42          0.748947   1.000000
     43          0.841967   1.000000
     44          0.876075   1.000000
     45          0.978730   1.000000
     46          1.112690   1.000000
     47          1.288452   1.000000
     48          1.820695   1.000000
     49          1.943827   1.000000
     50          2.169923   1.000000
     51          2.583395   1.000000
     52          2.591623   1.000000
     53          3.075598   1.000000
     54          3.110725   1.000000
     55          4.947534   0.000000
     56          5.072081   0.000000
     57          6.536110   0.000000
     58          6.610850   0.000000
     59          7.606847   0.000000
     60          7.877394   0.000000
     61          8.522566   0.000000
     62          8.629406   0.000000
     63          9.149992   0.000000
     64          9.404636   0.000000
     65          9.545875   0.000000
     66          9.582044   0.000000
     67          9.969469   0.000000
     68         10.250425   0.000000
     69         10.316777   0.000000
     70         10.935601   0.000000
     71         11.419383   0.000000
     72         11.624149   0.000000
     73         11.992202   0.000000
     74         12.133528   0.000000
     75         12.375422   0.000000
     76         12.534595   0.000000
     77         12.971797   0.000000
     78         12.991832   0.000000
     79         13.347223   0.000000
     80         13.525262   0.000000
     81         13.807829   0.000000
     82         13.945978   0.000000
     83         14.232926   0.000000
     84         14.434666   0.000000
     85         14.591719   0.000000
     86         14.833860   0.000000
     87         15.010258   0.000000
     88         15.148464   0.000000
     89         15.403774   0.000000
     90         15.562178   0.000000
     91         16.431853   0.000000
     92         16.981487   0.000000
     93         17.183009   0.000000
     94         17.720803   0.000000
     95         18.365139   0.000000
     96         18.370690   0.000000
     97         18.841430   0.000000
     98         19.005391   0.000000
     99         19.432616   0.000000
    100         19.575422   0.000000
    101         19.859799   0.000000
    102         20.088218   0.000000
    103         20.308098   0.000000
    104         20.690691   0.000000
    105         21.046903   0.000000
    106         21.086933   0.000000
    107         21.539008   0.000000
    108         21.597481   0.000000
    109         21.774955   0.000000
    110         21.874900   0.000000
    111         22.083959   0.000000
    112         22.141127   0.000000
    113         22.316275   0.000000
    114         22.457264   0.000000
    115         22.510436   0.000000
    116         22.761240   0.000000
    117         22.839578   0.000000
    118         23.093078   0.000000
    119         23.314175   0.000000
    120         23.375702   0.000000
    121         23.672235   0.000000
    122         23.799798   0.000000
    123         24.096104   0.000000
    124         24.323886   0.000000
    125         24.887552   0.000000
    126         24.925196   0.000000
    127         25.681744   0.000000
    128         25.809707   0.000000
    129         26.219665   0.000000
    130         26.558823   0.000000
    131         26.569929   0.000000
    132         26.717831   0.000000
    133         26.904090   0.000000
    134         26.923624   0.000000
    135         27.343569   0.000000
    136         27.368694   0.000000
    137         27.484615   0.000000
    138         27.565299   0.000000
    139         27.849651   0.000000
    140         27.857535   0.000000

  0.0000000E+00  0.0000000E+00  0.3333333E+00  0.0000000E+00
      1        -25.453238   1.000000
      2        -25.450728   1.000000
      3        -25.439342   1.000000
      4        -25.439001   1.000000
      5        -25.409739   1.000000
      6        -25.409533   1.000000
      7        -25.387206   1.000000
      8        -25.386828   1.000000
      9        -25.381795   1.000000
     10        -25.381406   1.000000
     11        -12.624882   1.000000
     12        -12.032398   1.000000
     13        -11.218375   1.000000
     14        -11.152901   1.000000
     15        -10.829580   1.000000
     16        -10.827037   1.000000
     17         -6.149455   1.000000
     18         -5.730953   1.000000
     19         -2.472726   1.000000
     20         -2.454489   1.000000
     21         -2.192255   1.000000
     22         -1.872319   1.000000
     23         -1.688717   1.000000
     24         -1.455733   1.000000
     25         -1.395996   1.000000
     26         -1.330932   1.000000
     27         -0.839576   1.000000
     28         -0.717672   1.000000
     29         -0.621926   1.000000
     30         -0.619599   1.000000
     31         -0.542469   1.000000
     32         -0.532029   1.000000
     33         -0.431030   1.000000
     34         -0.428238   1.000000
     35          0.526464   1.000000
     36          0.573623   1.000000
     37          0.586252   1.000000
     38          0.586692   1.000000
     39          0.648757   1.000000
     40          0.650888   1.000000
     41          0.692585   1.000000
     42          0.752873   1.000000
     43          0.847216   1.000000
     44          0.870561   1.000000
     45          0.980622   1.000000
     46          1.098190   1.000000
     47          1.308922   1.000000
     48          1.811174   1.000000
     49          1.944799   1.000000
     50          2.121445   1.000000
     51          2.600533   1.000000
     52          2.613987   1.000000
     53          3.058542   1.000000
     54          3.089649   1.000000
     55          4.964134   0.000000
     56          5.072613   0.000000
     57          6.531919   0.000000
     58          6.598563   0.000000
     59          7.669713   0.000000
     60          7.905978   0.000000
     61          8.513054   0.000000
     62          8.634472   0.000000
     63          9.209285   0.000000
     64          9.390953   0.000000
     65          9.530426   0.000000
     66          9.580430   0.000000
     67          9.991833   0.000000
     68         10.243069   0.000000
     69         10.319200   0.000000
     70         10.932588   0.000000
     71         11.407556   0.000000
     72         11.569258   0.000000
     73         11.948279   0.000000
     74         12.170284   0.000000
     75         12.354424   0.000000
     76         12.535443   0.000000
     77         12.965335   0.000000
     78         12.998169   0.000000
     79         13.328071   0.000000
     80         13.554694   0.000000
     81         13.815564   0.000000
     82         13.962595   0.000000
     83         14.232264   0.000000
     84         14.402732   0.000000
     85         14.573110   0.000000
     86         14.784824   0.000000
     87         14.960597   0.000000
     88         15.101948   0.000000
     89         15.356841   0.000000
     90         15.509290   0.000000
     91         16.537291   0.000000
     92         16.974644   0.000000
     93         17.218051   0.000000
     94         17.713625   0.000000
     95         18.356529   0.000000
     96         18.379268   0.000000
     97         18.934236   0.000000
     98         19.130902   0.000000
     99         19.445666   0.000000
    100         19.581730   0.000000
    101         19.865917   0.000000
    102         20.081971   0.000000
    103         20.364543   0.000000
    104         20.658632   0.000000
    105         21.081518   0.000000
    106         21.127736   0.000000
    107         21.576833   0.000000
    108         21.671908   0.000000
    109         21.854070   0.000000
    110         21.919436   0.000000
    111         22.141452   0.000000
    112         22.153496   0.000000
    113         22.335497   0.000000
    114         22.464084   0.000000
    115         22.473457   0.000000
    116         22.783920   0.000000
    117         22.858691   0.000000
    118         23.071316   0.000000
    119         23.291038   0.000000
    120         23.347924   0.000000
    121         23.605507   0.000000
    122         23.772186   0.000000
    123         24.094826   0.000000
    124         24.279726   0.000000
    125         24.882585   0.000000
    126         24.904669   0.000000
    127         25.668579   0.000000
    128         25.790100   0.000000
    129         26.129652   0.000000
    130         26.428120   0.000000
    131         26.461427   0.000000
    132         26.538175   0.000000
    133         26.817373   0.000000
    134         26.879099   0.000000
    135         27.329818   0.000000
    136         27.344661   0.000000
    137         27.511762   0.000000
    138         27.529281   0.000000
    139         27.803101   0.000000
    140         27.835421   0.000000

  0.0000000E+00  0.0000000E+00  0.3500000E+00  0.0000000E+00
      1        -25.452887   1.000000
      2        -25.450611   1.000000
      3        -25.439076   1.000000
      4        -25.438762   1.000000
      5        -25.409485   1.000000
      6        -25.409298   1.000000
      7        -25.386949   1.000000
      8        -25.386606   1.000000
      9        -25.381537   1.000000
     10        -25.381184   1.000000
     11        -12.601199   1.000000
     12        -12.064868   1.000000
     13        -11.212687   1.000000
     14        -11.154350   1.000000
     15        -10.829261   1.000000
     16        -10.826958   1.000000
     17         -6.125062   1.000000
     18         -5.746231   1.000000
     19         -2.463511   1.000000
     20         -2.410492   1.000000
     21         -2.201816   1.000000
     22         -1.872009   1.000000
     23         -1.700275   1.000000
     24         -1.443922   1.000000
     25         -1.397217   1.000000
     26         -1.366151   1.000000
     27         -0.839758   1.000000
     28         -0.721060   1.000000
     29         -0.620490   1.000000
     30         -0.619833   1.000000
     31         -0.542186   1.000000
     32         -0.527226   1.000000
     33         -0.434649   1.000000
     34         -0.430153   1.000000
     35          0.527950   1.000000
     36          0.571367   1.000000
     37          0.585905   1.000000
     38          0.586806   1.000000
     39          0.649346   1.000000
     40          0.651294   1.000000
     41          0.693491   1.000000
     42          0.755417   1.000000
     43          0.852803   1.000000
     44          0.866920   1.000000
     45          0.981265   1.000000
     46          1.083457   1.000000
     47          1.331959   1.000000
     48          1.800395   1.000000
     49          1.943797   1.000000
     50          2.077105   1.000000
     51          2.618839   1.000000
     52          2.636783   1.000000
     53          3.041411   1.000000
     54          3.067957   1.000000
     55          4.978479   0.000000
     56          5.072614   0.000000
     57          6.529181   0.000000
     58          6.587725   0.000000
     59          7.730024   0.000000
     60          7.931808   0.000000
     61          8.504075   0.000000
     62          8.636639   0.000000
     63          9.267232   0.000000
     64          9.377014   0.000000
     65          9.516182   0.000000
     66          9.584803   0.000000
     67         10.005754   0.000000
     68         10.237737   0.000000
     69         10.337807   0.000000
     70         10.923117   0.000000
     71         11.390515   0.000000
     72         11.513576   0.000000
     73         11.890068   0.000000
     74         12.224247   0.000000
     75         12.310670   0.000000
     76         12.547829   0.000000
     77         12.962896   0.000000
     78         13.004727   0.000000
     79         13.318484   0.000000
     80         13.582609   0.000000
     81         13.826787   0.000000
     82         13.979408   0.000000
     83         14.229436   0.000000
     84         14.369699   0.000000
     85         14.563030   0.000000
     86         14.734522   0.000000
     87         14.909224   0.000000
     88         15.067113   0.000000
     89         15.333887   0.000000
     90         15.455957   0.000000
     91         16.651137   0.000000
     92         16.895642   0.000000
     93         17.206478   0.000000
     94         17.771564   0.000000
     95         18.383825   0.000000
     96         18.395780   0.000000
     97         19.005421   0.000000
     98         19.259819   0.000000
     99         19.467791   0.000000
    100         19.600254   0.000000
    101         19.828275   0.000000
    102         20.091505   0.000000
    103         20.426051   0.000000
    104         20.623949   0.000000
    105         21.102859   0.000000
    106         21.165449   0.000000
    107         21.580479   0.000000
    108         21.715987   0.000000
    109         21.904249   0.000000
    110         21.973820   0.000000
    111         22.147995   0.000000
    112         22.237190   0.000000
    113         22.345330   0.000000
    114         22.429022   0.000000
    115         22.474265   0.000000
    116         22.850021   0.000000
    117         22.862108   0.000000
    118         23.070921   0.000000
    119         23.280169   0.000000
    120         23.306085   0.000000
    121         23.563769   0.000000
    122         23.709374   0.000000
    123         24.105781   0.000000
    124         24.284294   0.000000
    125         24.901910   0.000000
    126         24.916013   0.000000
    127         25.650825   0.000000
    128         25.770697   0.000000
    129         25.995871   0.000000
    130         26.298934   0.000000
    131         26.313187   0.000000
    132         26.364506   0.000000
    133         26.725154   0.000000
    134         26.855376   0.000000
    135         27.285848   0.000000
    136         27.319223   0.000000
    137         27.510973   0.000000
    138         27.553959   0.000000
    139         27.758954   0.000000
    140         27.810257   0.000000

  0.0000000E+00  0.0000000E+00  0.3666667E+00  0.0000000E+00
      1        -25.452546   1.000000
      2        -25.450511   1.000000
      3        -25.438826   1.000000
      4        -25.438541   1.000000
      5        -25.409249   1.000000
      6        -25.409083   1.000000
      7        -25.386706   1.000000
      8        -25.386401   1.000000
      9        -25.381297   1.000000
     10        -25.380979   1.000000
     11        -12.576617   1.000000
     12        -12.097415   1.000000
     13        -11.207324   1.000000
     14        -11.155936   1.000000
     15        -10.828954   1.000000
     16        -10.826895   1.000000
     17         -6.100668   1.000000
     18         -5.762233   1.000000
     19         -2.452915   1.000000
     20         -2.365297   1.000000
     21         -2.212177   1.000000
     22         -1.873185   1.000000
     23         -1.711117   1.000000
     24         -1.432201   1.000000
     25         -1.429336   1.000000
     26         -1.372416   1.000000
     27         -0.838335   1.000000
     28         -0.724632   1.000000
     29         -0.622079   1.000000
     30         -0.618201   1.000000
     31         -0.540925   1.000000
     32         -0.522954   1.000000
     33         -0.438266   1.000000
     34         -0.432256   1.000000
     35          0.529700   1.000000
     36          0.569028   1.000000
     37          0.585544   1.000000
     38          0.586907   1.000000
     39          0.650058   1.000000
     40          0.651680   1.000000
     41          0.694533   1.000000
     42          0.756202   1.000000
     43          0.858689   1.000000
     44          0.865420   1.000000
     45          0.980840   1.000000
     46          1.068736   1.000000
     47          1.357295   1.000000
     48          1.788061   1.000000
     49          1.941018   1.000000
     50          2.037234   1.000000
     51          2.638218   1.000000
     52          2.659777   1.000000
     53          3.024162   1.000000
     54          3.045731   1.000000
     55          4.990968   0.000000
     56          5.072126   0.000000
     57          6.527734   0.000000
     58          6.578484   0.000000
     59          7.785824   0.000000
     60          7.954055   0.000000
     61          8.497102   0.000000
     62          8.636429   0.000000
     63          9.318807   0.000000
     64          9.364220   0.000000
     65          9.509698   0.000000
     66          9.594086   0.000000
     67         10.009670   0.000000
     68         10.233135   0.000000
     69         10.372195   0.000000
     70         10.907318   0.000000
     71         11.366937   0.000000
     72         11.459263   0.000000
     73         11.834642   0.000000
     74         12.254885   0.000000
     75         12.279598   0.000000
     76         12.560618   0.000000
     77         12.964935   0.000000
     78         13.010756   0.000000
     79         13.319777   0.000000
     80         13.607236   0.000000
     81         13.840464   0.000000
     82         13.994413   0.000000
     83         14.224549   0.000000
     84         14.339093   0.000000
     85         14.556937   0.000000
     86         14.685810   0.000000
     87         14.859465   0.000000
     88         15.043987   0.000000
     89         15.334507   0.000000
     90         15.404290   0.000000
     91         16.764793   0.000000
     92         16.773505   0.000000
     93         17.157912   0.000000
     94         17.861434   0.000000
     95         18.420889   0.000000
     96         18.448798   0.000000
     97         19.051073   0.000000
     98         19.379957   0.000000
     99         19.487351   0.000000
    100         19.649828   0.000000
    101         19.777206   0.000000
    102         20.090256   0.000000
    103         20.484137   0.000000
    104         20.599277   0.000000
    105         21.115348   0.000000
    106         21.199369   0.000000
    107         21.553969   0.000000
    108         21.732286   0.000000
    109         21.930456   0.000000
    110         22.016238   0.000000
    111         22.159297   0.000000
    112         22.244599   0.000000
    113         22.336470   0.000000
    114         22.486752   0.000000
    115         22.494557   0.000000
    116         22.846834   0.000000
    117         22.933451   0.000000
    118         23.105833   0.000000
    119         23.265693   0.000000
    120         23.283367   0.000000
    121         23.542226   0.000000
    122         23.618433   0.000000
    123         24.129857   0.000000
    124         24.325823   0.000000
    125         24.938917   0.000000
    126         24.956523   0.000000
    127         25.621995   0.000000
    128         25.747832   0.000000
    129         25.836239   0.000000
    130         26.139445   0.000000
    131         26.169499   0.000000
    132         26.197572   0.000000
    133         26.649750   0.000000
    134         26.842911   0.000000
    135         27.231820   0.000000
    136         27.296831   0.000000
    137         27.482866   0.000000
    138         27.588094   0.000000
    139         27.710698   0.000000
    140         27.792933   0.000000

  0.0000000E+00  0.0000000E+00  0.3833333E+00  0.0000000E+00
      1        -25.452222   1.000000
      2        -25.450431   1.000000
      3        -25.438591   1.000000
      4        -25.438339   1.000000
      5        -25.409034   1.000000
      6        -25.408885   1.000000
      7        -25.386482   1.000000
      8        -25.386213   1.000000
      9        -25.381074   1.000000
     10        -25.380793   1.000000
     11        -12.551176   1.000000
     12        -12.129970   1.000000
     13        -11.202275   1.000000
     14        -11.157668   1.000000
     15        -10.828661   1.000000
     16        -10.826852   1.000000
     17         -6.076364   1.000000
     18         -5.778947   1.000000
     19         -2.441056   1.000000
     20         -2.319712   1.000000
     21         -2.222734   1.000000
     22         -1.875841   1.000000
     23         -1.720874   1.000000
     24         -1.473555   1.000000
     25         -1.420866   1.000000
     26         -1.368293   1.000000
     27         -0.835323   1.000000
     28         -0.728645   1.000000
     29         -0.624028   1.000000
     30         -0.617096   1.000000
     31         -0.538775   1.000000
     32         -0.519256   1.000000
     33         -0.441751   1.000000
     34         -0.434527   1.000000
     35          0.531693   1.000000
     36          0.566652   1.000000
     37          0.585199   1.000000
     38          0.586929   1.000000
     39          0.650848   1.000000
     40          0.652065   1.000000
     41          0.695814   1.000000
     42          0.755074   1.000000
     43          0.864795   1.000000
     44          0.866112   1.000000
     45          0.979577   1.000000
     46          1.054258   1.000000
     47          1.384597   1.000000
     48          1.773790   1.000000
     49          1.936748   1.000000
     50          2.002193   1.000000
     51          2.658541   1.000000
     52          2.682754   1.000000
     53          3.006763   1.000000
     54          3.023090   1.000000
     55          5.001937   0.000000
     56          5.071184   0.000000
     57          6.527412   0.000000
     58          6.570812   0.000000
     59          7.835341   0.000000
     60          7.972069   0.000000
     61          8.493668   0.000000
     62          8.634380   0.000000
     63          9.353373   0.000000
     64          9.354432   0.000000
     65          9.521370   0.000000
     66          9.607445   0.000000
     67         10.005055   0.000000
     68         10.227757   0.000000
     69         10.419037   0.000000
     70         10.885922   0.000000
     71         11.335945   0.000000
     72         11.407902   0.000000
     73         11.788379   0.000000
     74         12.192684   0.000000
     75         12.331467   0.000000
     76         12.569410   0.000000
     77         12.970947   0.000000
     78         13.015747   0.000000
     79         13.332315   0.000000
     80         13.627454   0.000000
     81         13.854475   0.000000
     82         14.005526   0.000000
     83         14.218310   0.000000
     84         14.314178   0.000000
     85         14.549239   0.000000
     86         14.640753   0.000000
     87         14.817464   0.000000
     88         15.031767   0.000000
     89         15.356578   0.000000
     90         15.357000   0.000000
     91         16.632111   0.000000
     92         16.850616   0.000000
     93         17.109208   0.000000
     94         17.952145   0.000000
     95         18.461742   0.000000
     96         18.538997   0.000000
     97         19.073343   0.000000
     98         19.461134   0.000000
     99         19.503831   0.000000
    100         19.732110   0.000000
    101         19.752806   0.000000
    102         20.067701   0.000000
    103         20.526651   0.000000
    104         20.587778   0.000000
    105         21.129651   0.000000
    106         21.232708   0.000000
    107         21.502723   0.000000
    108         21.719421   0.000000
    109         21.942437   0.000000
    110         22.031252   0.000000
    111         22.160838   0.000000
    112         22.167487   0.000000
    113         22.371212   0.000000
    114         22.539018   0.000000
    115         22.590989   0.000000
    116         22.813770   0.000000
    117         23.016291   0.000000
    118         23.173676   0.000000
    119         23.246991   0.000000
    120         23.296771   0.000000
    121         23.524761   0.000000
    122         23.538338   0.000000
    123         24.171364   0.000000
    124         24.386290   0.000000
    125         24.978567   0.000000
    126         25.017439   0.000000
    127         25.569035   0.000000
    128         25.671190   0.000000
    129         25.714200   0.000000
    130         25.978879   0.000000
    131         26.029568   0.000000
    132         26.041460   0.000000
    133         26.598696   0.000000
    134         26.832688   0.000000
    135         27.174814   0.000000
    136         27.273937   0.000000
    137         27.439106   0.000000
    138         27.576664   0.000000
    139         27.683064   0.000000
    140         27.780813   0.000000

  0.0000000E+00  0.0000000E+00  0.4000000E+00  0.0000000E+00
      1        -25.451920   1.000000
      2        -25.450379   1.000000
      3        -25.438386   1.000000
      4        -25.438165   1.000000
      5        -25.408842   1.000000
      6        -25.408715   1.000000
      7        -25.386283   1.000000
      8        -25.386051   1.000000
      9        -25.380875   1.000000
     10        -25.380632   1.000000
     11        -12.524913   1.000000
     12        -12.162462   1.000000
     13        -11.197524   1.000000
     14        -11.159556   1.000000
     15        -10.828385   1.000000
     16        -10.826829   1.000000
     17         -6.052230   1.000000
     18         -5.796364   1.000000
     19         -2.428067   1.000000
     20         -2.277610   1.000000
     21         -2.229854   1.000000
     22         -1.880168   1.000000
     23         -1.729236   1.000000
     24         -1.519255   1.000000
     25         -1.410123   1.000000
     26         -1.363943   1.000000
     27         -0.830794   1.000000
     28         -0.733372   1.000000
     29         -0.625921   1.000000
     30         -0.616571   1.000000
     31         -0.535918   1.000000
     32         -0.516197   1.000000
     33         -0.444965   1.000000
     34         -0.436946   1.000000
     35          0.533882   1.000000
     36          0.564253   1.000000
     37          0.584894   1.000000
     38          0.586843   1.000000
     39          0.651660   1.000000
     40          0.652447   1.000000
     41          0.697445   1.000000
     42          0.752165   1.000000
     43          0.868728   1.000000
     44          0.870988   1.000000
     45          0.977735   1.000000
     46          1.040222   1.000000
     47          1.413531   1.000000
     48          1.757141   1.000000
     49          1.931341   1.000000
     50          1.972361   1.000000
     51          2.679635   1.000000
     52          2.705476   1.000000
     53          2.989206   1.000000
     54          3.000207   1.000000
     55          5.011651   0.000000
     56          5.069805   0.000000
     57          6.528045   0.000000
     58          6.564550   0.000000
     59          7.877227   0.000000
     60          7.985484   0.000000
     61          8.495005   0.000000
     62          8.630928   0.000000
     63          9.344763   0.000000
     64          9.367734   0.000000
     65          9.557575   0.000000
     66          9.624280   0.000000
     67          9.994686   0.000000
     68         10.219827   0.000000
     69         10.473848   0.000000
     70         10.860541   0.000000
     71         11.298104   0.000000
     72         11.360320   0.000000
     73         11.754314   0.000000
     74         12.127213   0.000000
     75         12.377760   0.000000
     76         12.573492   0.000000
     77         12.979717   0.000000
     78         13.019601   0.000000
     79         13.355326   0.000000
     80         13.642784   0.000000
     81         13.866194   0.000000
     82         14.010658   0.000000
     83         14.212273   0.000000
     84         14.297248   0.000000
     85         14.534404   0.000000
     86         14.600424   0.000000
     87         14.790072   0.000000
     88         15.027859   0.000000
     89         15.318298   0.000000
     90         15.397421   0.000000
     91         16.484376   0.000000
     92         16.834449   0.000000
     93         17.144290   0.000000
     94         18.022785   0.000000
     95         18.524339   0.000000
     96         18.640725   0.000000
     97         19.077993   0.000000
     98         19.463114   0.000000
     99         19.528416   0.000000
    100         19.788745   0.000000
    101         19.832077   0.000000
    102         20.041134   0.000000
    103         20.542106   0.000000
    104         20.580727   0.000000
    105         21.159373   0.000000
    106         21.270054   0.000000
    107         21.431080   0.000000
    108         21.672216   0.000000
    109         21.944602   0.000000
    110         22.023232   0.000000
    111         22.082471   0.000000
    112         22.164371   0.000000
    113         22.406474   0.000000
    114         22.603260   0.000000
    115         22.675093   0.000000
    116         22.776741   0.000000
    117         23.082201   0.000000
    118         23.217053   0.000000
    119         23.274394   0.000000
    120         23.332631   0.000000
    121         23.475893   0.000000
    122         23.558562   0.000000
    123         24.232146   0.000000
    124         24.452994   0.000000
    125         24.995894   0.000000
    126         25.083914   0.000000
    127         25.473465   0.000000
    128         25.529986   0.000000
    129         25.636729   0.000000
    130         25.822883   0.000000
    131         25.906003   0.000000
    132         25.949892   0.000000
    133         26.567939   0.000000
    134         26.813961   0.000000
    135         27.122119   0.000000
    136         27.243346   0.000000
    137         27.382486   0.000000
    138         27.502746   0.000000
    139         27.694266   0.000000
    140         27.757624   0.000000

  0.0000000E+00  0.0000000E+00  0.4166667E+00  0.0000000E+00
      1        -25.451641   1.000000
      2        -25.450353   1.000000
      3        -25.438206   1.000000
      4        -25.438020   1.000000
      5        -25.408675   1.000000
      6        -25.408568   1.000000
      7        -25.386110   1.000000
      8        -25.385915   1.000000
      9        -25.380701   1.000000
     10        -25.380496   1.000000
     11        -12.497867   1.000000
     12        -12.194823   1.000000
     13        -11.193059   1.000000
     14        -11.161605   1.000000
     15        -10.828128   1.000000
     16        -10.826827   1.000000
     17         -6.028340   1.000000
     18         -5.814467   1.000000
     19         -2.414087   1.000000
     20         -2.262772   1.000000
     21         -2.210033   1.000000
     22         -1.886634   1.000000
     23         -1.735891   1.000000
     24         -1.564422   1.000000
     25         -1.400118   1.000000
     26         -1.360587   1.000000
     27         -0.824864   1.000000
     28         -0.739032   1.000000
     29         -0.627368   1.000000
     30         -0.616642   1.000000
     31         -0.532566   1.000000
     32         -0.513858   1.000000
     33         -0.447739   1.000000
     34         -0.439463   1.000000
     35          0.536238   1.000000
     36          0.561827   1.000000
     37          0.584658   1.000000
     38          0.586653   1.000000
     39          0.652435   1.000000
     40          0.652829   1.000000
     41          0.699535   1.000000
     42          0.747840   1.000000
     43          0.872772   1.000000
     44          0.877083   1.000000
     45          0.975644   1.000000
     46          1.026838   1.000000
     47          1.443758   1.000000
     48          1.737737   1.000000
     49          1.925227   1.000000
     50          1.948056   1.000000
     51          2.701269   1.000000
     52          2.727635   1.000000
     53          2.971540   1.000000
     54          2.977350   1.000000
     55          5.020316   0.000000
     56          5.067995   0.000000
     57          6.529463   0.000000
     58          6.559463   0.000000
     59          7.910880   0.000000
     60          7.994291   0.000000
     61          8.501654   0.000000
     62          8.626294   0.000000
     63          9.338379   0.000000
     64          9.366298   0.000000
     65          9.609742   0.000000
     66          9.644092   0.000000
     67          9.981476   0.000000
     68         10.207315   0.000000
     69         10.532296   0.000000
     70         10.833707   0.000000
     71         11.256088   0.000000
     72         11.316532   0.000000
     73         11.733186   0.000000
     74         12.060916   0.000000
     75         12.417645   0.000000
     76         12.573480   0.000000
     77         12.989784   0.000000
     78         13.022516   0.000000
     79         13.387017   0.000000
     80         13.652846   0.000000
     81         13.873914   0.000000
     82         14.008137   0.000000
     83         14.208691   0.000000
     84         14.288986   0.000000
     85         14.510324   0.000000
     86         14.564913   0.000000
     87         14.780900   0.000000
     88         15.026350   0.000000
     89         15.295240   0.000000
     90         15.453941   0.000000
     91         16.337904   0.000000
     92         16.732709   0.000000
     93         17.253694   0.000000
     94         18.063373   0.000000
     95         18.607119   0.000000
     96         18.741884   0.000000
     97         19.072705   0.000000
     98         19.415266   0.000000
     99         19.567758   0.000000
    100         19.817991   0.000000
    101         19.934541   0.000000
    102         20.063888   0.000000
    103         20.529952   0.000000
    104         20.566672   0.000000
    105         21.211973   0.000000
    106         21.309512   0.000000
    107         21.348748   0.000000
    108         21.586359   0.000000
    109         21.938332   0.000000
    110         22.002873   0.000000
    111         22.032181   0.000000
    112         22.151023   0.000000
    113         22.437839   0.000000
    114         22.639841   0.000000
    115         22.712791   0.000000
    116         22.775864   0.000000
    117         23.120910   0.000000
    118         23.161681   0.000000
    119         23.361973   0.000000
    120         23.404830   0.000000
    121         23.531571   0.000000
    122         23.612043   0.000000
    123         24.309270   0.000000
    124         24.516833   0.000000
    125         24.959196   0.000000
    126         25.127592   0.000000
    127         25.344615   0.000000
    128         25.430397   0.000000
    129         25.506099   0.000000
    130         25.652144   0.000000
    131         25.867165   0.000000
    132         25.925877   0.000000
    133         26.551184   0.000000
    134         26.774842   0.000000
    135         27.085264   0.000000
    136         27.192038   0.000000
    137         27.314085   0.000000
    138         27.417072   0.000000
    139         27.710023   0.000000
    140         27.720519   0.000000

  0.0000000E+00  0.0000000E+00  0.4333333E+00  0.0000000E+00
      1        -25.451386   1.000000
      2        -25.450350   1.000000
      3        -25.438050   1.000000
      4        -25.437903   1.000000
      5        -25.408534   1.000000
      6        -25.408448   1.000000
      7        -25.385959   1.000000
      8        -25.385803   1.000000
      9        -25.380547   1.000000
     10        -25.380384   1.000000
     11        -12.470081   1.000000
     12        -12.226988   1.000000
     13        -11.188866   1.000000
     14        -11.163825   1.000000
     15        -10.827891   1.000000
     16        -10.826847   1.000000
     17         -6.004760   1.000000
     18         -5.833242   1.000000
     19         -2.399266   1.000000
     20         -2.272737   1.000000
     21         -2.166107   1.000000
     22         -1.896083   1.000000
     23         -1.740473   1.000000
     24         -1.607529   1.000000
     25         -1.390963   1.000000
     26         -1.358546   1.000000
     27         -0.817692   1.000000
     28         -0.745747   1.000000
     29         -0.628104   1.000000
     30         -0.617295   1.000000
     31         -0.528933   1.000000
     32         -0.512334   1.000000
     33         -0.449909   1.000000
     34         -0.442022   1.000000
     35          0.538721   1.000000
     36          0.559385   1.000000
     37          0.584514   1.000000
     38          0.586377   1.000000
     39          0.653117   1.000000
     40          0.653206   1.000000
     41          0.702183   1.000000
     42          0.742551   1.000000
     43          0.877646   1.000000
     44          0.882804   1.000000
     45          0.973696   1.000000
     46          1.014316   1.000000
     47          1.474946   1.000000
     48          1.715397   1.000000
     49          1.918887   1.000000
     50          1.929362   1.000000
     51          2.723108   1.000000
     52          2.748761   1.000000
     53          2.953920   1.000000
     54          2.954966   1.000000
     55          5.028079   0.000000
     56          5.065743   0.000000
     57          6.531490   0.000000
     58          6.555274   0.000000
     59          7.936632   0.000000
     60          7.998840   0.000000
     61          8.513205   0.000000
     62          8.620437   0.000000
     63          9.334068   0.000000
     64          9.359468   0.000000
     65          9.666054   0.000000
     66          9.666330   0.000000
     67          9.968768   0.000000
     68         10.188167   0.000000
     69         10.590317   0.000000
     70         10.808444   0.000000
     71         11.214395   0.000000
     72         11.276017   0.000000
     73         11.724236   0.000000
     74         11.996067   0.000000
     75         12.451109   0.000000
     76         12.570246   0.000000
     77         12.999823   0.000000
     78         13.024731   0.000000
     79         13.424966   0.000000
     80         13.656750   0.000000
     81         13.878176   0.000000
     82         13.997555   0.000000
     83         14.209632   0.000000
     84         14.287727   0.000000
     85         14.480836   0.000000
     86         14.533629   0.000000
     87         14.787927   0.000000
     88         15.018384   0.000000
     89         15.297084   0.000000
     90         15.521530   0.000000
     91         16.199345   0.000000
     92         16.604942   0.000000
     93         17.382026   0.000000
     94         18.073797   0.000000
     95         18.697962   0.000000
     96         18.830102   0.000000
     97         19.068463   0.000000
     98         19.361210   0.000000
     99         19.621795   0.000000
    100         19.788509   0.000000
    101         20.022520   0.000000
    102         20.156656   0.000000
    103         20.508792   0.000000
    104         20.542756   0.000000
    105         21.236516   0.000000
    106         21.283281   0.000000
    107         21.374940   0.000000
    108         21.468062   0.000000
    109         21.926982   0.000000
    110         21.977535   0.000000
    111         22.008632   0.000000
    112         22.130499   0.000000
    113         22.463161   0.000000
    114         22.615606   0.000000
    115         22.711160   0.000000
    116         22.827902   0.000000
    117         23.078109   0.000000
    118         23.137789   0.000000
    119         23.475447   0.000000
    120         23.492841   0.000000
    121         23.665642   0.000000
    122         23.699535   0.000000
    123         24.394275   0.000000
    124         24.569145   0.000000
    125         24.864182   0.000000
    126         25.070159   0.000000
    127         25.261577   0.000000
    128         25.310694   0.000000
    129         25.412462   0.000000
    130         25.493347   0.000000
    131         25.889097   0.000000
    132         25.954948   0.000000
    133         26.542853   0.000000
    134         26.711260   0.000000
    135         27.067347   0.000000
    136         27.106760   0.000000
    137         27.237812   0.000000
    138         27.350884   0.000000
    139         27.685224   0.000000
    140         27.716645   0.000000

  0.0000000E+00  0.0000000E+00  0.4500000E+00  0.0000000E+00
      1        -25.451157   1.000000
      2        -25.450379   1.000000
      3        -25.437920   1.000000
      4        -25.437811   1.000000
      5        -25.408415   1.000000
      6        -25.408352   1.000000
      7        -25.385835   1.000000
      8        -25.385721   1.000000
      9        -25.380424   1.000000
     10        -25.380301   1.000000
     11        -12.441599   1.000000
     12        -12.258894   1.000000
     13        -11.184935   1.000000
     14        -11.166225   1.000000
     15        -10.827676   1.000000
     16        -10.826891   1.000000
     17         -5.981551   1.000000
     18         -5.852670   1.000000
     19         -2.383766   1.000000
     20         -2.286929   1.000000
     21         -2.119174   1.000000
     22         -1.909796   1.000000
     23         -1.742491   1.000000
     24         -1.646800   1.000000
     25         -1.382750   1.000000
     26         -1.357932   1.000000
     27         -0.809488   1.000000
     28         -0.753508   1.000000
     29         -0.628019   1.000000
     30         -0.618471   1.000000
     31         -0.525221   1.000000
     32         -0.511727   1.000000
     33         -0.451320   1.000000
     34         -0.444533   1.000000
     35          0.541295   1.000000
     36          0.556904   1.000000
     37          0.584475   1.000000
     38          0.586039   1.000000
     39          0.653561   1.000000
     40          0.653658   1.000000
     41          0.705461   1.000000
     42          0.736717   1.000000
     43          0.882726   1.000000
     44          0.887754   1.000000
     45          0.972395   1.000000
     46          1.002885   1.000000
     47          1.506761   1.000000
     48          1.690254   1.000000
     49          1.912840   1.000000
     50          1.916031   1.000000
     51          2.744622   1.000000
     52          2.768041   1.000000
     53          2.933869   1.000000
     54          2.936709   1.000000
     55          5.035045   0.000000
     56          5.063026   0.000000
     57          6.533957   0.000000
     58          6.551703   0.000000
     59          7.955646   0.000000
     60          7.999760   0.000000
     61          8.528372   0.000000
     62          8.613081   0.000000
     63          9.331649   0.000000
     64          9.351652   0.000000
     65          9.690231   0.000000
     66          9.716974   0.000000
     67          9.961729   0.000000
     68         10.160835   0.000000
     69         10.643809   0.000000
     70         10.787301   0.000000
     71         11.178504   0.000000
     72         11.238274   0.000000
     73         11.726270   0.000000
     74         11.934848   0.000000
     75         12.478678   0.000000
     76         12.564483   0.000000
     77         13.008842   0.000000
     78         13.026315   0.000000
     79         13.466504   0.000000
     80         13.652964   0.000000
     81         13.881798   0.000000
     82         13.980317   0.000000
     83         14.216012   0.000000
     84         14.289155   0.000000
     85         14.453312   0.000000
     86         14.505765   0.000000
     87         14.806528   0.000000
     88         14.998454   0.000000
     89         15.328828   0.000000
     90         15.590547   0.000000
     91         16.079223   0.000000
     92         16.469809   0.000000
     93         17.512842   0.000000
     94         18.057122   0.000000
     95         18.779755   0.000000
     96         18.888803   0.000000
     97         19.082466   0.000000
     98         19.319854   0.000000
     99         19.683882   0.000000
    100         19.742334   0.000000
    101         20.074221   0.000000
    102         20.253628   0.000000
    103         20.513400   0.000000
    104         20.528985   0.000000
    105         21.127213   0.000000
    106         21.321475   0.000000
    107         21.370930   0.000000
    108         21.433436   0.000000
    109         21.915029   0.000000
    110         21.950785   0.000000
    111         21.999885   0.000000
    112         22.104725   0.000000
    113         22.480851   0.000000
    114         22.576734   0.000000
    115         22.694028   0.000000
    116         22.854367   0.000000
    117         23.028012   0.000000
    118         23.140371   0.000000
    119         23.560273   0.000000
    120         23.639994   0.000000
    121         23.813769   0.000000
    122         23.825281   0.000000
    123         24.465407   0.000000
    124         24.600187   0.000000
    125         24.756937   0.000000
    126         24.909259   0.000000
    127         25.134628   0.000000
    128         25.214328   0.000000
    129         25.380992   0.000000
    130         25.388208   0.000000
    131         25.957177   0.000000
    132         26.017924   0.000000
    133         26.535858   0.000000
    134         26.630820   0.000000
    135         26.999050   0.000000
    136         27.047057   0.000000
    137         27.175259   0.000000
    138         27.306670   0.000000
    139         27.665735   0.000000
    140         27.715485   0.000000

  0.0000000E+00  0.0000000E+00  0.4666667E+00  0.0000000E+00
      1        -25.450953   1.000000
      2        -25.450433   1.000000
      3        -25.437824   1.000000
      4        -25.437751   1.000000
      5        -25.408330   1.000000
      6        -25.408288   1.000000
      7        -25.385741   1.000000
      8        -25.385665   1.000000
      9        -25.380327   1.000000
     10        -25.380246   1.000000
     11        -12.412468   1.000000
     12        -12.290483   1.000000
     13        -11.181254   1.000000
     14        -11.168814   1.000000
     15        -10.827484   1.000000
     16        -10.826960   1.000000
     17         -5.958767   1.000000
     18         -5.872732   1.000000
     19         -2.367757   1.000000
     20         -2.302411   1.000000
     21         -2.072932   1.000000
     22         -1.929320   1.000000
     23         -1.741239   1.000000
     24         -1.680264   1.000000
     25         -1.375565   1.000000
     26         -1.358764   1.000000
     27         -0.800487   1.000000
     28         -0.762167   1.000000
     29         -0.627173   1.000000
     30         -0.620072   1.000000
     31         -0.521620   1.000000
     32         -0.512083   1.000000
     33         -0.451889   1.000000
     34         -0.446890   1.000000
     35          0.543919   1.000000
     36          0.554381   1.000000
     37          0.584545   1.000000
     38          0.585670   1.000000
     39          0.653870   1.000000
     40          0.654025   1.000000
     41          0.709396   1.000000
     42          0.730691   1.000000
     43          0.887402   1.000000
     44          0.891432   1.000000
     45          0.972332   1.000000
     46          0.992817   1.000000
     47          1.538868   1.000000
     48          1.662707   1.000000
     49          1.907525   1.000000
     50          1.907645   1.000000
     51          2.764874   1.000000
     52          2.783892   1.000000
     53          2.915656   1.000000
     54          2.920691   1.000000
     55          5.041281   0.000000
     56          5.059814   0.000000
     57          6.536700   0.000000
     58          6.548503   0.000000
     59          7.969521   0.000000
     60          7.997796   0.000000
     61          8.545400   0.000000
     62          8.603825   0.000000
     63          9.330975   0.000000
     64          9.344547   0.000000
     65          9.714647   0.000000
     66          9.752111   0.000000
     67          9.968535   0.000000
     68         10.125005   0.000000
     69         10.688679   0.000000
     70         10.771127   0.000000
     71         11.153971   0.000000
     72         11.203583   0.000000
     73         11.738359   0.000000
     74         11.879250   0.000000
     75         12.501166   0.000000
     76         12.556580   0.000000
     77         13.016214   0.000000
     78         13.027121   0.000000
     79         13.508993   0.000000
     80         13.640021   0.000000
     81         13.888267   0.000000
     82         13.959122   0.000000
     83         14.227549   0.000000
     84         14.287071   0.000000
     85         14.435524   0.000000
     86         14.480802   0.000000
     87         14.832794   0.000000
     88         14.968748   0.000000
     89         15.386721   0.000000
     90         15.635878   0.000000
     91         16.002969   0.000000
     92         16.334888   0.000000
     93         17.639693   0.000000
     94         18.015303   0.000000
     95         18.838784   0.000000
     96         18.908452   0.000000
     97         19.125584   0.000000
     98         19.294372   0.000000
     99         19.710214   0.000000
    100         19.737508   0.000000
    101         20.087219   0.000000
    102         20.276957   0.000000
    103         20.568160   0.000000
    104         20.584087   0.000000
    105         21.012071   0.000000
    106         21.174969   0.000000
    107         21.444366   0.000000
    108         21.488876   0.000000
    109         21.903188   0.000000
    110         21.924561   0.000000
    111         21.999830   0.000000
    112         22.076018   0.000000
    113         22.490292   0.000000
    114         22.541978   0.000000
    115         22.682530   0.000000
    116         22.815805   0.000000
    117         23.041339   0.000000
    118         23.133769   0.000000
    119         23.661059   0.000000
    120         23.772464   0.000000
    121         23.950137   0.000000
    122         23.989098   0.000000
    123         24.462407   0.000000
    124         24.597326   0.000000
    125         24.720181   0.000000
    126         24.734352   0.000000
    127         24.962920   0.000000
    128         25.118507   0.000000
    129         25.340534   0.000000
    130         25.371277   0.000000
    131         26.056529   0.000000
    132         26.100554   0.000000
    133         26.516180   0.000000
    134         26.543383   0.000000
    135         26.902621   0.000000
    136         26.990473   0.000000
    137         27.161774   0.000000
    138         27.272229   0.000000
    139         27.661882   0.000000
    140         27.708903   0.000000

  0.0000000E+00  0.0000000E+00  0.4833333E+00  0.0000000E+00
      1        -25.450781   1.000000
      2        -25.450520   1.000000
      3        -25.437758   1.000000
      4        -25.437722   1.000000
      5        -25.408273   1.000000
      6        -25.408252   1.000000
      7        -25.385676   1.000000
      8        -25.385638   1.000000
      9        -25.380261   1.000000
     10        -25.380219   1.000000
     11        -12.382739   1.000000
     12        -12.321691   1.000000
     13        -11.177812   1.000000
     14        -11.171602   1.000000
     15        -10.827316   1.000000
     16        -10.827054   1.000000
     17         -5.936454   1.000000
     18         -5.893402   1.000000
     19         -2.351417   1.000000
     20         -2.318521   1.000000
     21         -2.029128   1.000000
     22         -1.955862   1.000000
     23         -1.735701   1.000000
     24         -1.706326   1.000000
     25         -1.369492   1.000000
     26         -1.361011   1.000000
     27         -0.790959   1.000000
     28         -0.771491   1.000000
     29         -0.625728   1.000000
     30         -0.621947   1.000000
     31         -0.518322   1.000000
     32         -0.513380   1.000000
     33         -0.451617   1.000000
     34         -0.448961   1.000000
     35          0.546569   1.000000
     36          0.551813   1.000000
     37          0.584717   1.000000
     38          0.585306   1.000000
     39          0.654104   1.000000
     40          0.654211   1.000000
     41          0.713972   1.000000
     42          0.724757   1.000000
     43          0.891079   1.000000
     44          0.893340   1.000000
     45          0.974114   1.000000
     46          0.984453   1.000000
     47          1.570911   1.000000
     48          1.633287   1.000000
     49          1.903145   1.000000
     50          1.903880   1.000000
     51          2.782042   1.000000
     52          2.793342   1.000000
     53          2.903332   1.000000
     54          2.907563   1.000000
     55          5.046840   0.000000
     56          5.056070   0.000000
     57          6.539587   0.000000
     58          6.545484   0.000000
     59          7.979803   0.000000
     60          7.993624   0.000000
     61          8.562551   0.000000
     62          8.592323   0.000000
     63          9.331960   0.000000
     64          9.338782   0.000000
     65          9.737713   0.000000
     66          9.763908   0.000000
     67          9.995205   0.000000
     68         10.082242   0.000000
     69         10.721912   0.000000
     70         10.758110   0.000000
     71         11.145051   0.000000
     72         11.173785   0.000000
     73         11.759999   0.000000
     74         11.830905   0.000000
     75         12.519465   0.000000
     76         12.546618   0.000000
     77         13.021649   0.000000
     78         13.026847   0.000000
     79         13.549923   0.000000
     80         13.617610   0.000000
     81         13.899768   0.000000
     82         13.936942   0.000000
     83         14.243156   0.000000
     84         14.277073   0.000000
     85         14.432216   0.000000
     86         14.458941   0.000000
     87         14.864090   0.000000
     88         14.934189   0.000000
     89         15.462714   0.000000
     90         15.617488   0.000000
     91         16.010718   0.000000
     92         16.206057   0.000000
     93         17.757828   0.000000
     94         17.949703   0.000000
     95         18.873368   0.000000
     96         18.904850   0.000000
     97         19.182259   0.000000
     98         19.271231   0.000000
     99         19.708679   0.000000
    100         19.755907   0.000000
    101         20.104494   0.000000
    102         20.226223   0.000000
    103         20.660973   0.000000
    104         20.707826   0.000000
    105         20.895735   0.000000
    106         21.019713   0.000000
    107         21.505629   0.000000
    108         21.528146   0.000000
    109         21.892835   0.000000
    110         21.902290   0.000000
    111         22.007881   0.000000
    112         22.047888   0.000000
    113         22.494525   0.000000
    114         22.516233   0.000000
    115         22.688845   0.000000
    116         22.760163   0.000000
    117         23.073056   0.000000
    118         23.120315   0.000000
    119         23.765015   0.000000
    120         23.850235   0.000000
    121         24.104039   0.000000
    122         24.137013   0.000000
    123         24.391366   0.000000
    124         24.504844   0.000000
    125         24.637247   0.000000
    126         24.725771   0.000000
    127         24.861693   0.000000
    128         25.012569   0.000000
    129         25.332856   0.000000
    130         25.353992   0.000000
    131         26.165474   0.000000
    132         26.186232   0.000000
    133         26.459576   0.000000
    134         26.465978   0.000000
    135         26.854785   0.000000
    136         26.919832   0.000000
    137         27.180566   0.000000
    138         27.240337   0.000000
    139         27.665667   0.000000
    140         27.692636   0.000000

  0.0000000E+00  0.0000000E+00  0.5000000E+00  0.0000000E+00
      1        -25.450634   1.000000
      2        -25.450634   1.000000
      3        -25.437722   1.000000
      4        -25.437722   1.000000
      5        -25.408246   1.000000
      6        -25.408246   1.000000
      7        -25.385640   1.000000
      8        -25.385640   1.000000
      9        -25.380224   1.000000
     10        -25.380224   1.000000
     11        -12.352461   1.000000
     12        -12.352461   1.000000
     13        -11.174597   1.000000
     14        -11.174597   1.000000
     15        -10.827172   1.000000
     16        -10.827171   1.000000
     17         -5.914653   1.000000
     18         -5.914653   1.000000
     19         -2.334935   1.000000
     20         -2.334935   1.000000
     21         -1.989516   1.000000
     22         -1.989516   1.000000
     23         -1.724534   1.000000
     24         -1.724534   1.000000
     25         -1.364612   1.000000
     26         -1.364612   1.000000
     27         -0.781191   1.000000
     28         -0.781191   1.000000
     29         -0.623906   1.000000
     30         -0.623906   1.000000
     31         -0.515513   1.000000
     32         -0.515513   1.000000
     33         -0.450591   1.000000
     34         -0.450591   1.000000
     35          0.549206   1.000000
     36          0.549206   1.000000
     37          0.584981   1.000000
     38          0.584981   1.000000
     39          0.654232   1.000000
     40          0.654232   1.000000
     41          0.719130   1.000000
     42          0.719131   1.000000
     43          0.893197   1.000000
     44          0.893197   1.000000
     45          0.978139   1.000000
     46          0.978140   1.000000
     47          1.602528   1.000000
     48          1.602528   1.000000
     49          1.902163   1.000000
     50          1.902163   1.000000
     51          2.792777   1.000000
     52          2.792777   1.000000
     53          2.900560   1.000000
     54          2.900560   1.000000
     55          5.051758   0.000000
     56          5.051758   0.000000
     57          6.542526   0.000000
     58          6.542526   0.000000
     59          7.987640   0.000000
     60          7.987640   0.000000
     61          8.578466   0.000000
     62          8.578466   0.000000
     63          9.334568   0.000000
     64          9.334568   0.000000
     65          9.756151   0.000000
     66          9.756151   0.000000
     67         10.036537   0.000000
     68         10.036537   0.000000
     69         10.743670   0.000000
     70         10.743670   0.000000
     71         11.152677   0.000000
     72         11.152677   0.000000
     73         11.790945   0.000000
     74         11.790945   0.000000
     75         12.534395   0.000000
     76         12.534395   0.000000
     77         13.025130   0.000000
     78         13.025131   0.000000
     79         13.586899   0.000000
     80         13.586899   0.000000
     81         13.916442   0.000000
     82         13.916442   0.000000
     83         14.260847   0.000000
     84         14.260847   0.000000
     85         14.441626   0.000000
     86         14.441626   0.000000
     87         14.898500   0.000000
     88         14.898500   0.000000
     89         15.546360   0.000000
     90         15.546360   0.000000
     91         16.091659   0.000000
     92         16.091659   0.000000
     93         17.862652   0.000000
     94         17.862652   0.000000
     95         18.892710   0.000000
     96         18.892710   0.000000
     97         19.234208   0.000000
     98         19.234208   0.000000
     99         19.734399   0.000000
    100         19.734400   0.000000
    101         20.156870   0.000000
    102         20.156870   0.000000
    103         20.767225   0.000000
    104         20.767225   0.000000
    105         20.868507   0.000000
    106         20.868507   0.000000
    107         21.536235   0.000000
    108         21.536235   0.000000
    109         21.890574   0.000000
    110         21.890575   0.000000
    111         22.024250   0.000000
    112         22.024250   0.000000
    113         22.501041   0.000000
    114         22.501041   0.000000
    115         22.715519   0.000000
    116         22.715519   0.000000
    117         23.100243   0.000000
    118         23.100243   0.000000
    119         23.842668   0.000000
    120         23.842668   0.000000
    121         24.213204   0.000000
    122         24.213204   0.000000
    123         24.371282   0.000000
    124         24.371282   0.000000
    125         24.653801   0.000000
    126         24.653801   0.000000
    127         24.917599   0.000000
    128         24.917599   0.000000
    129         25.339339   0.000000
    130         25.339339   0.000000
    131         26.231618   0.000000
    132         26.231618   0.000000
    133         26.417237   0.000000
    134         26.417237   0.000000
    135         26.866949   0.000000
    136         26.866949   0.000000
    137         27.209166   0.000000
    138         27.209166   0.000000
    139         27.677349   0.000000
    140         27.683660   0.000000

  0.1562500E-01  0.1562500E-01  0.5000000E+00  0.0000000E+00
      1        -25.450644   1.000000
      2        -25.450644   1.000000
      3        -25.437733   1.000000
      4        -25.437733   1.000000
      5        -25.408256   1.000000
      6        -25.408255   1.000000
      7        -25.385650   1.000000
      8        -25.385650   1.000000
      9        -25.380234   1.000000
     10        -25.380234   1.000000
     11        -12.352103   1.000000
     12        -12.352103   1.000000
     13        -11.174959   1.000000
     14        -11.174959   1.000000
     15        -10.827474   1.000000
     16        -10.827473   1.000000
     17         -5.914323   1.000000
     18         -5.914323   1.000000
     19         -2.335662   1.000000
     20         -2.335662   1.000000
     21         -1.989487   1.000000
     22         -1.989487   1.000000
     23         -1.723876   1.000000
     24         -1.723876   1.000000
     25         -1.362627   1.000000
     26         -1.362627   1.000000
     27         -0.782069   1.000000
     28         -0.782068   1.000000
     29         -0.624017   1.000000
     30         -0.624017   1.000000
     31         -0.515488   1.000000
     32         -0.515488   1.000000
     33         -0.450456   1.000000
     34         -0.450456   1.000000
     35          0.549109   1.000000
     36          0.549109   1.000000
     37          0.584777   1.000000
     38          0.584777   1.000000
     39          0.654340   1.000000
     40          0.654340   1.000000
     41          0.719018   1.000000
     42          0.719018   1.000000
     43          0.893712   1.000000
     44          0.893713   1.000000
     45          0.979067   1.000000
     46          0.979067   1.000000
     47          1.602303   1.000000
     48          1.602303   1.000000
     49          1.902188   1.000000
     50          1.902188   1.000000
     51          2.787108   1.000000
     52          2.787108   1.000000
     53          2.900756   1.000000
     54          2.900756   1.000000
     55          5.054700   0.000000
     56          5.054701   0.000000
     57          6.543942   0.000000
     58          6.543942   0.000000
     59          7.987683   0.000000
     60          7.987683   0.000000
     61          8.579723   0.000000
     62          8.579723   0.000000
     63          9.332531   0.000000
     64          9.332531   0.000000
     65          9.749625   0.000000
     66          9.749625   0.000000
     67         10.042950   0.000000
     68         10.042950   0.000000
     69         10.740855   0.000000
     70         10.740855   0.000000
     71         11.151387   0.000000
     72         11.151387   0.000000
     73         11.782885   0.000000
     74         11.782885   0.000000
     75         12.532125   0.000000
     76         12.532125   0.000000
     77         13.028499   0.000000
     78         13.028499   0.000000
     79         13.591857   0.000000
     80         13.591857   0.000000
     81         13.904601   0.000000
     82         13.904601   0.000000
     83         14.276015   0.000000
     84         14.276015   0.000000
     85         14.443426   0.000000
     86         14.443426   0.000000
     87         14.908797   0.000000
     88         14.908798   0.000000
     89         15.548759   0.000000
     90         15.548759   0.000000
     91         16.097399   0.000000
     92         16.097399   0.000000
     93         17.861937   0.000000
     94         17.861937   0.000000
     95         18.881739   0.000000
     96         18.881739   0.000000
     97         19.238614   0.000000
     98         19.238614   0.000000
     99         19.734122   0.000000
    100         19.734122   0.000000
    101         20.158591   0.000000
    102         20.158591   0.000000
    103         20.704438   0.000000
    104         20.704438   0.000000
    105         20.913621   0.000000
    106         20.913621   0.000000
    107         21.514094   0.000000
    108         21.514094   0.000000
    109         21.870642   0.000000
    110         21.870642   0.000000
    111         22.055362   0.000000
    112         22.055362   0.000000
    113         22.483677   0.000000
    114         22.483677   0.000000
    115         22.738868   0.000000
    116         22.738868   0.000000
    117         23.110170   0.000000
    118         23.110170   0.000000
    119         23.843149   0.000000
    120         23.843149   0.000000
    121         24.171098   0.000000
    122         24.171098   0.000000
    123         24.385324   0.000000
    124         24.385324   0.000000
    125         24.682278   0.000000
    126         24.682278   0.000000
    127         24.929753   0.000000
    128         24.929753   0.000000
    129         25.345512   0.000000
    130         25.345512   0.000000
    131         26.220041   0.000000
    132         26.220041   0.000000
    133         26.422687   0.000000
    134         26.422687   0.000000
    135         26.865905   0.000000
    136         26.865905   0.000000
    137         27.203779   0.000000
    138         27.203779   0.000000
    139         27.655888   0.000000
    140         27.658447   0.000000

  0.3125000E-01  0.3125000E-01  0.5000000E+00  0.0000000E+00
      1        -25.450673   1.000000
      2        -25.450673   1.000000
      3        -25.437762   1.000000
      4        -25.437762   1.000000
      5        -25.408284   1.000000
      6        -25.408284   1.000000
      7        -25.385679   1.000000
      8        -25.385679   1.000000
      9        -25.380265   1.000000
     10        -25.380265   1.000000
     11        -12.351030   1.000000
     12        -12.351030   1.000000
     13        -11.176040   1.000000
     14        -11.176040   1.000000
     15        -10.828374   1.000000
     16        -10.828374   1.000000
     17         -5.913334   1.000000
     18         -5.913333   1.000000
     19         -2.337829   1.000000
     20         -2.337829   1.000000
     21         -1.989388   1.000000
     22         -1.989388   1.000000
     23         -1.721860   1.000000
     24         -1.721860   1.000000
     25         -1.356767   1.000000
     26         -1.356767   1.000000
     27         -0.784687   1.000000
     28         -0.784687   1.000000
     29         -0.624350   1.000000
     30         -0.624350   1.000000
     31         -0.515415   1.000000
     32         -0.515415   1.000000
     33         -0.450062   1.000000
     34         -0.450062   1.000000
     35          0.548828   1.000000
     36          0.548828   1.000000
     37          0.584185   1.000000
     38          0.584185   1.000000
     39          0.654648   1.000000
     40          0.654648   1.000000
     41          0.718694   1.000000
     42          0.718694   1.000000
     43          0.895261   1.000000
     44          0.895261   1.000000
     45          0.981844   1.000000
     46          0.981844   1.000000
     47          1.601623   1.000000
     48          1.601623   1.000000
     49          1.902262   1.000000
     50          1.902262   1.000000
     51          2.770847   1.000000
     52          2.770847   1.000000
     53          2.900758   1.000000
     54          2.900758   1.000000
     55          5.063372   0.000000
     56          5.063372   0.000000
     57          6.548182   0.000000
     58          6.548183   0.000000
     59          7.987795   0.000000
     60          7.987795   0.000000
     61          8.583374   0.000000
     62          8.583374   0.000000
     63          9.326354   0.000000
     64          9.326355   0.000000
     65          9.732415   0.000000
     66          9.732415   0.000000
     67         10.059948   0.000000
     68         10.059948   0.000000
     69         10.732617   0.000000
     70         10.732617   0.000000
     71         11.146771   0.000000
     72         11.146771   0.000000
     73         11.760730   0.000000
     74         11.760730   0.000000
     75         12.525097   0.000000
     76         12.525097   0.000000
     77         13.037901   0.000000
     78         13.037901   0.000000
     79         13.604037   0.000000
     80         13.604037   0.000000
     81         13.878066   0.000000
     82         13.878066   0.000000
     83         14.312478   0.000000
     84         14.312478   0.000000
     85         14.451802   0.000000
     86         14.451802   0.000000
     87         14.938664   0.000000
     88         14.938664   0.000000
     89         15.556406   0.000000
     90         15.556406   0.000000
     91         16.114395   0.000000
     92         16.114395   0.000000
     93         17.859795   0.000000
     94         17.859795   0.000000
     95         18.852001   0.000000
     96         18.852001   0.000000
     97         19.247526   0.000000
     98         19.247526   0.000000
     99         19.734809   0.000000
    100         19.734809   0.000000
    101         20.162978   0.000000
    102         20.162978   0.000000
    103         20.598820   0.000000
    104         20.598820   0.000000
    105         20.961816   0.000000
    106         20.961816   0.000000
    107         21.467894   0.000000
    108         21.467894   0.000000
    109         21.816314   0.000000
    110         21.816314   0.000000
    111         22.125654   0.000000
    112         22.125654   0.000000
    113         22.456893   0.000000
    114         22.456893   0.000000
    115         22.786475   0.000000
    116         22.786475   0.000000
    117         23.139195   0.000000
    118         23.139195   0.000000
    119         23.840183   0.000000
    120         23.840183   0.000000
    121         24.087140   0.000000
    122         24.087140   0.000000
    123         24.408673   0.000000
    124         24.408673   0.000000
    125         24.743888   0.000000
    126         24.743888   0.000000
    127         24.969774   0.000000
    128         24.969775   0.000000
    129         25.364740   0.000000
    130         25.364740   0.000000
    131         26.189669   0.000000
    132         26.189669   0.000000
    133         26.434994   0.000000
    134         26.434994   0.000000
    135         26.860972   0.000000
    136         26.860972   0.000000
    137         27.187635   0.000000
    138         27.187635   0.000000
    139         27.603354   0.000000
    140         27.604036   0.000000

  0.4687500E-01  0.4687500E-01  0.5000000E+00  0.0000000E+00
      1        -25.450719   1.000000
      2        -25.450719   1.000000
      3        -25.437808   1.000000
      4        -25.437807   1.000000
      5        -25.408329   1.000000
      6        -25.408329   1.000000
      7        -25.385723   1.000000
      8        -25.385723   1.000000
      9        -25.380312   1.000000
     10        -25.380312   1.000000
     11        -12.349248   1.000000
     12        -12.349248   1.000000
     13        -11.177833   1.000000
     14        -11.177833   1.000000
     15        -10.829865   1.000000
     16        -10.829865   1.000000
     17         -5.911691   1.000000
     18         -5.911691   1.000000
     19         -2.341394   1.000000
     20         -2.341394   1.000000
     21         -1.989184   1.000000
     22         -1.989184   1.000000
     23         -1.718373   1.000000
     24         -1.718373   1.000000
     25         -1.347306   1.000000
     26         -1.347306   1.000000
     27         -0.788994   1.000000
     28         -0.788994   1.000000
     29         -0.624892   1.000000
     30         -0.624892   1.000000
     31         -0.515288   1.000000
     32         -0.515288   1.000000
     33         -0.449423   1.000000
     34         -0.449423   1.000000
     35          0.548375   1.000000
     36          0.548375   1.000000
     37          0.583249   1.000000
     38          0.583249   1.000000
     39          0.655083   1.000000
     40          0.655083   1.000000
     41          0.718191   1.000000
     42          0.718192   1.000000
     43          0.897834   1.000000
     44          0.897834   1.000000
     45          0.986462   1.000000
     46          0.986462   1.000000
     47          1.600488   1.000000
     48          1.600488   1.000000
     49          1.902384   1.000000
     50          1.902385   1.000000
     51          2.745589   1.000000
     52          2.745589   1.000000
     53          2.899447   1.000000
     54          2.899447   1.000000
     55          5.077321   0.000000
     56          5.077321   0.000000
     57          6.555219   0.000000
     58          6.555219   0.000000
     59          7.987933   0.000000
     60          7.987933   0.000000
     61          8.589048   0.000000
     62          8.589048   0.000000
     63          9.315905   0.000000
     64          9.315905   0.000000
     65          9.709540   0.000000
     66          9.709540   0.000000
     67         10.082859   0.000000
     68         10.082859   0.000000
     69         10.719497   0.000000
     70         10.719497   0.000000
     71         11.136778   0.000000
     72         11.136778   0.000000
     73         11.729892   0.000000
     74         11.729892   0.000000
     75         12.512789   0.000000
     76         12.512789   0.000000
     77         13.051662   0.000000
     78         13.051662   0.000000
     79         13.614752   0.000000
     80         13.614753   0.000000
     81         13.855167   0.000000
     82         13.855167   0.000000
     83         14.351715   0.000000
     84         14.351715   0.000000
     85         14.475818   0.000000
     86         14.475818   0.000000
     87         14.985508   0.000000
     88         14.985508   0.000000
     89         15.570558   0.000000
     90         15.570559   0.000000
     91         16.142036   0.000000
     92         16.142036   0.000000
     93         17.856239   0.000000
     94         17.856239   0.000000
     95         18.809860   0.000000
     96         18.809860   0.000000
     97         19.251899   0.000000
     98         19.251899   0.000000
     99         19.739794   0.000000
    100         19.739794   0.000000
    101         20.168051   0.000000
    102         20.168051   0.000000
    103         20.482466   0.000000
    104         20.482466   0.000000
    105         20.971360   0.000000
    106         20.971360   0.000000
    107         21.427298   0.000000
    108         21.427298   0.000000
    109         21.740991   0.000000
    110         21.740991   0.000000
    111         22.193119   0.000000
    112         22.193119   0.000000
    113         22.458181   0.000000
    114         22.458181   0.000000
    115         22.833361   0.000000
    116         22.833361   0.000000
    117         23.184262   0.000000
    118         23.184262   0.000000
    119         23.815997   0.000000
    120         23.815997   0.000000
    121         24.014182   0.000000
    122         24.014183   0.000000
    123         24.434473   0.000000
    124         24.434474   0.000000
    125         24.803002   0.000000
    126         24.803002   0.000000
    127         25.041839   0.000000
    128         25.041839   0.000000
    129         25.399139   0.000000
    130         25.399139   0.000000
    131         26.148000   0.000000
    132         26.148000   0.000000
    133         26.447295   0.000000
    134         26.447295   0.000000
    135         26.847421   0.000000
    136         26.847421   0.000000
    137         27.161528   0.000000
    138         27.161528   0.000000
    139         27.541210   0.000000
    140         27.541506   0.000000

  0.6250000E-01  0.6250000E-01  0.5000000E+00  0.0000000E+00
      1        -25.450787   1.000000
      2        -25.450787   1.000000
      3        -25.437877   1.000000
      4        -25.437877   1.000000
      5        -25.408397   1.000000
      6        -25.408397   1.000000
      7        -25.385790   1.000000
      8        -25.385790   1.000000
      9        -25.380379   1.000000
     10        -25.380378   1.000000
     11        -12.346767   1.000000
     12        -12.346766   1.000000
     13        -11.180328   1.000000
     14        -11.180328   1.000000
     15        -10.831936   1.000000
     16        -10.831935   1.000000
     17         -5.909406   1.000000
     18         -5.909406   1.000000
     19         -2.346288   1.000000
     20         -2.346287   1.000000
     21         -1.988822   1.000000
     22         -1.988822   1.000000
     23         -1.713262   1.000000
     24         -1.713262   1.000000
     25         -1.334668   1.000000
     26         -1.334667   1.000000
     27         -0.794911   1.000000
     28         -0.794911   1.000000
     29         -0.625643   1.000000
     30         -0.625643   1.000000
     31         -0.515104   1.000000
     32         -0.515104   1.000000
     33         -0.448576   1.000000
     34         -0.448576   1.000000
     35          0.547764   1.000000
     36          0.547764   1.000000
     37          0.582024   1.000000
     38          0.582024   1.000000
     39          0.655539   1.000000
     40          0.655539   1.000000
     41          0.717557   1.000000
     42          0.717557   1.000000
     43          0.901405   1.000000
     44          0.901405   1.000000
     45          0.992890   1.000000
     46          0.992890   1.000000
     47          1.598887   1.000000
     48          1.598887   1.000000
     49          1.902549   1.000000
     50          1.902549   1.000000
     51          2.712903   1.000000
     52          2.712903   1.000000
     53          2.895988   1.000000
     54          2.895988   1.000000
     55          5.095850   0.000000
     56          5.095850   0.000000
     57          6.564992   0.000000
     58          6.564992   0.000000
     59          7.988024   0.000000
     60          7.988025   0.000000
     61          8.596095   0.000000
     62          8.596095   0.000000
     63          9.301151   0.000000
     64          9.301151   0.000000
     65          9.685709   0.000000
     66          9.685709   0.000000
     67         10.107395   0.000000
     68         10.107395   0.000000
     69         10.702137   0.000000
     70         10.702137   0.000000
     71         11.118706   0.000000
     72         11.118706   0.000000
     73         11.697505   0.000000
     74         11.697505   0.000000
     75         12.494634   0.000000
     76         12.494634   0.000000
     77         13.068042   0.000000
     78         13.068042   0.000000
     79         13.611631   0.000000
     80         13.611631   0.000000
     81         13.852604   0.000000
     82         13.852604   0.000000
     83         14.380742   0.000000
     84         14.380742   0.000000
     85         14.523470   0.000000
     86         14.523470   0.000000
     87         15.046092   0.000000
     88         15.046092   0.000000
     89         15.593033   0.000000
     90         15.593033   0.000000
     91         16.179491   0.000000
     92         16.179491   0.000000
     93         17.851308   0.000000
     94         17.851308   0.000000
     95         18.760689   0.000000
     96         18.760689   0.000000
     97         19.244135   0.000000
     98         19.244135   0.000000
     99         19.750920   0.000000
    100         19.750920   0.000000
    101         20.170843   0.000000
    102         20.170843   0.000000
    103         20.362933   0.000000
    104         20.362933   0.000000
    105         20.935583   0.000000
    106         20.935583   0.000000
    107         21.390674   0.000000
    108         21.390674   0.000000
    109         21.671573   0.000000
    110         21.671573   0.000000
    111         22.224960   0.000000
    112         22.224960   0.000000
    113         22.509586   0.000000
    114         22.509586   0.000000
    115         22.872457   0.000000
    116         22.872457   0.000000
    117         23.238658   0.000000
    118         23.238658   0.000000
    119         23.751043   0.000000
    120         23.751043   0.000000
    121         23.985848   0.000000
    122         23.985848   0.000000
    123         24.464931   0.000000
    124         24.464931   0.000000
    125         24.848272   0.000000
    126         24.848272   0.000000
    127         25.136653   0.000000
    128         25.136653   0.000000
    129         25.451670   0.000000
    130         25.451670   0.000000
    131         26.100602   0.000000
    132         26.100602   0.000000
    133         26.454137   0.000000
    134         26.454137   0.000000
    135         26.820533   0.000000
    136         26.820533   0.000000
    137         27.128672   0.000000
    138         27.128672   0.000000
    139         27.485453   0.000000
    140         27.485545   0.000000

  0.7812500E-01  0.7812500E-01  0.5000000E+00  0.0000000E+00
      1        -25.450869   1.000000
      2        -25.450869   1.000000
      3        -25.437958   1.000000
      4        -25.437957   1.000000
      5        -25.408479   1.000000
      6        -25.408479   1.000000
      7        -25.385871   1.000000
      8        -25.385871   1.000000
      9        -25.380460   1.000000
     10        -25.380460   1.000000
     11        -12.343598   1.000000
     12        -12.343598   1.000000
     13        -11.183508   1.000000
     14        -11.183508   1.000000
     15        -10.834566   1.000000
     16        -10.834565   1.000000
     17         -5.906491   1.000000
     18         -5.906491   1.000000
     19         -2.352407   1.000000
     20         -2.352407   1.000000
     21         -1.988228   1.000000
     22         -1.988228   1.000000
     23         -1.706375   1.000000
     24         -1.706375   1.000000
     25         -1.319378   1.000000
     26         -1.319378   1.000000
     27         -0.802314   1.000000
     28         -0.802314   1.000000
     29         -0.626584   1.000000
     30         -0.626584   1.000000
     31         -0.514845   1.000000
     32         -0.514845   1.000000
     33         -0.447552   1.000000
     34         -0.447552   1.000000
     35          0.547012   1.000000
     36          0.547012   1.000000
     37          0.580586   1.000000
     38          0.580586   1.000000
     39          0.655917   1.000000
     40          0.655917   1.000000
     41          0.716860   1.000000
     42          0.716860   1.000000
     43          0.905957   1.000000
     44          0.905957   1.000000
     45          1.001109   1.000000
     46          1.001109   1.000000
     47          1.596808   1.000000
     48          1.596809   1.000000
     49          1.902750   1.000000
     50          1.902750   1.000000
     51          2.674131   1.000000
     52          2.674131   1.000000
     53          2.889992   1.000000
     54          2.889992   1.000000
     55          5.118097   0.000000
     56          5.118098   0.000000
     57          6.577408   0.000000
     58          6.577408   0.000000
     59          7.987965   0.000000
     60          7.987966   0.000000
     61          8.603555   0.000000
     62          8.603555   0.000000
     63          9.282455   0.000000
     64          9.282455   0.000000
     65          9.664285   0.000000
     66          9.664285   0.000000
     67         10.130500   0.000000
     68         10.130500   0.000000
     69         10.681004   0.000000
     70         10.681004   0.000000
     71         11.090517   0.000000
     72         11.090517   0.000000
     73         11.670294   0.000000
     74         11.670294   0.000000
     75         12.470207   0.000000
     76         12.470207   0.000000
     77         13.085896   0.000000
     78         13.085896   0.000000
     79         13.590799   0.000000
     80         13.590799   0.000000
     81         13.873822   0.000000
     82         13.873822   0.000000
     83         14.403471   0.000000
     84         14.403471   0.000000
     85         14.589539   0.000000
     86         14.589539   0.000000
     87         15.117153   0.000000
     88         15.117153   0.000000
     89         15.625891   0.000000
     90         15.625891   0.000000
     91         16.225886   0.000000
     92         16.225886   0.000000
     93         17.845095   0.000000
     94         17.845095   0.000000
     95         18.707886   0.000000
     96         18.707886   0.000000
     97         19.221157   0.000000
     98         19.221157   0.000000
     99         19.764712   0.000000
    100         19.764712   0.000000
    101         20.160965   0.000000
    102         20.160965   0.000000
    103         20.255037   0.000000
    104         20.255037   0.000000
    105         20.868073   0.000000
    106         20.868073   0.000000
    107         21.321944   0.000000
    108         21.321944   0.000000
    109         21.644391   0.000000
    110         21.644391   0.000000
    111         22.228842   0.000000
    112         22.228842   0.000000
    113         22.589123   0.000000
    114         22.589124   0.000000
    115         22.908799   0.000000
    116         22.908799   0.000000
    117         23.290427   0.000000
    118         23.290427   0.000000
    119         23.669723   0.000000
    120         23.669723   0.000000
    121         23.989507   0.000000
    122         23.989507   0.000000
    123         24.500473   0.000000
    124         24.500473   0.000000
    125         24.883547   0.000000
    126         24.883547   0.000000
    127         25.237590   0.000000
    128         25.237590   0.000000
    129         25.523593   0.000000
    130         25.523593   0.000000
    131         26.051748   0.000000
    132         26.051748   0.000000
    133         26.450291   0.000000
    134         26.450291   0.000000
    135         26.781764   0.000000
    136         26.781764   0.000000
    137         27.094421   0.000000
    138         27.094421   0.000000
    139         27.442788   0.000000
    140         27.442807   0.000000

  0.9375000E-01  0.9375000E-01  0.5000000E+00  0.0000000E+00
      1        -25.450968   1.000000
      2        -25.450968   1.000000
      3        -25.438057   1.000000
      4        -25.438057   1.000000
      5        -25.408576   1.000000
      6        -25.408576   1.000000
      7        -25.385968   1.000000
      8        -25.385968   1.000000
      9        -25.380556   1.000000
     10        -25.380556   1.000000
     11        -12.339760   1.000000
     12        -12.339760   1.000000
     13        -11.187355   1.000000
     14        -11.187354   1.000000
     15        -10.837736   1.000000
     16        -10.837735   1.000000
     17         -5.902967   1.000000
     18         -5.902967   1.000000
     19         -2.359622   1.000000
     20         -2.359622   1.000000
     21         -1.987319   1.000000
     22         -1.987319   1.000000
     23         -1.697601   1.000000
     24         -1.697601   1.000000
     25         -1.302041   1.000000
     26         -1.302041   1.000000
     27         -0.811039   1.000000
     28         -0.811039   1.000000
     29         -0.627715   1.000000
     30         -0.627715   1.000000
     31         -0.514490   1.000000
     32         -0.514489   1.000000
     33         -0.446400   1.000000
     34         -0.446400   1.000000
     35          0.546148   1.000000
     36          0.546148   1.000000
     37          0.578996   1.000000
     38          0.578996   1.000000
     39          0.656096   1.000000
     40          0.656096   1.000000
     41          0.716158   1.000000
     42          0.716158   1.000000
     43          0.911445   1.000000
     44          0.911445   1.000000
     45          1.011076   1.000000
     46          1.011076   1.000000
     47          1.594237   1.000000
     48          1.594237   1.000000
     49          1.902972   1.000000
     50          1.902972   1.000000
     51          2.630461   1.000000
     52          2.630461   1.000000
     53          2.881358   1.000000
     54          2.881358   1.000000
     55          5.143117   0.000000
     56          5.143117   0.000000
     57          6.592318   0.000000
     58          6.592318   0.000000
     59          7.987622   0.000000
     60          7.987622   0.000000
     61          8.610114   0.000000
     62          8.610114   0.000000
     63          9.260827   0.000000
     64          9.260827   0.000000
     65          9.647301   0.000000
     66          9.647301   0.000000
     67         10.150135   0.000000
     68         10.150135   0.000000
     69         10.656113   0.000000
     70         10.656113   0.000000
     71         11.052468   0.000000
     72         11.052468   0.000000
     73         11.652597   0.000000
     74         11.652597   0.000000
     75         12.439316   0.000000
     76         12.439316   0.000000
     77         13.104755   0.000000
     78         13.104755   0.000000
     79         13.560268   0.000000
     80         13.560269   0.000000
     81         13.908072   0.000000
     82         13.908072   0.000000
     83         14.428443   0.000000
     84         14.428443   0.000000
     85         14.665745   0.000000
     86         14.665745   0.000000
     87         15.195629   0.000000
     88         15.195629   0.000000
     89         15.671069   0.000000
     90         15.671069   0.000000
     91         16.280413   0.000000
     92         16.280414   0.000000
     93         17.837782   0.000000
     94         17.837782   0.000000
     95         18.653337   0.000000
     96         18.653337   0.000000
     97         19.183907   0.000000
     98         19.183907   0.000000
     99         19.769609   0.000000
    100         19.769609   0.000000
    101         20.092595   0.000000
    102         20.092595   0.000000
    103         20.213676   0.000000
    104         20.213676   0.000000
    105         20.785689   0.000000
    106         20.785689   0.000000
    107         21.213403   0.000000
    108         21.213403   0.000000
    109         21.659839   0.000000
    110         21.659839   0.000000
    111         22.225916   0.000000
    112         22.225916   0.000000
    113         22.655700   0.000000
    114         22.655700   0.000000
    115         22.955832   0.000000
    116         22.955832   0.000000
    117         23.317867   0.000000
    118         23.317867   0.000000
    119         23.615041   0.000000
    120         23.615041   0.000000
    121         24.004435   0.000000
    122         24.004435   0.000000
    123         24.539007   0.000000
    124         24.539007   0.000000
    125         24.912634   0.000000
    126         24.912634   0.000000
    127         25.334293   0.000000
    128         25.334293   0.000000
    129         25.609255   0.000000
    130         25.609255   0.000000
    131         26.006974   0.000000
    132         26.006974   0.000000
    133         26.430465   0.000000
    134         26.430465   0.000000
    135         26.742598   0.000000
    136         26.742598   0.000000
    137         27.062800   0.000000
    138         27.062801   0.000000
    139         27.411841   0.000000
    140         27.411902   0.000000

  0.1093750E+00  0.1093750E+00  0.5000000E+00  0.0000000E+00
      1        -25.451083   1.000000
      2        -25.451083   1.000000
      3        -25.438172   1.000000
      4        -25.438172   1.000000
      5        -25.408690   1.000000
      6        -25.408690   1.000000
      7        -25.386080   1.000000
      8        -25.386080   1.000000
      9        -25.380669   1.000000
     10        -25.380669   1.000000
     11        -12.335273   1.000000
     12        -12.335273   1.000000
     13        -11.191846   1.000000
     14        -11.191846   1.000000
     15        -10.841419   1.000000
     16        -10.841419   1.000000
     17         -5.898857   1.000000
     18         -5.898857   1.000000
     19         -2.367778   1.000000
     20         -2.367778   1.000000
     21         -1.986009   1.000000
     22         -1.986009   1.000000
     23         -1.686882   1.000000
     24         -1.686882   1.000000
     25         -1.283305   1.000000
     26         -1.283305   1.000000
     27         -0.820875   1.000000
     28         -0.820875   1.000000
     29         -0.629029   1.000000
     30         -0.629029   1.000000
     31         -0.514020   1.000000
     32         -0.514020   1.000000
     33         -0.445165   1.000000
     34         -0.445165   1.000000
     35          0.545201   1.000000
     36          0.545201   1.000000
     37          0.577306   1.000000
     38          0.577306   1.000000
     39          0.655993   1.000000
     40          0.655993   1.000000
     41          0.715503   1.000000
     42          0.715503   1.000000
     43          0.917828   1.000000
     44          0.917828   1.000000
     45          1.022735   1.000000
     46          1.022736   1.000000
     47          1.591153   1.000000
     48          1.591153   1.000000
     49          1.903190   1.000000
     50          1.903190   1.000000
     51          2.583018   1.000000
     52          2.583018   1.000000
     53          2.870128   1.000000
     54          2.870128   1.000000
     55          5.169953   0.000000
     56          5.169953   0.000000
     57          6.609509   0.000000
     58          6.609509   0.000000
     59          7.986818   0.000000
     60          7.986819   0.000000
     61          8.614108   0.000000
     62          8.614109   0.000000
     63          9.238038   0.000000
     64          9.238038   0.000000
     65          9.635720   0.000000
     66          9.635720   0.000000
     67         10.164993   0.000000
     68         10.164994   0.000000
     69         10.626854   0.000000
     70         10.626854   0.000000
     71         11.007924   0.000000
     72         11.007924   0.000000
     73         11.645527   0.000000
     74         11.645527   0.000000
     75         12.402075   0.000000
     76         12.402075   0.000000
     77         13.124527   0.000000
     78         13.124527   0.000000
     79         13.528339   0.000000
     80         13.528339   0.000000
     81         13.943964   0.000000
     82         13.943964   0.000000
     83         14.460165   0.000000
     84         14.460165   0.000000
     85         14.748000   0.000000
     86         14.748000   0.000000
     87         15.278805   0.000000
     88         15.278806   0.000000
     89         15.729983   0.000000
     90         15.729983   0.000000
     91         16.342402   0.000000
     92         16.342402   0.000000
     93         17.829657   0.000000
     94         17.829657   0.000000
     95         18.597985   0.000000
     96         18.597985   0.000000
     97         19.135057   0.000000
     98         19.135058   0.000000
     99         19.744697   0.000000
    100         19.744697   0.000000
    101         20.002292   0.000000
    102         20.002293   0.000000
    103         20.219246   0.000000
    104         20.219246   0.000000
    105         20.698465   0.000000
    106         20.698465   0.000000
    107         21.088496   0.000000
    108         21.088496   0.000000
    109         21.691236   0.000000
    110         21.691237   0.000000
    111         22.225685   0.000000
    112         22.225685   0.000000
    113         22.683467   0.000000
    114         22.683467   0.000000
    115         23.019651   0.000000
    116         23.019651   0.000000
    117         23.303919   0.000000
    118         23.303919   0.000000
    119         23.619367   0.000000
    120         23.619367   0.000000
    121         24.022914   0.000000
    122         24.022914   0.000000
    123         24.575600   0.000000
    124         24.575600   0.000000
    125         24.938582   0.000000
    126         24.938582   0.000000
    127         25.421594   0.000000
    128         25.421594   0.000000
    129         25.692124   0.000000
    130         25.692124   0.000000
    131         25.977762   0.000000
    132         25.977762   0.000000
    133         26.395055   0.000000
    134         26.395056   0.000000
    135         26.715994   0.000000
    136         26.715994   0.000000
    137         27.035861   0.000000
    138         27.035861   0.000000
    139         27.388789   0.000000
    140         27.388812   0.000000

  0.1250000E+00  0.1250000E+00  0.5000000E+00  0.0000000E+00
      1        -25.451210   1.000000
      2        -25.451210   1.000000
      3        -25.438300   1.000000
      4        -25.438300   1.000000
      5        -25.408816   1.000000
      6        -25.408816   1.000000
      7        -25.386206   1.000000
      8        -25.386206   1.000000
      9        -25.380795   1.000000
     10        -25.380794   1.000000
     11        -12.330162   1.000000
     12        -12.330162   1.000000
     13        -11.196952   1.000000
     14        -11.196952   1.000000
     15        -10.845581   1.000000
     16        -10.845581   1.000000
     17         -5.894188   1.000000
     18         -5.894188   1.000000
     19         -2.376693   1.000000
     20         -2.376693   1.000000
     21         -1.984213   1.000000
     22         -1.984213   1.000000
     23         -1.674227   1.000000
     24         -1.674227   1.000000
     25         -1.263855   1.000000
     26         -1.263855   1.000000
     27         -0.831550   1.000000
     28         -0.831550   1.000000
     29         -0.630521   1.000000
     30         -0.630521   1.000000
     31         -0.513409   1.000000
     32         -0.513409   1.000000
     33         -0.443885   1.000000
     34         -0.443885   1.000000
     35          0.544201   1.000000
     36          0.544201   1.000000
     37          0.575556   1.000000
     38          0.575556   1.000000
     39          0.655557   1.000000
     40          0.655557   1.000000
     41          0.714931   1.000000
     42          0.714931   1.000000
     43          0.925054   1.000000
     44          0.925054   1.000000
     45          1.036034   1.000000
     46          1.036034   1.000000
     47          1.587534   1.000000
     48          1.587534   1.000000
     49          1.903368   1.000000
     50          1.903368   1.000000
     51          2.532905   1.000000
     52          2.532905   1.000000
     53          2.856405   1.000000
     54          2.856405   1.000000
     55          5.197709   0.000000
     56          5.197709   0.000000
     57          6.628693   0.000000
     58          6.628693   0.000000
     59          7.985332   0.000000
     60          7.985332   0.000000
     61          8.613621   0.000000
     62          8.613621   0.000000
     63          9.216429   0.000000
     64          9.216429   0.000000
     65          9.629762   0.000000
     66          9.629762   0.000000
     67         10.174306   0.000000
     68         10.174306   0.000000
     69         10.592102   0.000000
     70         10.592102   0.000000
     71         10.962489   0.000000
     72         10.962489   0.000000
     73         11.647744   0.000000
     74         11.647744   0.000000
     75         12.358966   0.000000
     76         12.358967   0.000000
     77         13.145010   0.000000
     78         13.145010   0.000000
     79         13.499766   0.000000
     80         13.499766   0.000000
     81         13.974754   0.000000
     82         13.974754   0.000000
     83         14.500260   0.000000
     84         14.500260   0.000000
     85         14.834282   0.000000
     86         14.834282   0.000000
     87         15.364539   0.000000
     88         15.364539   0.000000
     89         15.803132   0.000000
     90         15.803132   0.000000
     91         16.411306   0.000000
     92         16.411306   0.000000
     93         17.821146   0.000000
     94         17.821146   0.000000
     95         18.542189   0.000000
     96         18.542189   0.000000
     97         19.077205   0.000000
     98         19.077205   0.000000
     99         19.672233   0.000000
    100         19.672233   0.000000
    101         19.937201   0.000000
    102         19.937201   0.000000
    103         20.237457   0.000000
    104         20.237457   0.000000
    105         20.610936   0.000000
    106         20.610936   0.000000
    107         20.966140   0.000000
    108         20.966140   0.000000
    109         21.721231   0.000000
    110         21.721231   0.000000
    111         22.231226   0.000000
    112         22.231226   0.000000
    113         22.673072   0.000000
    114         22.673072   0.000000
    115         23.068055   0.000000
    116         23.068056   0.000000
    117         23.292500   0.000000
    118         23.292500   0.000000
    119         23.668672   0.000000
    120         23.668672   0.000000
    121         24.042891   0.000000
    122         24.042891   0.000000
    123         24.602740   0.000000
    124         24.602740   0.000000
    125         24.964793   0.000000
    126         24.964793   0.000000
    127         25.491000   0.000000
    128         25.491000   0.000000
    129         25.751864   0.000000
    130         25.751864   0.000000
    131         25.981554   0.000000
    132         25.981554   0.000000
    133         26.356494   0.000000
    134         26.356494   0.000000
    135         26.704469   0.000000
    136         26.704469   0.000000
    137         27.016027   0.000000
    138         27.016027   0.000000
    139         27.371461   0.000000
    140         27.371477   0.000000

  0.1406250E+00  0.1406250E+00  0.5000000E+00  0.0000000E+00
      1        -25.451354   1.000000
      2        -25.451354   1.000000
      3        -25.438441   1.000000
      4        -25.438441   1.000000
      5        -25.408957   1.000000
      6        -25.408957   1.000000
      7        -25.386348   1.000000
      8        -25.386348   1.000000
      9        -25.380938   1.000000
     10        -25.380938   1.000000
     11        -12.324458   1.000000
     12        -12.324458   1.000000
     13        -11.202641   1.000000
     14        -11.202641   1.000000
     15        -10.850185   1.000000
     16        -10.850185   1.000000
     17         -5.888995   1.000000
     18         -5.888995   1.000000
     19         -2.386173   1.000000
     20         -2.386172   1.000000
     21         -1.981861   1.000000
     22         -1.981861   1.000000
     23         -1.659710   1.000000
     24         -1.659710   1.000000
     25         -1.244413   1.000000
     26         -1.244413   1.000000
     27         -0.842725   1.000000
     28         -0.842725   1.000000
     29         -0.632184   1.000000
     30         -0.632184   1.000000
     31         -0.512637   1.000000
     32         -0.512637   1.000000
     33         -0.442601   1.000000
     34         -0.442601   1.000000
     35          0.543171   1.000000
     36          0.543171   1.000000
     37          0.573774   1.000000
     38          0.573774   1.000000
     39          0.654775   1.000000
     40          0.654775   1.000000
     41          0.714439   1.000000
     42          0.714439   1.000000
     43          0.933061   1.000000
     44          0.933061   1.000000
     45          1.050880   1.000000
     46          1.050880   1.000000
     47          1.583350   1.000000
     48          1.583350   1.000000
     49          1.903443   1.000000
     50          1.903443   1.000000
     51          2.481212   1.000000
     52          2.481212   1.000000
     53          2.840316   1.000000
     54          2.840316   1.000000
     55          5.225590   0.000000
     56          5.225590   0.000000
     57          6.649506   0.000000
     58          6.649506   0.000000
     59          7.982869   0.000000
     60          7.982869   0.000000
     61          8.606759   0.000000
     62          8.606759   0.000000
     63          9.198455   0.000000
     64          9.198455   0.000000
     65          9.629235   0.000000
     66          9.629235   0.000000
     67         10.177702   0.000000
     68         10.177702   0.000000
     69         10.550935   0.000000
     70         10.550935   0.000000
     71         10.921975   0.000000
     72         10.921976   0.000000
     73         11.656868   0.000000
     74         11.656868   0.000000
     75         12.310878   0.000000
     76         12.310879   0.000000
     77         13.165367   0.000000
     78         13.165367   0.000000
     79         13.477349   0.000000
     80         13.477349   0.000000
     81         13.997659   0.000000
     82         13.997659   0.000000
     83         14.548741   0.000000
     84         14.548741   0.000000
     85         14.922905   0.000000
     86         14.922905   0.000000
     87         15.451470   0.000000
     88         15.451470   0.000000
     89         15.889810   0.000000
     90         15.889810   0.000000
     91         16.486649   0.000000
     92         16.486649   0.000000
     93         17.812796   0.000000
     94         17.812796   0.000000
     95         18.485962   0.000000
     96         18.485962   0.000000
     97         19.012245   0.000000
     98         19.012245   0.000000
     99         19.564409   0.000000
    100         19.564409   0.000000
    101         19.889194   0.000000
    102         19.889194   0.000000
    103         20.255894   0.000000
    104         20.255894   0.000000
    105         20.526140   0.000000
    106         20.526140   0.000000
    107         20.861826   0.000000
    108         20.861826   0.000000
    109         21.740503   0.000000
    110         21.740503   0.000000
    111         22.243109   0.000000
    112         22.243109   0.000000
    113         22.635582   0.000000
    114         22.635582   0.000000
    115         23.058070   0.000000
    116         23.058070   0.000000
    117         23.343187   0.000000
    118         23.343187   0.000000
    119         23.734232   0.000000
    120         23.734232   0.000000
    121         24.064412   0.000000
    122         24.064412   0.000000
    123         24.612900   0.000000
    124         24.612901   0.000000
    125         24.992088   0.000000
    126         24.992088   0.000000
    127         25.530083   0.000000
    128         25.530083   0.000000
    129         25.798051   0.000000
    130         25.798051   0.000000
    131         26.010713   0.000000
    132         26.010713   0.000000
    133         26.332690   0.000000
    134         26.332690   0.000000
    135         26.703683   0.000000
    136         26.703683   0.000000
    137         27.006172   0.000000
    138         27.006172   0.000000
    139         27.360933   0.000000
    140         27.361010   0.000000

  0.1562500E+00  0.1562500E+00  0.5000000E+00  0.0000000E+00
      1        -25.451509   1.000000
      2        -25.451509   1.000000
      3        -25.438593   1.000000
      4        -25.438593   1.000000
      5        -25.409109   1.000000
      6        -25.409109   1.000000
      7        -25.386498   1.000000
      8        -25.386498   1.000000
      9        -25.381089   1.000000
     10        -25.381089   1.000000
     11        -12.318193   1.000000
     12        -12.318192   1.000000
     13        -11.208877   1.000000
     14        -11.208876   1.000000
     15        -10.855188   1.000000
     16        -10.855188   1.000000
     17         -5.883315   1.000000
     18         -5.883315   1.000000
     19         -2.396014   1.000000
     20         -2.396014   1.000000
     21         -1.978895   1.000000
     22         -1.978895   1.000000
     23         -1.643463   1.000000
     24         -1.643463   1.000000
     25         -1.225746   1.000000
     26         -1.225746   1.000000
     27         -0.853977   1.000000
     28         -0.853977   1.000000
     29         -0.633996   1.000000
     30         -0.633996   1.000000
     31         -0.511678   1.000000
     32         -0.511678   1.000000
     33         -0.441339   1.000000
     34         -0.441339   1.000000
     35          0.542142   1.000000
     36          0.542142   1.000000
     37          0.571984   1.000000
     38          0.571985   1.000000
     39          0.653681   1.000000
     40          0.653681   1.000000
     41          0.714008   1.000000
     42          0.714008   1.000000
     43          0.941794   1.000000
     44          0.941794   1.000000
     45          1.067166   1.000000
     46          1.067166   1.000000
     47          1.578578   1.000000
     48          1.578578   1.000000
     49          1.903329   1.000000
     50          1.903330   1.000000
     51          2.429022   1.000000
     52          2.429022   1.000000
     53          2.821993   1.000000
     54          2.821993   1.000000
     55          5.252930   0.000000
     56          5.252930   0.000000
     57          6.671514   0.000000
     58          6.671514   0.000000
     59          7.979047   0.000000
     60          7.979047   0.000000
     61          8.592131   0.000000
     62          8.592131   0.000000
     63          9.186072   0.000000
     64          9.186072   0.000000
     65          9.633762   0.000000
     66          9.633762   0.000000
     67         10.175013   0.000000
     68         10.175014   0.000000
     69         10.503894   0.000000
     70         10.503894   0.000000
     71         10.890373   0.000000
     72         10.890373   0.000000
     73         11.670454   0.000000
     74         11.670454   0.000000
     75         12.259127   0.000000
     76         12.259127   0.000000
     77         13.183692   0.000000
     78         13.183692   0.000000
     79         13.463365   0.000000
     80         13.463365   0.000000
     81         14.012651   0.000000
     82         14.012651   0.000000
     83         14.604690   0.000000
     84         14.604690   0.000000
     85         15.011967   0.000000
     86         15.011967   0.000000
     87         15.538999   0.000000
     88         15.538999   0.000000
     89         15.988144   0.000000
     90         15.988144   0.000000
     91         16.567936   0.000000
     92         16.567936   0.000000
     93         17.805247   0.000000
     94         17.805247   0.000000
     95         18.429113   0.000000
     96         18.429113   0.000000
     97         18.941525   0.000000
     98         18.941525   0.000000
     99         19.443286   0.000000
    100         19.443286   0.000000
    101         19.841498   0.000000
    102         19.841498   0.000000
    103         20.250488   0.000000
    104         20.250488   0.000000
    105         20.453971   0.000000
    106         20.453971   0.000000
    107         20.791486   0.000000
    108         20.791486   0.000000
    109         21.743440   0.000000
    110         21.743440   0.000000
    111         22.259884   0.000000
    112         22.259884   0.000000
    113         22.579752   0.000000
    114         22.579752   0.000000
    115         23.022240   0.000000
    116         23.022240   0.000000
    117         23.428939   0.000000
    118         23.428939   0.000000
    119         23.799864   0.000000
    120         23.799864   0.000000
    121         24.088507   0.000000
    122         24.088507   0.000000
    123         24.602804   0.000000
    124         24.602804   0.000000
    125         25.014852   0.000000
    126         25.014852   0.000000
    127         25.547568   0.000000
    128         25.547568   0.000000
    129         25.855548   0.000000
    130         25.855548   0.000000
    131         26.031342   0.000000
    132         26.031342   0.000000
    133         26.331077   0.000000
    134         26.331077   0.000000
    135         26.711964   0.000000
    136         26.711964   0.000000
    137         27.006937   0.000000
    138         27.006938   0.000000
    139         27.361035   0.000000
    140         27.361061   0.000000

  0.1718750E+00  0.1718750E+00  0.5000000E+00  0.0000000E+00
      1        -25.451674   1.000000
      2        -25.451674   1.000000
      3        -25.438759   1.000000
      4        -25.438759   1.000000
      5        -25.409273   1.000000
      6        -25.409272   1.000000
      7        -25.386658   1.000000
      8        -25.386658   1.000000
      9        -25.381251   1.000000
     10        -25.381251   1.000000
     11        -12.311407   1.000000
     12        -12.311407   1.000000
     13        -11.215619   1.000000
     14        -11.215619   1.000000
     15        -10.860545   1.000000
     16        -10.860544   1.000000
     17         -5.877192   1.000000
     18         -5.877192   1.000000
     19         -2.406016   1.000000
     20         -2.406016   1.000000
     21         -1.975276   1.000000
     22         -1.975276   1.000000
     23         -1.625669   1.000000
     24         -1.625669   1.000000
     25         -1.208669   1.000000
     26         -1.208669   1.000000
     27         -0.864791   1.000000
     28         -0.864791   1.000000
     29         -0.635931   1.000000
     30         -0.635931   1.000000
     31         -0.510521   1.000000
     32         -0.510521   1.000000
     33         -0.440119   1.000000
     34         -0.440119   1.000000
     35          0.541126   1.000000
     36          0.541126   1.000000
     37          0.570205   1.000000
     38          0.570205   1.000000
     39          0.652342   1.000000
     40          0.652343   1.000000
     41          0.713590   1.000000
     42          0.713591   1.000000
     43          0.951190   1.000000
     44          0.951190   1.000000
     45          1.084741   1.000000
     46          1.084741   1.000000
     47          1.573193   1.000000
     48          1.573193   1.000000
     49          1.902898   1.000000
     50          1.902898   1.000000
     51          2.377409   1.000000
     52          2.377409   1.000000
     53          2.801573   1.000000
     54          2.801573   1.000000
     55          5.279203   0.000000
     56          5.279203   0.000000
     57          6.694223   0.000000
     58          6.694223   0.000000
     59          7.973357   0.000000
     60          7.973357   0.000000
     61          8.569354   0.000000
     62          8.569354   0.000000
     63          9.180210   0.000000
     64          9.180210   0.000000
     65          9.642865   0.000000
     66          9.642865   0.000000
     67         10.165994   0.000000
     68         10.165994   0.000000
     69         10.453839   0.000000
     70         10.453840   0.000000
     71         10.868927   0.000000
     72         10.868928   0.000000
     73         11.686261   0.000000
     74         11.686261   0.000000
     75         12.205488   0.000000
     76         12.205489   0.000000
     77         13.196990   0.000000
     78         13.196990   0.000000
     79         13.460024   0.000000
     80         13.460024   0.000000
     81         14.021448   0.000000
     82         14.021448   0.000000
     83         14.666731   0.000000
     84         14.666731   0.000000
     85         15.099409   0.000000
     86         15.099409   0.000000
     87         15.626934   0.000000
     88         15.626934   0.000000
     89         16.095466   0.000000
     90         16.095466   0.000000
     91         16.654497   0.000000
     92         16.654497   0.000000
     93         17.799089   0.000000
     94         17.799089   0.000000
     95         18.371375   0.000000
     96         18.371375   0.000000
     97         18.866356   0.000000
     98         18.866356   0.000000
     99         19.320952   0.000000
    100         19.320952   0.000000
    101         19.788286   0.000000
    102         19.788286   0.000000
    103         20.191861   0.000000
    104         20.191861   0.000000
    105         20.411454   0.000000
    106         20.411454   0.000000
    107         20.766702   0.000000
    108         20.766702   0.000000
    109         21.727344   0.000000
    110         21.727344   0.000000
    111         22.275469   0.000000
    112         22.275469   0.000000
    113         22.516114   0.000000
    114         22.516114   0.000000
    115         22.993929   0.000000
    116         22.993929   0.000000
    117         23.515677   0.000000
    118         23.515677   0.000000
    119         23.853290   0.000000
    120         23.853290   0.000000
    121         24.116643   0.000000
    122         24.116643   0.000000
    123         24.575327   0.000000
    124         24.575327   0.000000
    125         25.025861   0.000000
    126         25.025861   0.000000
    127         25.575486   0.000000
    128         25.575486   0.000000
    129         25.915776   0.000000
    130         25.915776   0.000000
    131         26.037491   0.000000
    132         26.037491   0.000000
    133         26.337632   0.000000
    134         26.337632   0.000000
    135         26.730600   0.000000
    136         26.730600   0.000000
    137         27.015416   0.000000
    138         27.015416   0.000000
    139         27.375264   0.000000
    140         27.375360   0.000000

  0.1875000E+00  0.1875000E+00  0.5000000E+00  0.0000000E+00
      1        -25.451848   1.000000
      2        -25.451848   1.000000
      3        -25.438932   1.000000
      4        -25.438932   1.000000
      5        -25.409443   1.000000
      6        -25.409443   1.000000
      7        -25.386827   1.000000
      8        -25.386827   1.000000
      9        -25.381421   1.000000
     10        -25.381421   1.000000
     11        -12.304143   1.000000
     12        -12.304143   1.000000
     13        -11.222824   1.000000
     14        -11.222824   1.000000
     15        -10.866203   1.000000
     16        -10.866203   1.000000
     17         -5.870675   1.000000
     18         -5.870675   1.000000
     19         -2.415986   1.000000
     20         -2.415986   1.000000
     21         -1.970979   1.000000
     22         -1.970979   1.000000
     23         -1.606554   1.000000
     24         -1.606554   1.000000
     25         -1.194036   1.000000
     26         -1.194036   1.000000
     27         -0.874573   1.000000
     28         -0.874573   1.000000
     29         -0.637932   1.000000
     30         -0.637932   1.000000
     31         -0.509161   1.000000
     32         -0.509161   1.000000
     33         -0.438945   1.000000
     34         -0.438945   1.000000
     35          0.540127   1.000000
     36          0.540127   1.000000
     37          0.568453   1.000000
     38          0.568453   1.000000
     39          0.650843   1.000000
     40          0.650844   1.000000
     41          0.713128   1.000000
     42          0.713128   1.000000
     43          0.961180   1.000000
     44          0.961180   1.000000
     45          1.103412   1.000000
     46          1.103413   1.000000
     47          1.567188   1.000000
     48          1.567188   1.000000
     49          1.901970   1.000000
     50          1.901970   1.000000
     51          2.327450   1.000000
     52          2.327450   1.000000
     53          2.779200   1.000000
     54          2.779200   1.000000
     55          5.304018   0.000000
     56          5.304019   0.000000
     57          6.717104   0.000000
     58          6.717105   0.000000
     59          7.965139   0.000000
     60          7.965139   0.000000
     61          8.539289   0.000000
     62          8.539289   0.000000
     63          9.180598   0.000000
     64          9.180598   0.000000
     65          9.655936   0.000000
     66          9.655936   0.000000
     67         10.150028   0.000000
     68         10.150028   0.000000
     69         10.405607   0.000000
     70         10.405608   0.000000
     71         10.856795   0.000000
     72         10.856795   0.000000
     73         11.702065   0.000000
     74         11.702065   0.000000
     75         12.152332   0.000000
     76         12.152333   0.000000
     77         13.202250   0.000000
     78         13.202250   0.000000
     79         13.468590   0.000000
     80         13.468590   0.000000
     81         14.026820   0.000000
     82         14.026820   0.000000
     83         14.733274   0.000000
     84         14.733274   0.000000
     85         15.183347   0.000000
     86         15.183347   0.000000
     87         15.715050   0.000000
     88         15.715050   0.000000
     89         16.208834   0.000000
     90         16.208834   0.000000
     91         16.745317   0.000000
     92         16.745317   0.000000
     93         17.794621   0.000000
     94         17.794621   0.000000
     95         18.312574   0.000000
     96         18.312574   0.000000
     97         18.788772   0.000000
     98         18.788772   0.000000
     99         19.203303   0.000000
    100         19.203303   0.000000
    101         19.728983   0.000000
    102         19.728983   0.000000
    103         20.090818   0.000000
    104         20.090818   0.000000
    105         20.389200   0.000000
    106         20.389200   0.000000
    107         20.784673   0.000000
    108         20.784673   0.000000
    109         21.692796   0.000000
    110         21.692796   0.000000
    111         22.270741   0.000000
    112         22.270741   0.000000
    113         22.467542   0.000000
    114         22.467542   0.000000
    115         22.981583   0.000000
    116         22.981583   0.000000
    117         23.589936   0.000000
    118         23.589936   0.000000
    119         23.881423   0.000000
    120         23.881423   0.000000
    121         24.149365   0.000000
    122         24.149365   0.000000
    123         24.538994   0.000000
    124         24.538994   0.000000
    125         25.029241   0.000000
    126         25.029241   0.000000
    127         25.630066   0.000000
    128         25.630066   0.000000
    129         25.951086   0.000000
    130         25.951086   0.000000
    131         26.053250   0.000000
    132         26.053250   0.000000
    133         26.337275   0.000000
    134         26.337275   0.000000
    135         26.754069   0.000000
    136         26.754069   0.000000
    137         27.029927   0.000000
    138         27.029928   0.000000
    139         27.398326   0.000000
    140         27.404231   0.000000

  0.2031250E+00  0.2031250E+00  0.5000000E+00  0.0000000E+00
      1        -25.452028   1.000000
      2        -25.452028   1.000000
      3        -25.439111   1.000000
      4        -25.439111   1.000000
      5        -25.409622   1.000000
      6        -25.409622   1.000000
      7        -25.387003   1.000000
      8        -25.387002   1.000000
      9        -25.381598   1.000000
     10        -25.381598   1.000000
     11        -12.296451   1.000000
     12        -12.296450   1.000000
     13        -11.230444   1.000000
     14        -11.230444   1.000000
     15        -10.872111   1.000000
     16        -10.872110   1.000000
     17         -5.863818   1.000000
     18         -5.863817   1.000000
     19         -2.425744   1.000000
     20         -2.425744   1.000000
     21         -1.965990   1.000000
     22         -1.965990   1.000000
     23         -1.586393   1.000000
     24         -1.586393   1.000000
     25         -1.182678   1.000000
     26         -1.182678   1.000000
     27         -0.882700   1.000000
     28         -0.882700   1.000000
     29         -0.639923   1.000000
     30         -0.639923   1.000000
     31         -0.507611   1.000000
     32         -0.507611   1.000000
     33         -0.437816   1.000000
     34         -0.437816   1.000000
     35          0.539138   1.000000
     36          0.539138   1.000000
     37          0.566762   1.000000
     38          0.566762   1.000000
     39          0.649281   1.000000
     40          0.649281   1.000000
     41          0.712557   1.000000
     42          0.712558   1.000000
     43          0.971692   1.000000
     44          0.971692   1.000000
     45          1.122926   1.000000
     46          1.122926   1.000000
     47          1.560578   1.000000
     48          1.560578   1.000000
     49          1.900295   1.000000
     50          1.900295   1.000000
     51          2.280223   1.000000
     52          2.280223   1.000000
     53          2.755025   1.000000
     54          2.755025   1.000000
     55          5.327108   0.000000
     56          5.327108   0.000000
     57          6.739623   0.000000
     58          6.739623   0.000000
     59          7.953551   0.000000
     60          7.953551   0.000000
     61          8.503872   0.000000
     62          8.503872   0.000000
     63          9.186044   0.000000
     64          9.186044   0.000000
     65          9.672127   0.000000
     66          9.672127   0.000000
     67         10.126229   0.000000
     68         10.126229   0.000000
     69         10.364746   0.000000
     70         10.364746   0.000000
     71         10.852314   0.000000
     72         10.852314   0.000000
     73         11.715192   0.000000
     74         11.715192   0.000000
     75         12.102932   0.000000
     76         12.102932   0.000000
     77         13.198148   0.000000
     78         13.198148   0.000000
     79         13.487741   0.000000
     80         13.487741   0.000000
     81         14.032229   0.000000
     82         14.032229   0.000000
     83         14.802561   0.000000
     84         14.802561   0.000000
     85         15.262358   0.000000
     86         15.262358   0.000000
     87         15.802749   0.000000
     88         15.802749   0.000000
     89         16.325438   0.000000
     90         16.325438   0.000000
     91         16.838830   0.000000
     92         16.838830   0.000000
     93         17.791303   0.000000
     94         17.791303   0.000000
     95         18.253055   0.000000
     96         18.253055   0.000000
     97         18.712249   0.000000
     98         18.712249   0.000000
     99         19.093425   0.000000
    100         19.093425   0.000000
    101         19.664105   0.000000
    102         19.664105   0.000000
    103         19.974356   0.000000
    104         19.974356   0.000000
    105         20.374228   0.000000
    106         20.374228   0.000000
    107         20.829509   0.000000
    108         20.829509   0.000000
    109         21.643688   0.000000
    110         21.643688   0.000000
    111         22.219818   0.000000
    112         22.219818   0.000000
    113         22.463060   0.000000
    114         22.463060   0.000000
    115         22.984492   0.000000
    116         22.984492   0.000000
    117         23.643108   0.000000
    118         23.643108   0.000000
    119         23.875377   0.000000
    120         23.875377   0.000000
    121         24.183332   0.000000
    122         24.183332   0.000000
    123         24.506436   0.000000
    124         24.506436   0.000000
    125         25.040315   0.000000
    126         25.040315   0.000000
    127         25.702828   0.000000
    128         25.702828   0.000000
    129         25.950266   0.000000
    130         25.950266   0.000000
    131         26.085926   0.000000
    132         26.085926   0.000000
    133         26.337002   0.000000
    134         26.337002   0.000000
    135         26.765923   0.000000
    136         26.765923   0.000000
    137         27.054193   0.000000
    138         27.054195   0.000000
    139         27.405366   0.000000
    140         27.405642   0.000000

  0.2187500E+00  0.2187500E+00  0.5000000E+00  0.0000000E+00
      1        -25.452212   1.000000
      2        -25.452212   1.000000
      3        -25.439294   1.000000
      4        -25.439294   1.000000
      5        -25.409804   1.000000
      6        -25.409804   1.000000
      7        -25.387185   1.000000
      8        -25.387185   1.000000
      9        -25.381782   1.000000
     10        -25.381782   1.000000
     11        -12.288384   1.000000
     12        -12.288383   1.000000
     13        -11.238425   1.000000
     14        -11.238425   1.000000
     15        -10.878208   1.000000
     16        -10.878208   1.000000
     17         -5.856679   1.000000
     18         -5.856679   1.000000
     19         -2.435131   1.000000
     20         -2.435131   1.000000
     21         -1.960309   1.000000
     22         -1.960309   1.000000
     23         -1.565510   1.000000
     24         -1.565510   1.000000
     25         -1.175284   1.000000
     26         -1.175284   1.000000
     27         -0.888639   1.000000
     28         -0.888639   1.000000
     29         -0.641800   1.000000
     30         -0.641800   1.000000
     31         -0.505900   1.000000
     32         -0.505900   1.000000
     33         -0.436712   1.000000
     34         -0.436712   1.000000
     35          0.538131   1.000000
     36          0.538131   1.000000
     37          0.565170   1.000000
     38          0.565170   1.000000
     39          0.647754   1.000000
     40          0.647754   1.000000
     41          0.711819   1.000000
     42          0.711819   1.000000
     43          0.982638   1.000000
     44          0.982638   1.000000
     45          1.142959   1.000000
     46          1.142959   1.000000
     47          1.553434   1.000000
     48          1.553434   1.000000
     49          1.897564   1.000000
     50          1.897564   1.000000
     51          2.236806   1.000000
     52          2.236806   1.000000
     53          2.729209   1.000000
     54          2.729210   1.000000
     55          5.348303   0.000000
     56          5.348303   0.000000
     57          6.761262   0.000000
     58          6.761262   0.000000
     59          7.937598   0.000000
     60          7.937598   0.000000
     61          8.465677   0.000000
     62          8.465678   0.000000
     63          9.194948   0.000000
     64          9.194948   0.000000
     65          9.690218   0.000000
     66          9.690218   0.000000
     67         10.094549   0.000000
     68         10.094549   0.000000
     69         10.335683   0.000000
     70         10.335683   0.000000
     71         10.853864   0.000000
     72         10.853864   0.000000
     73         11.721965   0.000000
     74         11.721965   0.000000
     75         12.061860   0.000000
     76         12.061860   0.000000
     77         13.185360   0.000000
     78         13.185360   0.000000
     79         13.513359   0.000000
     80         13.513359   0.000000
     81         14.041637   0.000000
     82         14.041637   0.000000
     83         14.872569   0.000000
     84         14.872569   0.000000
     85         15.335678   0.000000
     86         15.335678   0.000000
     87         15.888977   0.000000
     88         15.888977   0.000000
     89         16.442842   0.000000
     90         16.442842   0.000000
     91         16.932808   0.000000
     92         16.932808   0.000000
     93         17.786778   0.000000
     94         17.786778   0.000000
     95         18.194678   0.000000
     96         18.194678   0.000000
     97         18.641814   0.000000
     98         18.641814   0.000000
     99         18.992797   0.000000
    100         18.992797   0.000000
    101         19.593918   0.000000
    102         19.593918   0.000000
    103         19.856813   0.000000
    104         19.856813   0.000000
    105         20.366608   0.000000
    106         20.366608   0.000000
    107         20.883595   0.000000
    108         20.883595   0.000000
    109         21.587008   0.000000
    110         21.587008   0.000000
    111         22.135253   0.000000
    112         22.135253   0.000000
    113         22.492562   0.000000
    114         22.492562   0.000000
    115         22.998677   0.000000
    116         22.998677   0.000000
    117         23.659404   0.000000
    118         23.659404   0.000000
    119         23.845902   0.000000
    120         23.845902   0.000000
    121         24.210927   0.000000
    122         24.210927   0.000000
    123         24.488773   0.000000
    124         24.488773   0.000000
    125         25.072129   0.000000
    126         25.072130   0.000000
    127         25.770237   0.000000
    128         25.770237   0.000000
    129         25.940077   0.000000
    130         25.940077   0.000000
    131         26.102859   0.000000
    132         26.102859   0.000000
    133         26.361836   0.000000
    134         26.361836   0.000000
    135         26.752650   0.000000
    136         26.752650   0.000000
    137         27.086969   0.000000
    138         27.086975   0.000000
    139         27.368225   0.000000
    140         27.368597   0.000000

  0.2343750E+00  0.2343750E+00  0.5000000E+00  0.0000000E+00
      1        -25.452400   1.000000
      2        -25.452400   1.000000
      3        -25.439482   1.000000
      4        -25.439481   1.000000
      5        -25.409991   1.000000
      6        -25.409990   1.000000
      7        -25.387368   1.000000
      8        -25.387368   1.000000
      9        -25.381967   1.000000
     10        -25.381966   1.000000
     11        -12.280004   1.000000
     12        -12.280004   1.000000
     13        -11.246712   1.000000
     14        -11.246711   1.000000
     15        -10.884437   1.000000
     16        -10.884437   1.000000
     17         -5.849323   1.000000
     18         -5.849323   1.000000
     19         -2.444011   1.000000
     20         -2.444010   1.000000
     21         -1.953941   1.000000
     22         -1.953941   1.000000
     23         -1.544295   1.000000
     24         -1.544295   1.000000
     25         -1.172213   1.000000
     26         -1.172213   1.000000
     27         -0.892108   1.000000
     28         -0.892108   1.000000
     29         -0.643430   1.000000
     30         -0.643430   1.000000
     31         -0.504070   1.000000
     32         -0.504070   1.000000
     33         -0.435607   1.000000
     34         -0.435607   1.000000
     35          0.537075   1.000000
     36          0.537075   1.000000
     37          0.563736   1.000000
     38          0.563736   1.000000
     39          0.646345   1.000000
     40          0.646345   1.000000
     41          0.710866   1.000000
     42          0.710866   1.000000
     43          0.993920   1.000000
     44          0.993920   1.000000
     45          1.163091   1.000000
     46          1.163092   1.000000
     47          1.545905   1.000000
     48          1.545905   1.000000
     49          1.893416   1.000000
     50          1.893416   1.000000
     51          2.198229   1.000000
     52          2.198229   1.000000
     53          2.701936   1.000000
     54          2.701936   1.000000
     55          5.367515   0.000000
     56          5.367515   0.000000
     57          6.781557   0.000000
     58          6.781558   0.000000
     59          7.916235   0.000000
     60          7.916235   0.000000
     61          8.427448   0.000000
     62          8.427448   0.000000
     63          9.205747   0.000000
     64          9.205747   0.000000
     65          9.708514   0.000000
     66          9.708514   0.000000
     67         10.057154   0.000000
     68         10.057154   0.000000
     69         10.320154   0.000000
     70         10.320154   0.000000
     71         10.860145   0.000000
     72         10.860145   0.000000
     73         11.717873   0.000000
     74         11.717873   0.000000
     75         12.034725   0.000000
     76         12.034725   0.000000
     77         13.165247   0.000000
     78         13.165248   0.000000
     79         13.540169   0.000000
     80         13.540169   0.000000
     81         14.059179   0.000000
     82         14.059179   0.000000
     83         14.940878   0.000000
     84         14.940878   0.000000
     85         15.403274   0.000000
     86         15.403274   0.000000
     87         15.972345   0.000000
     88         15.972345   0.000000
     89         16.559010   0.000000
     90         16.559010   0.000000
     91         17.024392   0.000000
     92         17.024392   0.000000
     93         17.775601   0.000000
     94         17.775601   0.000000
     95         18.142397   0.000000
     96         18.142397   0.000000
     97         18.582997   0.000000
     98         18.582997   0.000000
     99         18.902186   0.000000
    100         18.902186   0.000000
    101         19.517967   0.000000
    102         19.517967   0.000000
    103         19.746780   0.000000
    104         19.746780   0.000000
    105         20.367971   0.000000
    106         20.367971   0.000000
    107         20.930927   0.000000
    108         20.930927   0.000000
    109         21.532934   0.000000
    110         21.532934   0.000000
    111         22.039839   0.000000
    112         22.039839   0.000000
    113         22.535563   0.000000
    114         22.535563   0.000000
    115         23.018315   0.000000
    116         23.018315   0.000000
    117         23.611337   0.000000
    118         23.611337   0.000000
    119         23.830266   0.000000
    120         23.830266   0.000000
    121         24.224892   0.000000
    122         24.224893   0.000000
    123         24.489488   0.000000
    124         24.489488   0.000000
    125         25.127861   0.000000
    126         25.127861   0.000000
    127         25.794437   0.000000
    128         25.794437   0.000000
    129         25.948252   0.000000
    130         25.948252   0.000000
    131         26.095184   0.000000
    132         26.095184   0.000000
    133         26.427161   0.000000
    134         26.427161   0.000000
    135         26.714499   0.000000
    136         26.714499   0.000000
    137         27.108065   0.000000
    138         27.108067   0.000000
    139         27.306522   0.000000
    140         27.306701   0.000000

  0.2500000E+00  0.2500000E+00  0.5000000E+00  0.0000000E+00
      1        -25.452587   1.000000
      2        -25.452586   1.000000
      3        -25.439668   1.000000
      4        -25.439668   1.000000
      5        -25.410178   1.000000
      6        -25.410178   1.000000
      7        -25.387555   1.000000
      8        -25.387555   1.000000
      9        -25.382152   1.000000
     10        -25.382152   1.000000
     11        -12.271375   1.000000
     12        -12.271375   1.000000
     13        -11.255239   1.000000
     14        -11.255239   1.000000
     15        -10.890735   1.000000
     16        -10.890735   1.000000
     17         -5.841818   1.000000
     18         -5.841818   1.000000
     19         -2.452269   1.000000
     20         -2.452269   1.000000
     21         -1.946894   1.000000
     22         -1.946894   1.000000
     23         -1.523222   1.000000
     24         -1.523222   1.000000
     25         -1.173321   1.000000
     26         -1.173321   1.000000
     27         -0.893225   1.000000
     28         -0.893225   1.000000
     29         -0.644646   1.000000
     30         -0.644646   1.000000
     31         -0.502184   1.000000
     32         -0.502184   1.000000
     33         -0.434452   1.000000
     34         -0.434452   1.000000
     35          0.535924   1.000000
     36          0.535924   1.000000
     37          0.562520   1.000000
     38          0.562520   1.000000
     39          0.645131   1.000000
     40          0.645131   1.000000
     41          0.709664   1.000000
     42          0.709664   1.000000
     43          1.005422   1.000000
     44          1.005422   1.000000
     45          1.182802   1.000000
     46          1.182802   1.000000
     47          1.538274   1.000000
     48          1.538274   1.000000
     49          1.887528   1.000000
     50          1.887528   1.000000
     51          2.165385   1.000000
     52          2.165386   1.000000
     53          2.673406   1.000000
     54          2.673407   1.000000
     55          5.384717   0.000000
     56          5.384718   0.000000
     57          6.800115   0.000000
     58          6.800115   0.000000
     59          7.888598   0.000000
     60          7.888599   0.000000
     61          8.391664   0.000000
     62          8.391664   0.000000
     63          9.217153   0.000000
     64          9.217153   0.000000
     65          9.724802   0.000000
     66          9.724802   0.000000
     67         10.018093   0.000000
     68         10.018093   0.000000
     69         10.317583   0.000000
     70         10.317583   0.000000
     71         10.870153   0.000000
     72         10.870153   0.000000
     73         11.699916   0.000000
     74         11.699916   0.000000
     75         12.025753   0.000000
     76         12.025753   0.000000
     77         13.138857   0.000000
     78         13.138857   0.000000
     79         13.563548   0.000000
     80         13.563548   0.000000
     81         14.088419   0.000000
     82         14.088419   0.000000
     83         15.004527   0.000000
     84         15.004527   0.000000
     85         15.465839   0.000000
     86         15.465839   0.000000
     87         16.051353   0.000000
     88         16.051353   0.000000
     89         16.672191   0.000000
     90         16.672191   0.000000
     91         17.110402   0.000000
     92         17.110402   0.000000
     93         17.749785   0.000000
     94         17.749785   0.000000
     95         18.104239   0.000000
     96         18.104239   0.000000
     97         18.539625   0.000000
     98         18.539625   0.000000
     99         18.822829   0.000000
    100         18.822829   0.000000
    101         19.435369   0.000000
    102         19.435369   0.000000
    103         19.651596   0.000000
    104         19.651596   0.000000
    105         20.378159   0.000000
    106         20.378159   0.000000
    107         20.955225   0.000000
    108         20.955226   0.000000
    109         21.493870   0.000000
    110         21.493870   0.000000
    111         21.945966   0.000000
    112         21.945966   0.000000
    113         22.582917   0.000000
    114         22.582917   0.000000
    115         23.034653   0.000000
    116         23.034653   0.000000
    117         23.511465   0.000000
    118         23.511465   0.000000
    119         23.835859   0.000000
    120         23.835859   0.000000
    121         24.222840   0.000000
    122         24.222840   0.000000
    123         24.504930   0.000000
    124         24.504930   0.000000
    125         25.201460   0.000000
    126         25.201460   0.000000
    127         25.763475   0.000000
    128         25.763475   0.000000
    129         25.965351   0.000000
    130         25.965351   0.000000
    131         26.089025   0.000000
    132         26.089025   0.000000
    133         26.521577   0.000000
    134         26.521577   0.000000
    135         26.661153   0.000000
    136         26.661153   0.000000
    137         27.085984   0.000000
    138         27.085987   0.000000
    139         27.262005   0.000000
    140         27.262046   0.000000

  0.2656250E+00  0.2656250E+00  0.5000000E+00  0.0000000E+00
      1        -25.452774   1.000000
      2        -25.452774   1.000000
      3        -25.439856   1.000000
      4        -25.439856   1.000000
      5        -25.410366   1.000000
      6        -25.410365   1.000000
      7        -25.387740   1.000000
      8        -25.387740   1.000000
      9        -25.382338   1.000000
     10        -25.382337   1.000000
     11        -12.262570   1.000000
     12        -12.262570   1.000000
     13        -11.263939   1.000000
     14        -11.263939   1.000000
     15        -10.897038   1.000000
     16        -10.897038   1.000000
     17         -5.834235   1.000000
     18         -5.834235   1.000000
     19         -2.459819   1.000000
     20         -2.459819   1.000000
     21         -1.939184   1.000000
     22         -1.939184   1.000000
     23         -1.502891   1.000000
     24         -1.502890   1.000000
     25         -1.177897   1.000000
     26         -1.177897   1.000000
     27         -0.892526   1.000000
     28         -0.892526   1.000000
     29         -0.645277   1.000000
     30         -0.645277   1.000000
     31         -0.500325   1.000000
     32         -0.500325   1.000000
     33         -0.433203   1.000000
     34         -0.433203   1.000000
     35          0.534628   1.000000
     36          0.534628   1.000000
     37          0.561593   1.000000
     38          0.561593   1.000000
     39          0.644164   1.000000
     40          0.644164   1.000000
     41          0.708196   1.000000
     42          0.708197   1.000000
     43          1.016999   1.000000
     44          1.016999   1.000000
     45          1.201439   1.000000
     46          1.201439   1.000000
     47          1.530993   1.000000
     48          1.530993   1.000000
     49          1.879736   1.000000
     50          1.879736   1.000000
     51          2.138862   1.000000
     52          2.138862   1.000000
     53          2.643851   1.000000
     54          2.643851   1.000000
     55          5.399922   0.000000
     56          5.399922   0.000000
     57          6.816628   0.000000
     58          6.816628   0.000000
     59          7.854317   0.000000
     60          7.854317   0.000000
     61          8.360155   0.000000
     62          8.360155   0.000000
     63          9.228224   0.000000
     64          9.228224   0.000000
     65          9.736430   0.000000
     66          9.736430   0.000000
     67          9.981798   0.000000
     68          9.981798   0.000000
     69         10.326619   0.000000
     70         10.326619   0.000000
     71         10.883075   0.000000
     72         10.883075   0.000000
     73         11.669643   0.000000
     74         11.669643   0.000000
     75         12.034709   0.000000
     76         12.034709   0.000000
     77         13.106796   0.000000
     78         13.106796   0.000000
     79         13.580743   0.000000
     80         13.580743   0.000000
     81         14.131299   0.000000
     82         14.131300   0.000000
     83         15.059991   0.000000
     84         15.059991   0.000000
     85         15.524707   0.000000
     86         15.524707   0.000000
     87         16.124652   0.000000
     88         16.124652   0.000000
     89         16.780648   0.000000
     90         16.780648   0.000000
     91         17.187605   0.000000
     92         17.187606   0.000000
     93         17.705200   0.000000
     94         17.705200   0.000000
     95         18.085494   0.000000
     96         18.085494   0.000000
     97         18.511026   0.000000
     98         18.511026   0.000000
     99         18.757831   0.000000
    100         18.757831   0.000000
    101         19.346788   0.000000
    102         19.346788   0.000000
    103         19.577450   0.000000
    104         19.577450   0.000000
    105         20.395074   0.000000
    106         20.395074   0.000000
    107         20.944184   0.000000
    108         20.944184   0.000000
    109         21.476110   0.000000
    110         21.476110   0.000000
    111         21.865212   0.000000
    112         21.865212   0.000000
    113         22.628835   0.000000
    114         22.628835   0.000000
    115         23.032173   0.000000
    116         23.032173   0.000000
    117         23.404760   0.000000
    118         23.404760   0.000000
    119         23.845317   0.000000
    120         23.845317   0.000000
    121         24.207952   0.000000
    122         24.207953   0.000000
    123         24.527825   0.000000
    124         24.527825   0.000000
    125         25.280457   0.000000
    126         25.280457   0.000000
    127         25.705143   0.000000
    128         25.705143   0.000000
    129         25.950096   0.000000
    130         25.950096   0.000000
    131         26.108150   0.000000
    132         26.108150   0.000000
    133         26.567069   0.000000
    134         26.567069   0.000000
    135         26.662178   0.000000
    136         26.662178   0.000000
    137         27.026546   0.000000
    138         27.026548   0.000000
    139         27.233792   0.000000
    140         27.233821   0.000000

  0.2812500E+00  0.2812500E+00  0.5000000E+00  0.0000000E+00
      1        -25.452960   1.000000
      2        -25.452960   1.000000
      3        -25.440040   1.000000
      4        -25.440040   1.000000
      5        -25.410550   1.000000
      6        -25.410549   1.000000
      7        -25.387922   1.000000
      8        -25.387921   1.000000
      9        -25.382521   1.000000
     10        -25.382521   1.000000
     11        -12.253664   1.000000
     12        -12.253664   1.000000
     13        -11.272737   1.000000
     14        -11.272737   1.000000
     15        -10.903286   1.000000
     16        -10.903286   1.000000
     17         -5.826650   1.000000
     18         -5.826649   1.000000
     19         -2.466602   1.000000
     20         -2.466601   1.000000
     21         -1.930824   1.000000
     22         -1.930824   1.000000
     23         -1.484073   1.000000
     24         -1.484073   1.000000
     25         -1.184723   1.000000
     26         -1.184723   1.000000
     27         -0.890828   1.000000
     28         -0.890827   1.000000
     29         -0.645136   1.000000
     30         -0.645136   1.000000
     31         -0.498582   1.000000
     32         -0.498582   1.000000
     33         -0.431800   1.000000
     34         -0.431800   1.000000
     35          0.533160   1.000000
     36          0.533160   1.000000
     37          0.561012   1.000000
     38          0.561012   1.000000
     39          0.643486   1.000000
     40          0.643486   1.000000
     41          0.706459   1.000000
     42          0.706459   1.000000
     43          1.028469   1.000000
     44          1.028469   1.000000
     45          1.218228   1.000000
     46          1.218228   1.000000
     47          1.524730   1.000000
     48          1.524730   1.000000
     49          1.870191   1.000000
     50          1.870191   1.000000
     51          2.118762   1.000000
     52          2.118762   1.000000
     53          2.613538   1.000000
     54          2.613538   1.000000
     55          5.413171   0.000000
     56          5.413171   0.000000
     57          6.830881   0.000000
     58          6.830881   0.000000
     59          7.813766   0.000000
     60          7.813767   0.000000
     61          8.333856   0.000000
     62          8.333856   0.000000
     63          9.238327   0.000000
     64          9.238327   0.000000
     65          9.740675   0.000000
     66          9.740675   0.000000
     67          9.952161   0.000000
     68          9.952161   0.000000
     69         10.345825   0.000000
     70         10.345825   0.000000
     71         10.898184   0.000000
     72         10.898184   0.000000
     73         11.632133   0.000000
     74         11.632133   0.000000
     75         12.057889   0.000000
     76         12.057889   0.000000
     77         13.069487   0.000000
     78         13.069487   0.000000
     79         13.591258   0.000000
     80         13.591258   0.000000
     81         14.187552   0.000000
     82         14.187552   0.000000
     83         15.103412   0.000000
     84         15.103413   0.000000
     85         15.581592   0.000000
     86         15.581592   0.000000
     87         16.191255   0.000000
     88         16.191255   0.000000
     89         16.882338   0.000000
     90         16.882338   0.000000
     91         17.252442   0.000000
     92         17.252442   0.000000
     93         17.648624   0.000000
     94         17.648624   0.000000
     95         18.082964   0.000000
     96         18.082964   0.000000
     97         18.489843   0.000000
     98         18.489843   0.000000
     99         18.712652   0.000000
    100         18.712653   0.000000
    101         19.256413   0.000000
    102         19.256413   0.000000
    103         19.528708   0.000000
    104         19.528708   0.000000
    105         20.414362   0.000000
    106         20.414362   0.000000
    107         20.900251   0.000000
    108         20.900251   0.000000
    109         21.465094   0.000000
    110         21.465094   0.000000
    111         21.815542   0.000000
    112         21.815542   0.000000
    113         22.663433   0.000000
    114         22.663433   0.000000
    115         22.990999   0.000000
    116         22.990999   0.000000
    117         23.332557   0.000000
    118         23.332557   0.000000
    119         23.851774   0.000000
    120         23.851774   0.000000
    121         24.185634   0.000000
    122         24.185634   0.000000
    123         24.550662   0.000000
    124         24.550662   0.000000
    125         25.344283   0.000000
    126         25.344283   0.000000
    127         25.643817   0.000000
    128         25.643817   0.000000
    129         25.906642   0.000000
    130         25.906642   0.000000
    131         26.135778   0.000000
    132         26.135778   0.000000
    133         26.511824   0.000000
    134         26.511824   0.000000
    135         26.754739   0.000000
    136         26.754739   0.000000
    137         26.961732   0.000000
    138         26.961732   0.000000
    139         27.213759   0.000000
    140         27.213795   0.000000

  0.2968750E+00  0.2968750E+00  0.5000000E+00  0.0000000E+00
      1        -25.453141   1.000000
      2        -25.453141   1.000000
      3        -25.440222   1.000000
      4        -25.440222   1.000000
      5        -25.410732   1.000000
      6        -25.410732   1.000000
      7        -25.388101   1.000000
      8        -25.388100   1.000000
      9        -25.382701   1.000000
     10        -25.382701   1.000000
     11        -12.244742   1.000000
     12        -12.244742   1.000000
     13        -11.281557   1.000000
     14        -11.281557   1.000000
     15        -10.909416   1.000000
     16        -10.909416   1.000000
     17         -5.819138   1.000000
     18         -5.819138   1.000000
     19         -2.472580   1.000000
     20         -2.472580   1.000000
     21         -1.921834   1.000000
     22         -1.921834   1.000000
     23         -1.467764   1.000000
     24         -1.467764   1.000000
     25         -1.192204   1.000000
     26         -1.192204   1.000000
     27         -0.889030   1.000000
     28         -0.889030   1.000000
     29         -0.644070   1.000000
     30         -0.644070   1.000000
     31         -0.497055   1.000000
     32         -0.497055   1.000000
     33         -0.430189   1.000000
     34         -0.430189   1.000000
     35          0.531511   1.000000
     36          0.531512   1.000000
     37          0.560807   1.000000
     38          0.560807   1.000000
     39          0.643110   1.000000
     40          0.643110   1.000000
     41          0.704462   1.000000
     42          0.704462   1.000000
     43          1.039623   1.000000
     44          1.039623   1.000000
     45          1.232332   1.000000
     46          1.232332   1.000000
     47          1.520329   1.000000
     48          1.520329   1.000000
     49          1.859419   1.000000
     50          1.859419   1.000000
     51          2.104621   1.000000
     52          2.104621   1.000000
     53          2.582771   1.000000
     54          2.582771   1.000000
     55          5.424524   0.000000
     56          5.424524   0.000000
     57          6.842754   0.000000
     58          6.842754   0.000000
     59          7.768092   0.000000
     60          7.768092   0.000000
     61          8.312806   0.000000
     62          8.312806   0.000000
     63          9.247077   0.000000
     64          9.247077   0.000000
     65          9.735780   0.000000
     66          9.735780   0.000000
     67          9.931773   0.000000
     68          9.931773   0.000000
     69         10.373516   0.000000
     70         10.373517   0.000000
     71         10.914770   0.000000
     72         10.914770   0.000000
     73         11.592692   0.000000
     74         11.592692   0.000000
     75         12.091356   0.000000
     76         12.091356   0.000000
     77         13.027445   0.000000
     78         13.027445   0.000000
     79         13.596222   0.000000
     80         13.596222   0.000000
     81         14.255100   0.000000
     82         14.255101   0.000000
     83         15.131252   0.000000
     84         15.131252   0.000000
     85         15.638037   0.000000
     86         15.638037   0.000000
     87         16.250652   0.000000
     88         16.250652   0.000000
     89         16.974502   0.000000
     90         16.974502   0.000000
     91         17.299423   0.000000
     92         17.299423   0.000000
     93         17.595385   0.000000
     94         17.595385   0.000000
     95         18.089570   0.000000
     96         18.089570   0.000000
     97         18.466247   0.000000
     98         18.466247   0.000000
     99         18.689775   0.000000
    100         18.689775   0.000000
    101         19.170737   0.000000
    102         19.170737   0.000000
    103         19.509870   0.000000
    104         19.509870   0.000000
    105         20.428136   0.000000
    106         20.428136   0.000000
    107         20.839707   0.000000
    108         20.839707   0.000000
    109         21.434613   0.000000
    110         21.434614   0.000000
    111         21.814909   0.000000
    112         21.814909   0.000000
    113         22.657864   0.000000
    114         22.657864   0.000000
    115         22.932366   0.000000
    116         22.932366   0.000000
    117         23.306949   0.000000
    118         23.306949   0.000000
    119         23.853375   0.000000
    120         23.853375   0.000000
    121         24.160652   0.000000
    122         24.160653   0.000000
    123         24.567478   0.000000
    124         24.567478   0.000000
    125         25.356406   0.000000
    126         25.356406   0.000000
    127         25.612485   0.000000
    128         25.612485   0.000000
    129         25.844919   0.000000
    130         25.844920   0.000000
    131         26.147822   0.000000
    132         26.147822   0.000000
    133         26.471998   0.000000
    134         26.471998   0.000000
    135         26.796484   0.000000
    136         26.796485   0.000000
    137         26.908045   0.000000
    138         26.908045   0.000000
    139         27.242788   0.000000
    140         27.242822   0.000000

  0.3125000E+00  0.3125000E+00  0.5000000E+00  0.0000000E+00
      1        -25.453318   1.000000
      2        -25.453318   1.000000
      3        -25.440398   1.000000
      4        -25.440398   1.000000
      5        -25.410907   1.000000
      6        -25.410907   1.000000
      7        -25.388276   1.000000
      8        -25.388275   1.000000
      9        -25.382877   1.000000
     10        -25.382877   1.000000
     11        -12.235893   1.000000
     12        -12.235893   1.000000
     13        -11.290310   1.000000
     14        -11.290309   1.000000
     15        -10.915367   1.000000
     16        -10.915367   1.000000
     17         -5.811779   1.000000
     18         -5.811779   1.000000
     19         -2.477744   1.000000
     20         -2.477744   1.000000
     21         -1.912237   1.000000
     22         -1.912237   1.000000
     23         -1.455169   1.000000
     24         -1.455169   1.000000
     25         -1.198515   1.000000
     26         -1.198515   1.000000
     27         -0.887933   1.000000
     28         -0.887933   1.000000
     29         -0.641982   1.000000
     30         -0.641982   1.000000
     31         -0.495832   1.000000
     32         -0.495832   1.000000
     33         -0.428327   1.000000
     34         -0.428327   1.000000
     35          0.529706   1.000000
     36          0.529707   1.000000
     37          0.560989   1.000000
     38          0.560989   1.000000
     39          0.643028   1.000000
     40          0.643028   1.000000
     41          0.702233   1.000000
     42          0.702234   1.000000
     43          1.050201   1.000000
     44          1.050202   1.000000
     45          1.243000   1.000000
     46          1.243001   1.000000
     47          1.518690   1.000000
     48          1.518690   1.000000
     49          1.848194   1.000000
     50          1.848194   1.000000
     51          2.095505   1.000000
     52          2.095505   1.000000
     53          2.551905   1.000000
     54          2.551906   1.000000
     55          5.434057   0.000000
     56          5.434058   0.000000
     57          6.852211   0.000000
     58          6.852211   0.000000
     59          7.718967   0.000000
     60          7.718967   0.000000
     61          8.296413   0.000000
     62          8.296413   0.000000
     63          9.254273   0.000000
     64          9.254273   0.000000
     65          9.722373   0.000000
     66          9.722373   0.000000
     67          9.920818   0.000000
     68          9.920818   0.000000
     69         10.407508   0.000000
     70         10.407508   0.000000
     71         10.932152   0.000000
     72         10.932152   0.000000
     73         11.555492   0.000000
     74         11.555492   0.000000
     75         12.132191   0.000000
     76         12.132191   0.000000
     77         12.981518   0.000000
     78         12.981518   0.000000
     79         13.597305   0.000000
     80         13.597305   0.000000
     81         14.330921   0.000000
     82         14.330921   0.000000
     83         15.141231   0.000000
     84         15.141231   0.000000
     85         15.694758   0.000000
     86         15.694758   0.000000
     87         16.302785   0.000000
     88         16.302785   0.000000
     89         17.053030   0.000000
     90         17.053030   0.000000
     91         17.320446   0.000000
     92         17.320446   0.000000
     93         17.563799   0.000000
     94         17.563799   0.000000
     95         18.099990   0.000000
     96         18.099990   0.000000
     97         18.439898   0.000000
     98         18.439898   0.000000
     99         18.679067   0.000000
    100         18.679067   0.000000
    101         19.096119   0.000000
    102         19.096119   0.000000
    103         19.526653   0.000000
    104         19.526653   0.000000
    105         20.423692   0.000000
    106         20.423692   0.000000
    107         20.782469   0.000000
    108         20.782469   0.000000
    109         21.383002   0.000000
    110         21.383002   0.000000
    111         21.856198   0.000000
    112         21.856198   0.000000
    113         22.573473   0.000000
    114         22.573473   0.000000
    115         22.921947   0.000000
    116         22.921947   0.000000
    117         23.304051   0.000000
    118         23.304051   0.000000
    119         23.848703   0.000000
    120         23.848703   0.000000
    121         24.136699   0.000000
    122         24.136699   0.000000
    123         24.574150   0.000000
    124         24.574150   0.000000
    125         25.299138   0.000000
    126         25.299138   0.000000
    127         25.619295   0.000000
    128         25.619295   0.000000
    129         25.772562   0.000000
    130         25.772562   0.000000
    131         26.129152   0.000000
    132         26.129152   0.000000
    133         26.471254   0.000000
    134         26.471254   0.000000
    135         26.773751   0.000000
    136         26.773751   0.000000
    137         26.866272   0.000000
    138         26.866273   0.000000
    139         27.340690   0.000000
    140         27.350720   0.000000

  0.3281250E+00  0.3281250E+00  0.5000000E+00  0.0000000E+00
      1        -25.453488   1.000000
      2        -25.453488   1.000000
      3        -25.440566   1.000000
      4        -25.440566   1.000000
      5        -25.411074   1.000000
      6        -25.411074   1.000000
      7        -25.388442   1.000000
      8        -25.388442   1.000000
      9        -25.383044   1.000000
     10        -25.383044   1.000000
     11        -12.227209   1.000000
     12        -12.227209   1.000000
     13        -11.298902   1.000000
     14        -11.298902   1.000000
     15        -10.921077   1.000000
     16        -10.921077   1.000000
     17         -5.804650   1.000000
     18         -5.804650   1.000000
     19         -2.482105   1.000000
     20         -2.482104   1.000000
     21         -1.902060   1.000000
     22         -1.902060   1.000000
     23         -1.447550   1.000000
     24         -1.447550   1.000000
     25         -1.201843   1.000000
     26         -1.201843   1.000000
     27         -0.888139   1.000000
     28         -0.888139   1.000000
     29         -0.638851   1.000000
     30         -0.638851   1.000000
     31         -0.494991   1.000000
     32         -0.494991   1.000000
     33         -0.426192   1.000000
     34         -0.426192   1.000000
     35          0.527789   1.000000
     36          0.527789   1.000000
     37          0.561543   1.000000
     38          0.561543   1.000000
     39          0.643226   1.000000
     40          0.643226   1.000000
     41          0.699819   1.000000
     42          0.699819   1.000000
     43          1.059899   1.000000
     44          1.059900   1.000000
     45          1.249808   1.000000
     46          1.249808   1.000000
     47          1.520506   1.000000
     48          1.520506   1.000000
     49          1.837332   1.000000
     50          1.837332   1.000000
     51          2.090244   1.000000
     52          2.090244   1.000000
     53          2.521356   1.000000
     54          2.521356   1.000000
     55          5.441862   0.000000
     56          5.441862   0.000000
     57          6.859293   0.000000
     58          6.859293   0.000000
     59          7.668271   0.000000
     60          7.668271   0.000000
     61          8.283796   0.000000
     62          8.283796   0.000000
     63          9.259852   0.000000
     64          9.259852   0.000000
     65          9.703337   0.000000
     66          9.703337   0.000000
     67          9.917266   0.000000
     68          9.917266   0.000000
     69         10.445062   0.000000
     70         10.445062   0.000000
     71         10.949776   0.000000
     72         10.949776   0.000000
     73         11.523690   0.000000
     74         11.523690   0.000000
     75         12.178091   0.000000
     76         12.178091   0.000000
     77         12.933121   0.000000
     78         12.933121   0.000000
     79         13.595948   0.000000
     80         13.595948   0.000000
     81         14.411575   0.000000
     82         14.411575   0.000000
     83         15.133127   0.000000
     84         15.133127   0.000000
     85         15.751327   0.000000
     86         15.751327   0.000000
     87         16.347875   0.000000
     88         16.347875   0.000000
     89         17.111011   0.000000
     90         17.111012   0.000000
     91         17.317157   0.000000
     92         17.317157   0.000000
     93         17.562289   0.000000
     94         17.562289   0.000000
     95         18.110331   0.000000
     96         18.110331   0.000000
     97         18.419873   0.000000
     98         18.419874   0.000000
     99         18.665122   0.000000
    100         18.665122   0.000000
    101         19.036967   0.000000
    102         19.036967   0.000000
    103         19.582439   0.000000
    104         19.582439   0.000000
    105         20.388355   0.000000
    106         20.388355   0.000000
    107         20.742957   0.000000
    108         20.742957   0.000000
    109         21.329506   0.000000
    110         21.329506   0.000000
    111         21.912339   0.000000
    112         21.912339   0.000000
    113         22.442503   0.000000
    114         22.442503   0.000000
    115         22.953903   0.000000
    116         22.953903   0.000000
    117         23.304676   0.000000
    118         23.304676   0.000000
    119         23.834660   0.000000
    120         23.834660   0.000000
    121         24.117055   0.000000
    122         24.117055   0.000000
    123         24.568523   0.000000
    124         24.568524   0.000000
    125         25.205064   0.000000
    126         25.205064   0.000000
    127         25.597295   0.000000
    128         25.597295   0.000000
    129         25.724160   0.000000
    130         25.724160   0.000000
    131         26.088063   0.000000
    132         26.088063   0.000000
    133         26.489631   0.000000
    134         26.489631   0.000000
    135         26.745879   0.000000
    136         26.745879   0.000000
    137         26.836674   0.000000
    138         26.836674   0.000000
    139         27.444538   0.000000
    140         27.448723   0.000000
