 vasp.6.4.2 20Jul23 (build Oct 17 2023 11:49:23) complex                         
 executed on             LinuxGNU date 2024.11.28  10:00:24
 running   50 mpi-ranks, with    1 threads/rank, on    1 nodes
 distrk:  each k-point on   10 cores,    5 groups
 distr:  one band on NCORE=   1 cores,   10 groups


--------------------------------------------------------------------------------------------------------


 INCAR:
   AEXX = 0.25
   ALGO = Normal
   EDIFF = 1e-06
   EDIFFG = -0.01
   ENCUT = 500.0
   GGA = Pe
   HFSCREEN = 0.208
   IBRION = 1
   ISMEAR = 0
   ISPIN = 1
   ISYM = 3
   KSPACING = 0.15
   LASPH = True
   LHFCALC = True
   LMAXMIX = 4
   LORBIT = 14
   LREAL = False
   NCORE = 4
   NBANDS = 140
   KPAR = 5
   NEDOS = 3000
   NELM = 200
   NELMIN = 2
   NSW = 0
   PREC = Accurate
   PRECFOCK = Fast
   SIGMA = 0.02
   TIME = 0.3

 POTCAR:    PAW_PBE Cu 22Jun2005                  
 POTCAR:    PAW_PBE Ge_d 03Jul2007                
 POTCAR:    PAW_PBE Se 06Sep2000                  
 POTCAR:    PAW_PBE Cu 22Jun2005                  
   SHA256 =  0e71e558f37a4e8407882b4609ceaae59938afaad9ced71dfe8490308a0ab630 Cu/POTCAR             
   COPYR  = (c) Copyright 22Jun2005 Georg Kresse                                                    
   COPYR  = This file is part of the software VASP. Any use, copying, and all other rights are regul
   COPYR  = If you do not have a valid VASP license, you may not use, copy or distribute this file. 
   VRHFIN =Cu: d10 p1                                                                               
   LEXCH  = PE                                                                                      
   EATOM  =  1390.9808 eV,  102.2342 Ry                                                             
                                                                                                    
   TITEL  = PAW_PBE Cu 22Jun2005                                                                    
   LULTRA =        F    use ultrasoft PP ?                                                          
   IUNSCR =        1    unscreen: 0-lin 1-nonlin 2-no                                               
   RPACOR =    2.000    partial core radius                                                         
   POMASS =   63.546; ZVAL   =   11.000    mass and valenz                                          
   RCORE  =    2.300    outmost cutoff radius                                                       
   RWIGS  =    2.200; RWIGS  =    1.164    wigner-seitz radius (au A)                               
   ENMAX  =  295.446; ENMIN  =  221.585 eV                                                          
   ICORE  =        3    local potential                                                             
   LCOR   =        T    correct aug charges                                                         
   LPAW   =        T    paw PP                                                                      
   EAUG   =  586.980                                                                                
   DEXC   =    0.000                                                                                
   RMAX   =    2.344    core radius for proj-oper                                                   
   RAUG   =    1.300    factor for augmentation sphere                                              
   RDEP   =    2.302    radius for radial grids                                                     
   RDEPT  =    1.771    core radius for aug-charge                                                  
                                                                                                    
   Atomic configuration                                                                             
    9 entries                                                                                       
     n  l   j            E        occ.                                                              
     1  0  0.50     -8850.2468   2.0000                                                             
     2  0  0.50     -1062.3498   2.0000                                                             
     2  1  1.50      -916.8226   6.0000                                                             
     3  0  0.50      -114.6929   2.0000                                                             
     3  1  1.50       -72.1325   6.0000                                                             
     3  2  2.50        -5.0394  10.0000                                                             
     4  0  0.50        -4.6097   1.0000                                                             
     4  1  0.50        -4.0817   0.0000                                                             
     4  3  2.50        -1.3606   0.0000                                                             
   Description                                                                                      
     l       E           TYP  RCUT    TYP  RCUT                                                     
     2     -5.0393973     23  2.200                                                                 
     2     10.8846608     23  2.200                                                                 
     0     -4.6097109     23  2.200                                                                 
     0      8.2520465     23  2.200                                                                 
     1     -2.7211652     23  2.200                                                                 
     1     21.7055443     23  2.200                                                                 
     3      2.7211652     23  2.300                                                                 
  local pseudopotential read in
  partial core-charges read in
  partial kinetic energy density read in
  atomic valenz-charges read in
  non local Contribution for L=           2  read in
    real space projection operators read in
  non local Contribution for L=           2  read in
    real space projection operators read in
  non local Contribution for L=           0  read in
    real space projection operators read in
  non local Contribution for L=           0  read in
    real space projection operators read in
  non local Contribution for L=           1  read in
    real space projection operators read in
  non local Contribution for L=           1  read in
    real space projection operators read in
    PAW grid and wavefunctions read in

   number of l-projection  operators is LMAX  =           6
   number of lm-projection operators is LMMAX =          18

 POTCAR:    PAW_PBE Ge_d 03Jul2007                
   SHA256 =  944b26c40d2d7c4f4eb1ff3a2e8dbfdd7129146276cd341854bfd5c0e57780ed Ge_d/POTCAR           
   COPYR  = (c) Copyright 03Jul2007 Georg Kresse                                                    
   COPYR  = This file is part of the software VASP. Any use, copying, and all other rights are regul
   COPYR  = If you do not have a valid VASP license, you may not use, copy or distribute this file. 
   VRHFIN =Ge: 3d4s4p                                                                               
   LEXCH  = PE                                                                                      
   EATOM  =  2596.2402 eV,  190.8183 Ry                                                             
                                                                                                    
   TITEL  = PAW_PBE Ge_d 03Jul2007                                                                  
   LULTRA =        F    use ultrasoft PP ?                                                          
   IUNSCR =        1    unscreen: 0-lin 1-nonlin 2-no                                               
   RPACOR =    2.000    partial core radius                                                         
   POMASS =   72.610; ZVAL   =   14.000    mass and valenz                                          
   RCORE  =    2.300    outmost cutoff radius                                                       
   RWIGS  =    2.300; RWIGS  =    1.217    wigner-seitz radius (au A)                               
   ENMAX  =  310.294; ENMIN  =  232.720 eV                                                          
   ICORE  =        3    local potential                                                             
   LCOR   =        T    correct aug charges                                                         
   LPAW   =        T    paw PP                                                                      
   EAUG   =  531.356                                                                                
   DEXC   =    0.000                                                                                
   RMAX   =    2.342    core radius for proj-oper                                                   
   RAUG   =    1.300    factor for augmentation sphere                                              
   RDEP   =    2.318    radius for radial grids                                                     
   RDEPT  =    1.783    core radius for aug-charge                                                  
                                                                                                    
   Atomic configuration                                                                             
    9 entries                                                                                       
     n  l   j            E        occ.                                                              
     1  0  0.50    -10959.8463   2.0000                                                             
     2  0  0.50     -1371.6056   2.0000                                                             
     2  1  1.50     -1198.4791   6.0000                                                             
     3  0  0.50      -168.4733   2.0000                                                             
     3  1  1.50      -115.6019   6.0000                                                             
     3  2  2.50       -29.3106  10.0000                                                             
     4  0  0.50       -11.7309   2.0000                                                             
     4  1  0.50        -3.8952   2.0000                                                             
     4  3  2.50        -4.0817   0.0000                                                             
   Description                                                                                      
     l       E           TYP  RCUT    TYP  RCUT                                                     
     2    -29.3105938     23  2.200                                                                 
     2    -13.6058260     23  2.200                                                                 
     0    -11.7309493     23  2.300                                                                 
     0     -7.4578696     23  2.300                                                                 
     1     -3.8952261     23  2.300                                                                 
     1      6.1178114     23  2.300                                                                 
     3     -1.3605826     23  2.300                                                                 
  local pseudopotential read in
  partial core-charges read in
  partial kinetic energy density read in
  atomic valenz-charges read in
  non local Contribution for L=           2  read in
    real space projection operators read in
  non local Contribution for L=           2  read in
    real space projection operators read in
  non local Contribution for L=           0  read in
    real space projection operators read in
  non local Contribution for L=           0  read in
    real space projection operators read in
  non local Contribution for L=           1  read in
    real space projection operators read in
  non local Contribution for L=           1  read in
    real space projection operators read in
    PAW grid and wavefunctions read in

   number of l-projection  operators is LMAX  =           6
   number of lm-projection operators is LMMAX =          18

 POTCAR:    PAW_PBE Se 06Sep2000                  
   SHA256 =  eabb916e6b4c819dc065ce039373bc328651da483898f08fb9e49c498452bf12 Se/POTCAR             
   COPYR  = (c) Copyright 06Sep2000 Georg Kresse                                                    
   COPYR  = This file is part of the software VASP. Any use, copying, and all other rights are regul
   COPYR  = If you do not have a valid VASP license, you may not use, copy or distribute this file. 
   VRHFIN =Se: s2p4                                                                                 
   LEXCH  = PE                                                                                      
   EATOM  =   257.1286 eV,   18.8984 Ry                                                             
                                                                                                    
   TITEL  = PAW_PBE Se 06Sep2000                                                                    
   LULTRA =        F    use ultrasoft PP ?                                                          
   IUNSCR =        1    unscreen: 0-lin 1-nonlin 2-no                                               
   RPACOR =    1.900    partial core radius                                                         
   POMASS =   78.960; ZVAL   =    6.000    mass and valenz                                          
   RCORE  =    2.100    outmost cutoff radius                                                       
   RWIGS  =    2.200; RWIGS  =    1.164    wigner-seitz radius (au A)                               
   ENMAX  =  211.555; ENMIN  =  158.666 eV                                                          
   ICORE  =        3    local potential                                                             
   LCOR   =        T    correct aug charges                                                         
   LPAW   =        T    paw PP                                                                      
   EAUG   =  446.842                                                                                
   DEXC   =    0.000                                                                                
   RMAX   =    2.147    core radius for proj-oper                                                   
   RAUG   =    1.300    factor for augmentation sphere                                              
   RDEP   =    2.177    radius for radial grids                                                     
   RDEPT  =    1.928    core radius for aug-charge                                                  
                                                                                                    
   Atomic configuration                                                                             
   10 entries                                                                                       
     n  l   j            E        occ.                                                              
     1  0  0.50    -12503.4787   2.0000                                                             
     2  0  0.50     -1606.9547   2.0000                                                             
     2  1  1.50     -1413.3140   6.0000                                                             
     3  0  0.50      -213.4885   2.0000                                                             
     3  1  1.50      -152.9538   6.0000                                                             
     3  2  2.50       -53.1221  10.0000                                                             
     4  0  0.50       -17.2865   2.0000                                                             
     4  1  0.50        -6.5110   4.0000                                                             
     4  2  2.50        -6.8029   0.0000                                                             
     4  3  2.50        -6.8029   0.0000                                                             
   Description                                                                                      
     l       E           TYP  RCUT    TYP  RCUT                                                     
     0    -17.2865377     23  2.100                                                                 
     0    -15.3094411     23  2.100                                                                 
     1     -6.5110275     23  2.100                                                                 
     1     -0.0695192     23  2.100                                                                 
     2     -6.8029130     23  2.100                                                                 
     3     -1.3605826      7  2.100                                                                 
  local pseudopotential read in
  partial core-charges read in
  partial kinetic energy density read in
  atomic valenz-charges read in
  non local Contribution for L=           0  read in
    real space projection operators read in
  non local Contribution for L=           0  read in
    real space projection operators read in
  non local Contribution for L=           1  read in
    real space projection operators read in
  non local Contribution for L=           1  read in
    real space projection operators read in
  non local Contribution for L=           2  read in
    real space projection operators read in
    PAW grid and wavefunctions read in

   number of l-projection  operators is LMAX  =           5
   number of lm-projection operators is LMMAX =          13

  PAW_PBE Cu 22Jun2005                  :
 energy of atom  1       EATOM=-1390.9808
 kinetic energy error for atom=    0.0043 (will be added to EATOM!!)
  PAW_PBE Ge_d 03Jul2007                :
 energy of atom  2       EATOM=-2596.2402
 kinetic energy error for atom=    0.0033 (will be added to EATOM!!)
  PAW_PBE Se 06Sep2000                  :
 energy of atom  3       EATOM= -257.1286
 kinetic energy error for atom=    0.0008 (will be added to EATOM!!)


 POSCAR: Cu4 Ge2 Se6
  positions in direct lattice
  No initial velocities read in
 exchange correlation table for  LEXCH =        8
   RHO(1)=    0.500       N(1)  =     2000
   RHO(2)=  100.500       N(2)  =     4000



--------------------------------------------------------------------------------------------------------


 ion  position               nearest neighbor table
   1  0.667  0.827  0.006-  10 2.41   9 2.42   8 2.42  12 2.46
   2  0.173  0.333  0.506-   9 2.41  10 2.42   7 2.42  11 2.46
   3  0.848  0.979  0.509-  10 2.41   7 2.41   8 2.42  11 2.50
   4  0.021  0.152  0.009-   9 2.41   8 2.41   7 2.42  12 2.50
   5  0.492  0.680  0.486-   7 2.34  10 2.34  11 2.45  12 2.48
   6  0.320  0.508  0.986-   8 2.34   9 2.34  12 2.45  11 2.48
   7  0.127  0.041  0.384-   5 2.34   3 2.41   2 2.42   4 2.42
   8  0.959  0.873  0.884-   6 2.34   4 2.41   1 2.42   3 2.42
   9  0.300  0.210  0.878-   6 2.34   2 2.41   4 2.41   1 2.42
  10  0.790  0.700  0.378-   5 2.34   1 2.41   3 2.41   2 2.42
  11  0.466  0.372  0.369-   5 2.45   2 2.46   6 2.48   3 2.50
  12  0.628  0.534  0.869-   6 2.45   1 2.46   5 2.48   4 2.50

  LATTYP: Found a base centered monoclinic cell.
 ALAT       =     6.8069765136
 B/A-ratio  =     1.7510094454
 C/A-ratio  =     1.0012394670
 COS(beta)  =    -0.3190950994
  
  Lattice vectors:
  
 A1 = (   3.4034882568,  -5.9595400849,   0.0000000000)
 A2 = (   3.4034882568,   5.9595400849,   0.0000000000)
 A3 = (  -2.1747650600,   0.0000000000,   6.4591221237)


Analysis of symmetry for initial positions (statically):
=====================================================================
 Subroutine PRICEL returns:
 Original cell was already a primitive cell.
 

 Routine SETGRP: Setting up the symmetry group for a 
 base centered monoclinic supercell.


 Subroutine GETGRP returns: Found  2 space group operations
 (whereof  1 operations were pure point group operations)
 out of a pool of  4 trial point group operations.


The static configuration has the point symmetry C_1 .
 The point group associated with its full space group is C_1h.


Analysis of symmetry for dynamics (positions and initial velocities):
=====================================================================
 Subroutine PRICEL returns:
 Original cell was already a primitive cell.
 

 Routine SETGRP: Setting up the symmetry group for a 
 base centered monoclinic supercell.


 Subroutine GETGRP returns: Found  2 space group operations
 (whereof  1 operations were pure point group operations)
 out of a pool of  4 trial point group operations.


The dynamic configuration has the point symmetry C_1 .
 The point group associated with its full space group is C_1h.


 Subroutine INISYM returns: Found  2 space group operations
 (whereof  1 operations are pure point group operations),
 and found     1 'primitive' translations


----------------------------------------------------------------------------------------

                                     Primitive cell                                     

  volume of cell :     262.0237

  direct lattice vectors                    reciprocal lattice vectors
     3.403488257  5.959540085  0.000000000     0.146908102  0.083899092  0.049463472
    -3.403488257  5.959540085  0.000000000    -0.146908102  0.083899092 -0.049463472
    -2.174765060  0.000000000  6.459122124     0.000000000 -0.000000000  0.154819801

  length of vectors
     6.862933071  6.862933071  6.815413537     0.176260271  0.176260271  0.154819801

  position of ions in fractional coordinates (direct lattice)
     0.667058182  0.827350478  0.005758876
     0.172649522  0.332941818  0.505758876
     0.848037610  0.979262418  0.509481946
     0.020737582  0.151962390  0.009481946
     0.491679328  0.680019346  0.486110707
     0.319980654  0.508320672  0.986110707
     0.127447510  0.041424284  0.384152719
     0.958575716  0.872552490  0.884152719
     0.299805730  0.209598501  0.878351642
     0.790401499  0.700194270  0.378351642
     0.465969500  0.371629932  0.369329674
     0.628370068  0.534030500  0.869329674

  ion indices of the primitive-cell ions
   primitive index   ion index
                 1           1
                 2           2
                 3           3
                 4           4
                 5           5
                 6           6
                 7           7
                 8           8
                 9           9
                10          10
                11          11
                12          12

----------------------------------------------------------------------------------------



 KPOINTS: \Gamma -> A                             

Read explicit list of k-points.

 Found    151 k-points:

 Following reciprocal coordinates:
            Coordinates               Weight
  0.000000  0.000000  0.000000      0.005102
  0.142857  0.000000  0.000000      0.010204
  0.285714  0.000000  0.000000      0.010204
  0.428571  0.000000  0.000000      0.010204
  0.000000  0.250000  0.000000      0.010204
  0.142857  0.250000  0.000000      0.020408
  0.285714  0.250000  0.000000      0.020408
  0.428571  0.250000  0.000000      0.020408
  0.000000  0.500000  0.000000      0.005102
  0.142857  0.500000  0.000000      0.010204
  0.285714  0.500000  0.000000      0.010204
  0.428571  0.500000  0.000000      0.010204
  0.000000  0.000000  0.142857      0.010204
  0.142857  0.000000  0.142857      0.010204
  0.285714  0.000000  0.142857      0.010204
  0.428571  0.000000  0.142857      0.010204
 -0.428571  0.000000  0.142857      0.010204
 -0.285714  0.000000  0.142857      0.010204
 -0.142857  0.000000  0.142857      0.010204
  0.000000  0.250000  0.142857      0.020408
  0.142857  0.250000  0.142857      0.020408
  0.285714  0.250000  0.142857      0.020408
  0.428571  0.250000  0.142857      0.020408
 -0.428571  0.250000  0.142857      0.020408
 -0.285714  0.250000  0.142857      0.020408
 -0.142857  0.250000  0.142857      0.020408
  0.000000  0.500000  0.142857      0.010204
  0.142857  0.500000  0.142857      0.010204
  0.285714  0.500000  0.142857      0.010204
  0.428571  0.500000  0.142857      0.010204
 -0.428571  0.500000  0.142857      0.010204
 -0.285714  0.500000  0.142857      0.010204
 -0.142857  0.500000  0.142857      0.010204
  0.000000  0.000000  0.285714      0.010204
  0.142857  0.000000  0.285714      0.010204
  0.285714  0.000000  0.285714      0.010204
  0.428571  0.000000  0.285714      0.010204
 -0.428571  0.000000  0.285714      0.010204
 -0.285714  0.000000  0.285714      0.010204
 -0.142857  0.000000  0.285714      0.010204
  0.000000  0.250000  0.285714      0.020408
  0.142857  0.250000  0.285714      0.020408
  0.285714  0.250000  0.285714      0.020408
  0.428571  0.250000  0.285714      0.020408
 -0.428571  0.250000  0.285714      0.020408
 -0.285714  0.250000  0.285714      0.020408
 -0.142857  0.250000  0.285714      0.020408
  0.000000  0.500000  0.285714      0.010204
  0.142857  0.500000  0.285714      0.010204
  0.285714  0.500000  0.285714      0.010204
  0.428571  0.500000  0.285714      0.010204
 -0.428571  0.500000  0.285714      0.010204
 -0.285714  0.500000  0.285714      0.010204
 -0.142857  0.500000  0.285714      0.010204
  0.000000  0.000000  0.428571      0.010204
  0.142857  0.000000  0.428571      0.010204
  0.285714  0.000000  0.428571      0.010204
  0.428571  0.000000  0.428571      0.010204
 -0.428571  0.000000  0.428571      0.010204
 -0.285714  0.000000  0.428571      0.010204
 -0.142857  0.000000  0.428571      0.010204
  0.000000  0.250000  0.428571      0.020408
  0.142857  0.250000  0.428571      0.020408
  0.285714  0.250000  0.428571      0.020408
  0.428571  0.250000  0.428571      0.020408
 -0.428571  0.250000  0.428571      0.020408
 -0.285714  0.250000  0.428571      0.020408
 -0.142857  0.250000  0.428571      0.020408
  0.000000  0.500000  0.428571      0.010204
  0.142857  0.500000  0.428571      0.010204
  0.285714  0.500000  0.428571      0.010204
  0.428571  0.500000  0.428571      0.010204
 -0.428571  0.500000  0.428571      0.010204
 -0.285714  0.500000  0.428571      0.010204
 -0.142857  0.500000  0.428571      0.010204
  0.352941 -0.000000 -0.000000      0.000000
  0.338235 -0.000000 -0.000000      0.000000
  0.323529  0.000000  0.000000      0.000000
  0.308824 -0.000000 -0.000000      0.000000
  0.294118  0.000000 -0.000000      0.000000
  0.279412 -0.000000  0.000000      0.000000
  0.264706 -0.000000 -0.000000      0.000000
  0.250000  0.000000 -0.000000      0.000000
  0.235294  0.000000 -0.000000      0.000000
  0.220588 -0.000000  0.000000      0.000000
  0.205882 -0.000000 -0.000000      0.000000
  0.191176 -0.000000 -0.000000      0.000000
  0.176471 -0.000000 -0.000000      0.000000
  0.161765 -0.000000  0.000000      0.000000
  0.147059  0.000000 -0.000000      0.000000
  0.132353  0.000000  0.000000      0.000000
  0.117647 -0.000000  0.000000      0.000000
  0.102941  0.000000  0.000000      0.000000
  0.088235  0.000000  0.000000      0.000000
  0.073529 -0.000000 -0.000000      0.000000
  0.058824 -0.000000 -0.000000      0.000000
  0.044118 -0.000000 -0.000000      0.000000
  0.029412  0.000000 -0.000000      0.000000
  0.014706 -0.000000 -0.000000      0.000000
  0.000000  0.000000  0.000000      0.000000
  0.000000  0.000000  0.016667      0.000000
  0.000000  0.000000  0.033333      0.000000
  0.000000  0.000000  0.050000      0.000000
  0.000000  0.000000  0.066667      0.000000
  0.000000  0.000000  0.083333      0.000000
  0.000000  0.000000  0.100000      0.000000
  0.000000  0.000000  0.116667      0.000000
  0.000000  0.000000  0.133333      0.000000
  0.000000  0.000000  0.150000      0.000000
  0.000000  0.000000  0.166667      0.000000
  0.000000  0.000000  0.183333      0.000000
  0.000000  0.000000  0.200000      0.000000
  0.000000  0.000000  0.216667      0.000000
  0.000000  0.000000  0.233333      0.000000
  0.000000  0.000000  0.250000      0.000000
  0.000000  0.000000  0.266667      0.000000
  0.000000  0.000000  0.283333      0.000000
  0.000000  0.000000  0.300000      0.000000
  0.000000  0.000000  0.316667      0.000000
  0.000000  0.000000  0.333333      0.000000
  0.000000  0.000000  0.350000      0.000000
  0.000000  0.000000  0.366667      0.000000
  0.000000  0.000000  0.383333      0.000000
  0.000000  0.000000  0.400000      0.000000
  0.000000  0.000000  0.416667      0.000000
  0.000000  0.000000  0.433333      0.000000
  0.000000  0.000000  0.450000      0.000000
  0.000000  0.000000  0.466667      0.000000
  0.000000  0.000000  0.483333      0.000000
  0.000000  0.000000  0.500000      0.000000
  0.015625  0.015625  0.500000      0.000000
  0.031250  0.031250  0.500000      0.000000
  0.046875  0.046875  0.500000      0.000000
  0.062500  0.062500  0.500000      0.000000
  0.078125  0.078125  0.500000      0.000000
  0.093750  0.093750  0.500000      0.000000
  0.109375  0.109375  0.500000      0.000000
  0.125000  0.125000  0.500000      0.000000
  0.140625  0.140625  0.500000      0.000000
  0.156250  0.156250  0.500000      0.000000
  0.171875  0.171875  0.500000      0.000000
  0.187500  0.187500  0.500000      0.000000
  0.203125  0.203125  0.500000      0.000000
  0.218750  0.218750  0.500000      0.000000
  0.234375  0.234375  0.500000      0.000000
  0.250000  0.250000  0.500000      0.000000
  0.265625  0.265625  0.500000      0.000000
  0.281250  0.281250  0.500000      0.000000
  0.296875  0.296875  0.500000      0.000000
  0.312500  0.312500  0.500000      0.000000
  0.328125  0.328125  0.500000      0.000000

 Following cartesian coordinates:
            Coordinates               Weight
  0.000000  0.000000  0.000000      0.005102
  0.020987  0.011986  0.007066      0.010204
  0.041974  0.023971  0.014132      0.010204
  0.062961  0.035957  0.021199      0.010204
 -0.036727  0.020975 -0.012366      0.010204
 -0.015740  0.032960 -0.005300      0.020408
  0.005247  0.044946  0.001767      0.020408
  0.026234  0.056932  0.008833      0.020408
 -0.073454  0.041950 -0.024732      0.005102
 -0.052467  0.053935 -0.017666      0.010204
 -0.031480  0.065921 -0.010599      0.010204
 -0.010493  0.077906 -0.003533      0.010204
  0.000000  0.000000  0.022117      0.010204
  0.020987  0.011986  0.029183      0.010204
  0.041974  0.023971  0.036250      0.010204
  0.062961  0.035957  0.043316      0.010204
 -0.062961 -0.035957  0.000918      0.010204
 -0.041974 -0.023971  0.007985      0.010204
 -0.020987 -0.011986  0.015051      0.010204
 -0.036727  0.020975  0.009751      0.020408
 -0.015740  0.032960  0.016817      0.020408
  0.005247  0.044946  0.023884      0.020408
  0.026234  0.056932  0.030950      0.020408
 -0.099688 -0.014982 -0.011447      0.020408
 -0.078701 -0.002996 -0.004381      0.020408
 -0.057714  0.008989  0.002685      0.020408
 -0.073454  0.041950 -0.002615      0.010204
 -0.052467  0.053935  0.004452      0.010204
 -0.031480  0.065921  0.011518      0.010204
 -0.010493  0.077906  0.018584      0.010204
 -0.136415  0.005993 -0.023813      0.010204
 -0.115428  0.017978 -0.016747      0.010204
 -0.094441  0.029964 -0.009681      0.010204
  0.000000  0.000000  0.044234      0.010204
  0.020987  0.011986  0.051300      0.010204
  0.041974  0.023971  0.058367      0.010204
  0.062961  0.035957  0.065433      0.010204
 -0.062961 -0.035957  0.023036      0.010204
 -0.041974 -0.023971  0.030102      0.010204
 -0.020987 -0.011986  0.037168      0.010204
 -0.036727  0.020975  0.031868      0.020408
 -0.015740  0.032960  0.038935      0.020408
  0.005247  0.044946  0.046001      0.020408
  0.026234  0.056932  0.053067      0.020408
 -0.099688 -0.014982  0.010670      0.020408
 -0.078701 -0.002996  0.017736      0.020408
 -0.057714  0.008989  0.024802      0.020408
 -0.073454  0.041950  0.019502      0.010204
 -0.052467  0.053935  0.026569      0.010204
 -0.031480  0.065921  0.033635      0.010204
 -0.010493  0.077906  0.040701      0.010204
 -0.136415  0.005993 -0.001696      0.010204
 -0.115428  0.017978  0.005370      0.010204
 -0.094441  0.029964  0.012436      0.010204
  0.000000  0.000000  0.066351      0.010204
  0.020987  0.011986  0.073418      0.010204
  0.041974  0.023971  0.080484      0.010204
  0.062961  0.035957  0.087550      0.010204
 -0.062961 -0.035957  0.045153      0.010204
 -0.041974 -0.023971  0.052219      0.010204
 -0.020987 -0.011986  0.059285      0.010204
 -0.036727  0.020975  0.053985      0.020408
 -0.015740  0.032960  0.061052      0.020408
  0.005247  0.044946  0.068118      0.020408
  0.026234  0.056932  0.075184      0.020408
 -0.099688 -0.014982  0.032787      0.020408
 -0.078701 -0.002996  0.039853      0.020408
 -0.057714  0.008989  0.046919      0.020408
 -0.073454  0.041950  0.041620      0.010204
 -0.052467  0.053935  0.048686      0.010204
 -0.031480  0.065921  0.055752      0.010204
 -0.010493  0.077906  0.062818      0.010204
 -0.136415  0.005993  0.020421      0.010204
 -0.115428  0.017978  0.027487      0.010204
 -0.094441  0.029964  0.034553      0.010204
  0.051850  0.029611  0.017458      0.000000
  0.049690  0.028378  0.016730      0.000000
  0.047529  0.027144  0.016003      0.000000
  0.045369  0.025910  0.015275      0.000000
  0.043208  0.024676  0.014548      0.000000
  0.041048  0.023442  0.013821      0.000000
  0.038887  0.022209  0.013093      0.000000
  0.036727  0.020975  0.012366      0.000000
  0.034567  0.019741  0.011638      0.000000
  0.032406  0.018507  0.010911      0.000000
  0.030246  0.017273  0.010184      0.000000
  0.028085  0.016040  0.009456      0.000000
  0.025925  0.014806  0.008729      0.000000
  0.023765  0.013572  0.008001      0.000000
  0.021604  0.012338  0.007274      0.000000
  0.019444  0.011104  0.006547      0.000000
  0.017283  0.009870  0.005819      0.000000
  0.015123  0.008637  0.005092      0.000000
  0.012962  0.007403  0.004364      0.000000
  0.010802  0.006169  0.003637      0.000000
  0.008642  0.004935  0.002910      0.000000
  0.006481  0.003701  0.002182      0.000000
  0.004321  0.002468  0.001455      0.000000
  0.002160  0.001234  0.000727      0.000000
  0.000000  0.000000  0.000000      0.000000
  0.000000  0.000000  0.002580      0.000000
  0.000000  0.000000  0.005161      0.000000
  0.000000  0.000000  0.007741      0.000000
  0.000000  0.000000  0.010321      0.000000
  0.000000  0.000000  0.012902      0.000000
  0.000000  0.000000  0.015482      0.000000
  0.000000  0.000000  0.018062      0.000000
  0.000000  0.000000  0.020643      0.000000
  0.000000  0.000000  0.023223      0.000000
  0.000000  0.000000  0.025803      0.000000
  0.000000  0.000000  0.028384      0.000000
  0.000000  0.000000  0.030964      0.000000
  0.000000  0.000000  0.033544      0.000000
  0.000000  0.000000  0.036125      0.000000
  0.000000  0.000000  0.038705      0.000000
  0.000000  0.000000  0.041285      0.000000
  0.000000  0.000000  0.043866      0.000000
  0.000000  0.000000  0.046446      0.000000
  0.000000  0.000000  0.049026      0.000000
  0.000000  0.000000  0.051607      0.000000
  0.000000  0.000000  0.054187      0.000000
  0.000000  0.000000  0.056767      0.000000
  0.000000  0.000000  0.059348      0.000000
  0.000000  0.000000  0.061928      0.000000
  0.000000  0.000000  0.064508      0.000000
  0.000000  0.000000  0.067089      0.000000
  0.000000  0.000000  0.069669      0.000000
  0.000000  0.000000  0.072249      0.000000
  0.000000  0.000000  0.074830      0.000000
  0.000000  0.000000  0.077410      0.000000
  0.000000  0.002622  0.077410      0.000000
  0.000000  0.005244  0.077410      0.000000
  0.000000  0.007866  0.077410      0.000000
  0.000000  0.010487  0.077410      0.000000
 -0.000000  0.013109  0.077410      0.000000
  0.000000  0.015731  0.077410      0.000000
  0.000000  0.018353  0.077410      0.000000
  0.000000  0.020975  0.077410      0.000000
 -0.000000  0.023597  0.077410      0.000000
 -0.000000  0.026218  0.077410      0.000000
  0.000000  0.028840  0.077410      0.000000
  0.000000  0.031462  0.077410      0.000000
 -0.000000  0.034084  0.077410      0.000000
  0.000000  0.036706  0.077410      0.000000
  0.000000  0.039328  0.077410      0.000000
  0.000000  0.041950  0.077410      0.000000
 -0.000000  0.044571  0.077410      0.000000
 -0.000000  0.047193  0.077410      0.000000
  0.000000  0.049815  0.077410      0.000000
 -0.000000  0.052437  0.077410      0.000000
 -0.000000  0.055059  0.077410      0.000000

 
 Subroutine IBZKPT_HF returns following result:
 ==============================================
 
 Found    365 k-points in 1st BZ
 the following    365 k-points will be used (e.g. in the exchange kernel)
 Following reciprocal coordinates:   # in IRBZ
  0.000000  0.000000  0.000000    0.00510204   1 t-inv F
  0.142857  0.000000  0.000000    0.00255102   2 t-inv F
  0.285714  0.000000  0.000000    0.00255102   3 t-inv F
  0.428571  0.000000  0.000000    0.00255102   4 t-inv F
  0.000000  0.250000  0.000000    0.00255102   5 t-inv F
  0.142857  0.250000  0.000000    0.00510204   6 t-inv F
  0.285714  0.250000  0.000000    0.00510204   7 t-inv F
  0.428571  0.250000  0.000000    0.00510204   8 t-inv F
  0.000000  0.500000  0.000000    0.00255102   9 t-inv F
  0.142857  0.500000  0.000000    0.00255102  10 t-inv F
  0.285714  0.500000  0.000000    0.00255102  11 t-inv F
  0.428571  0.500000  0.000000    0.00255102  12 t-inv F
  0.000000  0.000000  0.142857    0.00510204  13 t-inv F
  0.142857  0.000000  0.142857    0.00255102  14 t-inv F
  0.285714  0.000000  0.142857    0.00255102  15 t-inv F
  0.428571  0.000000  0.142857    0.00255102  16 t-inv F
 -0.428571  0.000000  0.142857    0.00255102  17 t-inv F
 -0.285714  0.000000  0.142857    0.00255102  18 t-inv F
 -0.142857  0.000000  0.142857    0.00255102  19 t-inv F
  0.000000  0.250000  0.142857    0.00510204  20 t-inv F
  0.142857  0.250000  0.142857    0.00510204  21 t-inv F
  0.285714  0.250000  0.142857    0.00510204  22 t-inv F
  0.428571  0.250000  0.142857    0.00510204  23 t-inv F
 -0.428571  0.250000  0.142857    0.00510204  24 t-inv F
 -0.285714  0.250000  0.142857    0.00510204  25 t-inv F
 -0.142857  0.250000  0.142857    0.00510204  26 t-inv F
  0.000000  0.500000  0.142857    0.00255102  27 t-inv F
  0.142857  0.500000  0.142857    0.00255102  28 t-inv F
  0.285714  0.500000  0.142857    0.00255102  29 t-inv F
  0.428571  0.500000  0.142857    0.00255102  30 t-inv F
 -0.428571  0.500000  0.142857    0.00255102  31 t-inv F
 -0.285714  0.500000  0.142857    0.00255102  32 t-inv F
 -0.142857  0.500000  0.142857    0.00255102  33 t-inv F
  0.000000  0.000000  0.285714    0.00510204  34 t-inv F
  0.142857  0.000000  0.285714    0.00255102  35 t-inv F
  0.285714  0.000000  0.285714    0.00255102  36 t-inv F
  0.428571  0.000000  0.285714    0.00255102  37 t-inv F
 -0.428571  0.000000  0.285714    0.00255102  38 t-inv F
 -0.285714  0.000000  0.285714    0.00255102  39 t-inv F
 -0.142857  0.000000  0.285714    0.00255102  40 t-inv F
  0.000000  0.250000  0.285714    0.00510204  41 t-inv F
  0.142857  0.250000  0.285714    0.00510204  42 t-inv F
  0.285714  0.250000  0.285714    0.00510204  43 t-inv F
  0.428571  0.250000  0.285714    0.00510204  44 t-inv F
 -0.428571  0.250000  0.285714    0.00510204  45 t-inv F
 -0.285714  0.250000  0.285714    0.00510204  46 t-inv F
 -0.142857  0.250000  0.285714    0.00510204  47 t-inv F
  0.000000  0.500000  0.285714    0.00255102  48 t-inv F
  0.142857  0.500000  0.285714    0.00255102  49 t-inv F
  0.285714  0.500000  0.285714    0.00255102  50 t-inv F
  0.428571  0.500000  0.285714    0.00255102  51 t-inv F
 -0.428571  0.500000  0.285714    0.00255102  52 t-inv F
 -0.285714  0.500000  0.285714    0.00255102  53 t-inv F
 -0.142857  0.500000  0.285714    0.00255102  54 t-inv F
  0.000000  0.000000  0.428571    0.00510204  55 t-inv F
  0.142857  0.000000  0.428571    0.00255102  56 t-inv F
  0.285714  0.000000  0.428571    0.00255102  57 t-inv F
  0.428571  0.000000  0.428571    0.00255102  58 t-inv F
 -0.428571  0.000000  0.428571    0.00255102  59 t-inv F
 -0.285714  0.000000  0.428571    0.00255102  60 t-inv F
 -0.142857  0.000000  0.428571    0.00255102  61 t-inv F
  0.000000  0.250000  0.428571    0.00510204  62 t-inv F
  0.142857  0.250000  0.428571    0.00510204  63 t-inv F
  0.285714  0.250000  0.428571    0.00510204  64 t-inv F
  0.428571  0.250000  0.428571    0.00510204  65 t-inv F
 -0.428571  0.250000  0.428571    0.00510204  66 t-inv F
 -0.285714  0.250000  0.428571    0.00510204  67 t-inv F
 -0.142857  0.250000  0.428571    0.00510204  68 t-inv F
  0.000000  0.500000  0.428571    0.00255102  69 t-inv F
  0.142857  0.500000  0.428571    0.00255102  70 t-inv F
  0.285714  0.500000  0.428571    0.00255102  71 t-inv F
  0.428571  0.500000  0.428571    0.00255102  72 t-inv F
 -0.428571  0.500000  0.428571    0.00255102  73 t-inv F
 -0.285714  0.500000  0.428571    0.00255102  74 t-inv F
 -0.142857  0.500000  0.428571    0.00255102  75 t-inv F
  0.352941 -0.000000 -0.000000    0.00000000  76 t-inv F
  0.338235 -0.000000 -0.000000    0.00000000  77 t-inv F
  0.323529  0.000000  0.000000    0.00000000  78 t-inv F
  0.308824 -0.000000 -0.000000    0.00000000  79 t-inv F
  0.294118  0.000000 -0.000000    0.00000000  80 t-inv F
  0.279412 -0.000000  0.000000    0.00000000  81 t-inv F
  0.264706 -0.000000 -0.000000    0.00000000  82 t-inv F
  0.250000  0.000000 -0.000000    0.00000000  83 t-inv F
  0.235294  0.000000 -0.000000    0.00000000  84 t-inv F
  0.220588 -0.000000  0.000000    0.00000000  85 t-inv F
  0.205882 -0.000000 -0.000000    0.00000000  86 t-inv F
  0.191176 -0.000000 -0.000000    0.00000000  87 t-inv F
  0.176471 -0.000000 -0.000000    0.00000000  88 t-inv F
  0.161765 -0.000000  0.000000    0.00000000  89 t-inv F
  0.147059  0.000000 -0.000000    0.00000000  90 t-inv F
  0.132353  0.000000  0.000000    0.00000000  91 t-inv F
  0.117647 -0.000000  0.000000    0.00000000  92 t-inv F
  0.102941  0.000000  0.000000    0.00000000  93 t-inv F
  0.088235  0.000000  0.000000    0.00000000  94 t-inv F
  0.073529 -0.000000 -0.000000    0.00000000  95 t-inv F
  0.058824 -0.000000 -0.000000    0.00000000  96 t-inv F
  0.044118 -0.000000 -0.000000    0.00000000  97 t-inv F
  0.029412  0.000000 -0.000000    0.00000000  98 t-inv F
  0.014706 -0.000000 -0.000000    0.00000000  99 t-inv F
  0.000000  0.000000  0.000000    0.00000000 100 t-inv F
  0.000000  0.000000  0.016667    0.00000000 101 t-inv F
  0.000000  0.000000  0.033333    0.00000000 102 t-inv F
  0.000000  0.000000  0.050000    0.00000000 103 t-inv F
  0.000000  0.000000  0.066667    0.00000000 104 t-inv F
  0.000000  0.000000  0.083333    0.00000000 105 t-inv F
  0.000000  0.000000  0.100000    0.00000000 106 t-inv F
  0.000000  0.000000  0.116667    0.00000000 107 t-inv F
  0.000000  0.000000  0.133333    0.00000000 108 t-inv F
  0.000000  0.000000  0.150000    0.00000000 109 t-inv F
  0.000000  0.000000  0.166667    0.00000000 110 t-inv F
  0.000000  0.000000  0.183333    0.00000000 111 t-inv F
  0.000000  0.000000  0.200000    0.00000000 112 t-inv F
  0.000000  0.000000  0.216667    0.00000000 113 t-inv F
  0.000000  0.000000  0.233333    0.00000000 114 t-inv F
  0.000000  0.000000  0.250000    0.00000000 115 t-inv F
  0.000000  0.000000  0.266667    0.00000000 116 t-inv F
  0.000000  0.000000  0.283333    0.00000000 117 t-inv F
  0.000000  0.000000  0.300000    0.00000000 118 t-inv F
  0.000000  0.000000  0.316667    0.00000000 119 t-inv F
  0.000000  0.000000  0.333333    0.00000000 120 t-inv F
  0.000000  0.000000  0.350000    0.00000000 121 t-inv F
  0.000000  0.000000  0.366667    0.00000000 122 t-inv F
  0.000000  0.000000  0.383333    0.00000000 123 t-inv F
  0.000000  0.000000  0.400000    0.00000000 124 t-inv F
  0.000000  0.000000  0.416667    0.00000000 125 t-inv F
  0.000000  0.000000  0.433333    0.00000000 126 t-inv F
  0.000000  0.000000  0.450000    0.00000000 127 t-inv F
  0.000000  0.000000  0.466667    0.00000000 128 t-inv F
  0.000000  0.000000  0.483333    0.00000000 129 t-inv F
  0.000000  0.000000  0.500000    0.00000000 130 t-inv F
  0.015625  0.015625  0.500000    0.00000000 131 t-inv F
  0.031250  0.031250  0.500000    0.00000000 132 t-inv F
  0.046875  0.046875  0.500000    0.00000000 133 t-inv F
  0.062500  0.062500  0.500000    0.00000000 134 t-inv F
  0.078125  0.078125  0.500000    0.00000000 135 t-inv F
  0.093750  0.093750  0.500000    0.00000000 136 t-inv F
  0.109375  0.109375  0.500000    0.00000000 137 t-inv F
  0.125000  0.125000  0.500000    0.00000000 138 t-inv F
  0.140625  0.140625  0.500000    0.00000000 139 t-inv F
  0.156250  0.156250  0.500000    0.00000000 140 t-inv F
  0.171875  0.171875  0.500000    0.00000000 141 t-inv F
  0.187500  0.187500  0.500000    0.00000000 142 t-inv F
  0.203125  0.203125  0.500000    0.00000000 143 t-inv F
  0.218750  0.218750  0.500000    0.00000000 144 t-inv F
  0.234375  0.234375  0.500000    0.00000000 145 t-inv F
  0.250000  0.250000  0.500000    0.00000000 146 t-inv F
  0.265625  0.265625  0.500000    0.00000000 147 t-inv F
  0.281250  0.281250  0.500000    0.00000000 148 t-inv F
  0.296875  0.296875  0.500000    0.00000000 149 t-inv F
  0.312500  0.312500  0.500000    0.00000000 150 t-inv F
  0.328125  0.328125  0.500000    0.00000000 151 t-inv F
  0.000000 -0.142857  0.000000    0.00255102   2 t-inv F
  0.000000 -0.285714  0.000000    0.00255102   3 t-inv F
  0.000000 -0.428571  0.000000    0.00255102   4 t-inv F
 -0.250000  0.000000  0.000000    0.00255102   5 t-inv F
 -0.250000 -0.142857  0.000000    0.00510204   6 t-inv F
 -0.250000 -0.285714  0.000000    0.00510204   7 t-inv F
 -0.250000 -0.428571  0.000000    0.00510204   8 t-inv F
 -0.500000  0.000000  0.000000    0.00255102   9 t-inv F
 -0.500000 -0.142857  0.000000    0.00255102  10 t-inv F
 -0.500000 -0.285714  0.000000    0.00255102  11 t-inv F
 -0.500000 -0.428571  0.000000    0.00255102  12 t-inv F
  0.000000 -0.142857  0.142857    0.00255102  14 t-inv F
  0.000000 -0.285714  0.142857    0.00255102  15 t-inv F
  0.000000 -0.428571  0.142857    0.00255102  16 t-inv F
  0.000000  0.428571  0.142857    0.00255102  17 t-inv F
  0.000000  0.285714  0.142857    0.00255102  18 t-inv F
  0.000000  0.142857  0.142857    0.00255102  19 t-inv F
 -0.250000  0.000000  0.142857    0.00510204  20 t-inv F
 -0.250000 -0.142857  0.142857    0.00510204  21 t-inv F
 -0.250000 -0.285714  0.142857    0.00510204  22 t-inv F
 -0.250000 -0.428571  0.142857    0.00510204  23 t-inv F
 -0.250000  0.428571  0.142857    0.00510204  24 t-inv F
 -0.250000  0.285714  0.142857    0.00510204  25 t-inv F
 -0.250000  0.142857  0.142857    0.00510204  26 t-inv F
 -0.500000  0.000000  0.142857    0.00255102  27 t-inv F
 -0.500000 -0.142857  0.142857    0.00255102  28 t-inv F
 -0.500000 -0.285714  0.142857    0.00255102  29 t-inv F
 -0.500000 -0.428571  0.142857    0.00255102  30 t-inv F
 -0.500000  0.428571  0.142857    0.00255102  31 t-inv F
 -0.500000  0.285714  0.142857    0.00255102  32 t-inv F
 -0.500000  0.142857  0.142857    0.00255102  33 t-inv F
  0.000000 -0.142857  0.285714    0.00255102  35 t-inv F
  0.000000 -0.285714  0.285714    0.00255102  36 t-inv F
  0.000000 -0.428571  0.285714    0.00255102  37 t-inv F
  0.000000  0.428571  0.285714    0.00255102  38 t-inv F
  0.000000  0.285714  0.285714    0.00255102  39 t-inv F
  0.000000  0.142857  0.285714    0.00255102  40 t-inv F
 -0.250000  0.000000  0.285714    0.00510204  41 t-inv F
 -0.250000 -0.142857  0.285714    0.00510204  42 t-inv F
 -0.250000 -0.285714  0.285714    0.00510204  43 t-inv F
 -0.250000 -0.428571  0.285714    0.00510204  44 t-inv F
 -0.250000  0.428571  0.285714    0.00510204  45 t-inv F
 -0.250000  0.285714  0.285714    0.00510204  46 t-inv F
 -0.250000  0.142857  0.285714    0.00510204  47 t-inv F
 -0.500000  0.000000  0.285714    0.00255102  48 t-inv F
 -0.500000 -0.142857  0.285714    0.00255102  49 t-inv F
 -0.500000 -0.285714  0.285714    0.00255102  50 t-inv F
 -0.500000 -0.428571  0.285714    0.00255102  51 t-inv F
 -0.500000  0.428571  0.285714    0.00255102  52 t-inv F
 -0.500000  0.285714  0.285714    0.00255102  53 t-inv F
 -0.500000  0.142857  0.285714    0.00255102  54 t-inv F
  0.000000 -0.142857  0.428571    0.00255102  56 t-inv F
  0.000000 -0.285714  0.428571    0.00255102  57 t-inv F
  0.000000 -0.428571  0.428571    0.00255102  58 t-inv F
  0.000000  0.428571  0.428571    0.00255102  59 t-inv F
  0.000000  0.285714  0.428571    0.00255102  60 t-inv F
  0.000000  0.142857  0.428571    0.00255102  61 t-inv F
 -0.250000  0.000000  0.428571    0.00510204  62 t-inv F
 -0.250000 -0.142857  0.428571    0.00510204  63 t-inv F
 -0.250000 -0.285714  0.428571    0.00510204  64 t-inv F
 -0.250000 -0.428571  0.428571    0.00510204  65 t-inv F
 -0.250000  0.428571  0.428571    0.00510204  66 t-inv F
 -0.250000  0.285714  0.428571    0.00510204  67 t-inv F
 -0.250000  0.142857  0.428571    0.00510204  68 t-inv F
 -0.500000  0.000000  0.428571    0.00255102  69 t-inv F
 -0.500000 -0.142857  0.428571    0.00255102  70 t-inv F
 -0.500000 -0.285714  0.428571    0.00255102  71 t-inv F
 -0.500000 -0.428571  0.428571    0.00255102  72 t-inv F
 -0.500000  0.428571  0.428571    0.00255102  73 t-inv F
 -0.500000  0.285714  0.428571    0.00255102  74 t-inv F
 -0.500000  0.142857  0.428571    0.00255102  75 t-inv F
 -0.142857  0.000000  0.000000    0.00255102   2 t-inv T
  0.000000  0.142857  0.000000    0.00255102   2 t-inv T
 -0.285714  0.000000  0.000000    0.00255102   3 t-inv T
  0.000000  0.285714  0.000000    0.00255102   3 t-inv T
 -0.428571  0.000000  0.000000    0.00255102   4 t-inv T
  0.000000  0.428571  0.000000    0.00255102   4 t-inv T
  0.000000 -0.250000  0.000000    0.00255102   5 t-inv T
  0.250000  0.000000  0.000000    0.00255102   5 t-inv T
 -0.142857 -0.250000  0.000000    0.00510204   6 t-inv T
  0.250000  0.142857  0.000000    0.00510204   6 t-inv T
 -0.285714 -0.250000  0.000000    0.00510204   7 t-inv T
  0.250000  0.285714  0.000000    0.00510204   7 t-inv T
 -0.428571 -0.250000  0.000000    0.00510204   8 t-inv T
  0.250000  0.428571  0.000000    0.00510204   8 t-inv T
 -0.142857 -0.500000  0.000000    0.00255102  10 t-inv T
  0.500000  0.142857  0.000000    0.00255102  10 t-inv T
 -0.285714 -0.500000  0.000000    0.00255102  11 t-inv T
  0.500000  0.285714  0.000000    0.00255102  11 t-inv T
 -0.428571 -0.500000  0.000000    0.00255102  12 t-inv T
  0.500000  0.428571  0.000000    0.00255102  12 t-inv T
  0.000000  0.000000 -0.142857    0.00510204  13 t-inv T
 -0.142857  0.000000 -0.142857    0.00255102  14 t-inv T
  0.000000  0.142857 -0.142857    0.00255102  14 t-inv T
 -0.285714  0.000000 -0.142857    0.00255102  15 t-inv T
  0.000000  0.285714 -0.142857    0.00255102  15 t-inv T
 -0.428571  0.000000 -0.142857    0.00255102  16 t-inv T
  0.000000  0.428571 -0.142857    0.00255102  16 t-inv T
  0.428571  0.000000 -0.142857    0.00255102  17 t-inv T
  0.000000 -0.428571 -0.142857    0.00255102  17 t-inv T
  0.285714  0.000000 -0.142857    0.00255102  18 t-inv T
  0.000000 -0.285714 -0.142857    0.00255102  18 t-inv T
  0.142857  0.000000 -0.142857    0.00255102  19 t-inv T
  0.000000 -0.142857 -0.142857    0.00255102  19 t-inv T
  0.000000 -0.250000 -0.142857    0.00510204  20 t-inv T
  0.250000  0.000000 -0.142857    0.00510204  20 t-inv T
 -0.142857 -0.250000 -0.142857    0.00510204  21 t-inv T
  0.250000  0.142857 -0.142857    0.00510204  21 t-inv T
 -0.285714 -0.250000 -0.142857    0.00510204  22 t-inv T
  0.250000  0.285714 -0.142857    0.00510204  22 t-inv T
 -0.428571 -0.250000 -0.142857    0.00510204  23 t-inv T
  0.250000  0.428571 -0.142857    0.00510204  23 t-inv T
  0.428571 -0.250000 -0.142857    0.00510204  24 t-inv T
  0.250000 -0.428571 -0.142857    0.00510204  24 t-inv T
  0.285714 -0.250000 -0.142857    0.00510204  25 t-inv T
  0.250000 -0.285714 -0.142857    0.00510204  25 t-inv T
  0.142857 -0.250000 -0.142857    0.00510204  26 t-inv T
  0.250000 -0.142857 -0.142857    0.00510204  26 t-inv T
  0.000000 -0.500000 -0.142857    0.00255102  27 t-inv T
  0.500000  0.000000 -0.142857    0.00255102  27 t-inv T
 -0.142857 -0.500000 -0.142857    0.00255102  28 t-inv T
  0.500000  0.142857 -0.142857    0.00255102  28 t-inv T
 -0.285714 -0.500000 -0.142857    0.00255102  29 t-inv T
  0.500000  0.285714 -0.142857    0.00255102  29 t-inv T
 -0.428571 -0.500000 -0.142857    0.00255102  30 t-inv T
  0.500000  0.428571 -0.142857    0.00255102  30 t-inv T
  0.428571 -0.500000 -0.142857    0.00255102  31 t-inv T
  0.500000 -0.428571 -0.142857    0.00255102  31 t-inv T
  0.285714 -0.500000 -0.142857    0.00255102  32 t-inv T
  0.500000 -0.285714 -0.142857    0.00255102  32 t-inv T
  0.142857 -0.500000 -0.142857    0.00255102  33 t-inv T
  0.500000 -0.142857 -0.142857    0.00255102  33 t-inv T
  0.000000  0.000000 -0.285714    0.00510204  34 t-inv T
 -0.142857  0.000000 -0.285714    0.00255102  35 t-inv T
  0.000000  0.142857 -0.285714    0.00255102  35 t-inv T
 -0.285714  0.000000 -0.285714    0.00255102  36 t-inv T
  0.000000  0.285714 -0.285714    0.00255102  36 t-inv T
 -0.428571  0.000000 -0.285714    0.00255102  37 t-inv T
  0.000000  0.428571 -0.285714    0.00255102  37 t-inv T
  0.428571  0.000000 -0.285714    0.00255102  38 t-inv T
  0.000000 -0.428571 -0.285714    0.00255102  38 t-inv T
  0.285714  0.000000 -0.285714    0.00255102  39 t-inv T
  0.000000 -0.285714 -0.285714    0.00255102  39 t-inv T
  0.142857  0.000000 -0.285714    0.00255102  40 t-inv T
  0.000000 -0.142857 -0.285714    0.00255102  40 t-inv T
  0.000000 -0.250000 -0.285714    0.00510204  41 t-inv T
  0.250000  0.000000 -0.285714    0.00510204  41 t-inv T
 -0.142857 -0.250000 -0.285714    0.00510204  42 t-inv T
  0.250000  0.142857 -0.285714    0.00510204  42 t-inv T
 -0.285714 -0.250000 -0.285714    0.00510204  43 t-inv T
  0.250000  0.285714 -0.285714    0.00510204  43 t-inv T
 -0.428571 -0.250000 -0.285714    0.00510204  44 t-inv T
  0.250000  0.428571 -0.285714    0.00510204  44 t-inv T
  0.428571 -0.250000 -0.285714    0.00510204  45 t-inv T
  0.250000 -0.428571 -0.285714    0.00510204  45 t-inv T
  0.285714 -0.250000 -0.285714    0.00510204  46 t-inv T
  0.250000 -0.285714 -0.285714    0.00510204  46 t-inv T
  0.142857 -0.250000 -0.285714    0.00510204  47 t-inv T
  0.250000 -0.142857 -0.285714    0.00510204  47 t-inv T
  0.000000 -0.500000 -0.285714    0.00255102  48 t-inv T
  0.500000  0.000000 -0.285714    0.00255102  48 t-inv T
 -0.142857 -0.500000 -0.285714    0.00255102  49 t-inv T
  0.500000  0.142857 -0.285714    0.00255102  49 t-inv T
 -0.285714 -0.500000 -0.285714    0.00255102  50 t-inv T
  0.500000  0.285714 -0.285714    0.00255102  50 t-inv T
 -0.428571 -0.500000 -0.285714    0.00255102  51 t-inv T
  0.500000  0.428571 -0.285714    0.00255102  51 t-inv T
  0.428571 -0.500000 -0.285714    0.00255102  52 t-inv T
  0.500000 -0.428571 -0.285714    0.00255102  52 t-inv T
  0.285714 -0.500000 -0.285714    0.00255102  53 t-inv T
  0.500000 -0.285714 -0.285714    0.00255102  53 t-inv T
  0.142857 -0.500000 -0.285714    0.00255102  54 t-inv T
  0.500000 -0.142857 -0.285714    0.00255102  54 t-inv T
  0.000000  0.000000 -0.428571    0.00510204  55 t-inv T
 -0.142857  0.000000 -0.428571    0.00255102  56 t-inv T
  0.000000  0.142857 -0.428571    0.00255102  56 t-inv T
 -0.285714  0.000000 -0.428571    0.00255102  57 t-inv T
  0.000000  0.285714 -0.428571    0.00255102  57 t-inv T
 -0.428571  0.000000 -0.428571    0.00255102  58 t-inv T
  0.000000  0.428571 -0.428571    0.00255102  58 t-inv T
  0.428571  0.000000 -0.428571    0.00255102  59 t-inv T
  0.000000 -0.428571 -0.428571    0.00255102  59 t-inv T
  0.285714  0.000000 -0.428571    0.00255102  60 t-inv T
  0.000000 -0.285714 -0.428571    0.00255102  60 t-inv T
  0.142857  0.000000 -0.428571    0.00255102  61 t-inv T
  0.000000 -0.142857 -0.428571    0.00255102  61 t-inv T
  0.000000 -0.250000 -0.428571    0.00510204  62 t-inv T
  0.250000  0.000000 -0.428571    0.00510204  62 t-inv T
 -0.142857 -0.250000 -0.428571    0.00510204  63 t-inv T
  0.250000  0.142857 -0.428571    0.00510204  63 t-inv T
 -0.285714 -0.250000 -0.428571    0.00510204  64 t-inv T
  0.250000  0.285714 -0.428571    0.00510204  64 t-inv T
 -0.428571 -0.250000 -0.428571    0.00510204  65 t-inv T
  0.250000  0.428571 -0.428571    0.00510204  65 t-inv T
  0.428571 -0.250000 -0.428571    0.00510204  66 t-inv T
  0.250000 -0.428571 -0.428571    0.00510204  66 t-inv T
  0.285714 -0.250000 -0.428571    0.00510204  67 t-inv T
  0.250000 -0.285714 -0.428571    0.00510204  67 t-inv T
  0.142857 -0.250000 -0.428571    0.00510204  68 t-inv T
  0.250000 -0.142857 -0.428571    0.00510204  68 t-inv T
  0.000000 -0.500000 -0.428571    0.00255102  69 t-inv T
  0.500000  0.000000 -0.428571    0.00255102  69 t-inv T
 -0.142857 -0.500000 -0.428571    0.00255102  70 t-inv T
  0.500000  0.142857 -0.428571    0.00255102  70 t-inv T
 -0.285714 -0.500000 -0.428571    0.00255102  71 t-inv T
  0.500000  0.285714 -0.428571    0.00255102  71 t-inv T
 -0.428571 -0.500000 -0.428571    0.00255102  72 t-inv T
  0.500000  0.428571 -0.428571    0.00255102  72 t-inv T
  0.428571 -0.500000 -0.428571    0.00255102  73 t-inv T
  0.500000 -0.428571 -0.428571    0.00255102  73 t-inv T
  0.285714 -0.500000 -0.428571    0.00255102  74 t-inv T
  0.500000 -0.285714 -0.428571    0.00255102  74 t-inv T
  0.142857 -0.500000 -0.428571    0.00255102  75 t-inv T
  0.500000 -0.142857 -0.428571    0.00255102  75 t-inv T


--------------------------------------------------------------------------------------------------------




 Dimension of arrays:
   k-points           NKPTS =    151   k-points in BZ     NKDIM =    365   number of bands    NBANDS=    140
   number of dos      NEDOS =   3000   number of ions     NIONS =     12
   non local maximal  LDIM  =      6   non local SUM 2l+1 LMDIM =     18
   total plane-waves  NPLWV = 125000
   max r-space proj   IRMAX =      1   max aug-charges    IRDMAX=  21002
   dimension x,y,z NGX =    50 NGY =   50 NGZ =   50
   dimension x,y,z NGXF=   100 NGYF=  100 NGZF=  100
   support grid    NGXF=   100 NGYF=  100 NGZF=  100
   ions per type =               4   2   6
   NGX,Y,Z   is equivalent  to a cutoff of  12.11, 12.11, 12.20 a.u.
   NGXF,Y,Z  is equivalent  to a cutoff of  24.22, 24.22, 24.39 a.u.

 SYSTEM =  unknown system                          
 POSCAR =  Cu4 Ge2 Se6                             

 Startparameter for this run:
   NWRITE =      2    write-flag & timer
   PREC   = accura    normal or accurate (medium, high low for compatibility)
   ISTART =      0    job   : 0-new  1-cont  2-samecut
   ICHARG =      2    charge: 1-file 2-atom 10-const
   ISPIN  =      1    spin polarized calculation?
   LNONCOLLINEAR =      F non collinear calculations
   LSORBIT =      F    spin-orbit coupling
   INIWAV =      1    electr: 0-lowe 1-rand  2-diag
   LASPH  =      T    aspherical Exc in radial PAW
 Electronic Relaxation 1
   ENCUT  =  500.0 eV  36.75 Ry    6.06 a.u.  12.51 12.51 12.43*2*pi/ulx,y,z
   ENINI  =  500.0     initial cutoff
   ENAUG  =  587.0 eV  augmentation charge cutoff
   NELM   =    200;   NELMIN=  2; NELMDL=  0     # of ELM steps 
   EDIFF  = 0.1E-05   stopping-criterion for ELM
   LREAL  =      F    real-space projection
   NLSPLINE    = F    spline interpolate recip. space projectors
   LCOMPAT=      F    compatible to vasp.4.4
   GGA_COMPAT  = T    GGA compatible to vasp.4.4-vasp.4.6
   LMAXPAW     = -100 max onsite density
   LMAXMIX     =    4 max onsite mixed and CHGCAR
   VOSKOWN=      0    Vosko Wilk Nusair interpolation
   ROPT   =    0.00000   0.00000   0.00000
 Ionic relaxation
   EDIFFG = -.1E-01   stopping-criterion for IOM
   NSW    =      0    number of steps for IOM
   NBLOCK =      1;   KBLOCK =      1    inner block; outer block 
   IBRION =     -1    ionic relax: 0-MD 1-quasi-New 2-CG
   NFREE  =      0    steps in history (QN), initial steepest desc. (CG)
   ISIF   =      0    stress and relaxation
   IWAVPR =     10    prediction:  0-non 1-charg 2-wave 3-comb
   ISYM   =      3    0-nonsym 1-usesym 2-fastsym
   LCORR  =      T    Harris-Foulkes like correction to forces

   POTIM  = 0.5000    time-step for ionic-motion
   TEIN   =    0.0    initial temperature
   TEBEG  =    0.0;   TEEND  =   0.0 temperature during run
   SMASS  =  -3.00    Nose mass-parameter (am)
   estimated Nose-frequenzy (Omega)   =  0.10E-29 period in steps = 0.13E+47 mass=  -0.108E-26a.u.
   SCALEE = 1.0000    scale energy and forces
   NPACO  =    256;   APACO  = 10.0  distance and # of slots for P.C.
   PSTRESS=    0.0 pullay stress

  Mass of Ions in am
   POMASS =  63.55 72.61 78.96
  Ionic Valenz
   ZVAL   =  11.00 14.00  6.00
  Atomic Wigner-Seitz radii
   RWIGS  =  -1.00 -1.00 -1.00
  virtual crystal weights 
   VCA    =   1.00  1.00  1.00
   NELECT =     108.0000    total number of electrons
   NUPDOWN=      -1.0000    fix difference up-down

 DOS related values:
   EMIN   =  10.00;   EMAX   =-10.00  energy-range for DOS
   EFERMI =   0.00;   METHOD = LEGACY      
   ISMEAR =     0;   SIGMA  =   0.02  broadening in eV -4-tet -1-fermi 0-gaus

 Electronic relaxation 2 (details)
   IALGO  =     38    algorithm
   LDIAG  =      T    sub-space diagonalisation (order eigenvalues)
   LSUBROT=      F    optimize rotation matrix (better conditioning)
   TURBO    =      0    0=normal 1=particle mesh
   IRESTART =      0    0=no restart 2=restart with 2 vectors
   NREBOOT  =      0    no. of reboots
   NMIN     =      0    reboot dimension
   EREF     =   0.00    reference energy to select bands
   IMIX   =      1    mixing-type and parameters
     AMIX     =   0.40;   BMIX     =  1.00
     AMIX_MAG =   1.60;   BMIX_MAG =  1.00
     AMIN     =   0.10
     WC   =   100.;   INIMIX=   1;  MIXPRE=   1;  MAXMIX= -45

 Intra band minimization:
   WEIMIN = 0.0000     energy-eigenvalue tresh-hold
   EBREAK =  0.18E-08  absolut break condition
   DEPER  =   0.30     relativ break condition  

   TIME   =   0.30     timestep for ELM

  volume/ion in A,a.u.               =      21.84       147.35
  Fermi-wavevector in a.u.,A,eV,Ry     =   1.218342  2.302333 20.195910  1.484357
  Thomas-Fermi vector in A             =   2.353632

 Write flags
   LWAVE        =      T    write WAVECAR
   LDOWNSAMPLE  =      F    k-point downsampling of WAVECAR
   LCHARG       =      T    write CHGCAR
   LVTOT        =      F    write LOCPOT, total local potential
   LVHAR        =      F    write LOCPOT, Hartree potential only
   LELF         =      F    write electronic localiz. function (ELF)
   LORBIT       =     14    0 simple, 1 ext, 2 COOP (PROOUT), +10 PAW based schemes


 Dipole corrections
   LMONO  =      F    monopole corrections only (constant potential shift)
   LDIPOL =      F    correct potential (dipole corrections)
   IDIPOL =      0    1-x, 2-y, 3-z, 4-all directions 
   EPSILON=  1.0000000 bulk dielectric constant

 Exchange correlation treatment:
   GGA     =    PE    GGA type
   LEXCH   =     8    internal setting for exchange type
   LIBXC   =     F    Libxc                    
   VOSKOWN =     0    Vosko Wilk Nusair interpolation
   EXXOEP  =     0    0=HF, 1=EXX-LHF (local Hartree Fock) 2=EXX OEP
   LHFCALC =     T    Hartree Fock is set to
   LSYMGRAD=     F    symmetrize gradient (conserves proper symmetry)
   PRECFOCK=fast      Normal, Fast or Accurate (Low or Medium for compatibility)
   LRHFCALC=     F    long range Hartree Fock
   LRSCOR  =     F    long range correlation only (use DFT for short range part)
   LTHOMAS =     F    Thomas Fermi screening in HF
   LMODELHF=     F    short range full HF, long range fraction AEXX
   FOCKCORR=     1    mode to apply convergence corrections
   LFOCKACE=     T    use Adeptively-Compressed-Exchange operator
   ENCUT4O =  -1.0   cutoff for four orbital integrals eV
   LMAXFOCK=     4    L truncation for augmentation on plane wave grid
   LMAXFOCKAE=  -1    L truncation for all-electron charge restoration on plane wave grid
   NMAXFOCKAE=   1    number of basis functions for all-electron charge restoration
   LFOCKAEDFT=     F  apply the AE augmentation even for DFT
   NKREDX  =     1    reduce k-point grid by
   NKREDY  =     1    reduce k-point grid by
   NKREDZ  =     1    reduce k-point grid by
   SHIFTRED=     F    shift reduced grid of Gamma
   HFKIDENT=     F    idential grid for each k-point
   ODDONLY =     F    use only odd q-grid points
   EVENONLY=     F    use only even q-grid points
   HFALPHA =   -1.0000 decay constant for conv. correction
   MCALPHA =    0.0000 extent of test-charge in conv. correction in multipole expansion
   AEXX    =    0.2500 exact exchange contribution
   HFSCREEN=    0.2080 screening length (either q_TF or 0.3 A-1)
   HFSCREENC=   0.2080 screening length for correlation (either q_TF or 0.3 A-1)
   HFRCUT  =    0.0000 spherical cutoff for potential kernel
   ALDAX   =    0.7500 LDA exchange part
   AGGAX   =    0.7500 GGA exchange part
   ALDAC   =    1.0000 LDA correlation
   AGGAC   =    1.0000 GGA correlation
   ENCUTFOCK=  -1.0 apply spherical cutoff to Coloumb kernel
   NBANDSGWLOW=     1    first orbital included in HF term
   NBLOCK_FOCK=    64    blocking factor in FOCK_ACC

 Linear response parameters
   LEPSILON=     F    determine dielectric tensor
   LRPA    =     F    only Hartree local field effects (RPA)
   LNABLA  =     F    use nabla operator in PAW spheres
   LVEL    =     F    velocity operator in full k-point grid
   CSHIFT  =0.1000    complex shift for real part using Kramers Kronig
   OMEGAMAX=  -1.0    maximum frequency
   DEG_THRESHOLD= 0.2000000E-02 threshold for treating states as degnerate
   RTIME   =   -0.100 relaxation time in fs
  (WPLASMAI=    0.000 imaginary part of plasma frequency in eV, 0.658/RTIME)
   DFIELD  = 0.0000000 0.0000000 0.0000000 field for delta impulse in time

  Optional k-point grid parameters
   LKPOINTS_OPT  =     F    use optional k-point grid
   KPOINTS_OPT_MODE=     1    mode for optional k-point grid

 Orbital magnetization related:
   ORBITALMAG=     F  switch on orbital magnetization
   LCHIMAG   =     F  perturbation theory with respect to B field
   DQ        =  0.001000  dq finite difference perturbation B field
   LLRAUG    =     F  two centre corrections for induced B field
   LBONE     =     F  B-component reconstruction in AE one-centre
   LVGVCALC  =     T  calculate vGv susceptibility
   LVGVAPPL  =     F  apply vGv susceptibility instead of pGv for G=0

 Random number generation:
   RANDOM_GENERATOR = DEFAULT
   PCG_SEED         = not used


--------------------------------------------------------------------------------------------------------


 Static calculation
 charge density and potential will be updated during run
 non-spin polarized calculation
 Variant of blocked Davidson
 Davidson routine will perform the subspace rotation
 perform sub-space diagonalisation
    after iterative eigenvector-optimisation
 Kerker-like  mixing scheme
 using additional bands           86
 reciprocal scheme for non local part
 use partial core corrections
 calculate Harris-corrections to forces   (improved forces if not selfconsistent)
 use gradient corrections 
 use of overlap-Matrix (Vanderbilt PP)
 Gauss-broadening in eV      SIGMA  =   0.02


--------------------------------------------------------------------------------------------------------


  energy-cutoff  :      500.00
  volume of cell :      262.02
      direct lattice vectors                 reciprocal lattice vectors
     3.403488257  5.959540085  0.000000000     0.146908102  0.083899092  0.049463472
    -3.403488257  5.959540085  0.000000000    -0.146908102  0.083899092 -0.049463472
    -2.174765060  0.000000000  6.459122124     0.000000000 -0.000000000  0.154819801

  length of vectors
     6.862933071  6.862933071  6.815413537     0.176260271  0.176260271  0.154819801



 k-points in units of 2pi/SCALE and weight: \Gamma -> A                             
   0.00000000  0.00000000  0.00000000       0.005
   0.02098687  0.01198558  0.00706621       0.010
   0.04197374  0.02397117  0.01413242       0.010
   0.06296062  0.03595675  0.02119863       0.010
  -0.03672703  0.02097477 -0.01236587       0.010
  -0.01574015  0.03296036 -0.00529966       0.020
   0.00524672  0.04494594  0.00176655       0.020
   0.02623359  0.05693153  0.00883276       0.020
  -0.07345405  0.04194955 -0.02473174       0.005
  -0.05246718  0.05393513 -0.01766553       0.010
  -0.03148031  0.06592071 -0.01059932       0.010
  -0.01049344  0.07790630 -0.00353311       0.010
   0.00000000  0.00000000  0.02211711       0.010
   0.02098687  0.01198558  0.02918332       0.010
   0.04197374  0.02397117  0.03624954       0.010
   0.06296062  0.03595675  0.04331575       0.010
  -0.06296062 -0.03595675  0.00091848       0.010
  -0.04197374 -0.02397117  0.00798469       0.010
  -0.02098687 -0.01198558  0.01505090       0.010
  -0.03672703  0.02097477  0.00975125       0.020
  -0.01574015  0.03296036  0.01681746       0.020
   0.00524672  0.04494594  0.02388367       0.020
   0.02623359  0.05693153  0.03094988       0.020
  -0.09968764 -0.01498198 -0.01144738       0.020
  -0.07870077 -0.00299640 -0.00438117       0.020
  -0.05771390  0.00898919  0.00268504       0.020
  -0.07345405  0.04194955 -0.00261462       0.010
  -0.05246718  0.05393513  0.00445159       0.010
  -0.03148031  0.06592071  0.01151780       0.010
  -0.01049344  0.07790630  0.01858401       0.010
  -0.13641467  0.00599279 -0.02381325       0.010
  -0.11542779  0.01797838 -0.01674704       0.010
  -0.09444092  0.02996396 -0.00968083       0.010
   0.00000000  0.00000000  0.04423423       0.010
   0.02098687  0.01198558  0.05130044       0.010
   0.04197374  0.02397117  0.05836665       0.010
   0.06296062  0.03595675  0.06543286       0.010
  -0.06296062 -0.03595675  0.02303560       0.010
  -0.04197374 -0.02397117  0.03010181       0.010
  -0.02098687 -0.01198558  0.03716802       0.010
  -0.03672703  0.02097477  0.03186836       0.020
  -0.01574015  0.03296036  0.03893457       0.020
   0.00524672  0.04494594  0.04600078       0.020
   0.02623359  0.05693153  0.05306699       0.020
  -0.09968764 -0.01498198  0.01066973       0.020
  -0.07870077 -0.00299640  0.01773594       0.020
  -0.05771390  0.00898919  0.02480215       0.020
  -0.07345405  0.04194955  0.01950249       0.010
  -0.05246718  0.05393513  0.02656870       0.010
  -0.03148031  0.06592071  0.03363491       0.010
  -0.01049344  0.07790630  0.04070112       0.010
  -0.13641467  0.00599279 -0.00169614       0.010
  -0.11542779  0.01797838  0.00537007       0.010
  -0.09444092  0.02996396  0.01243628       0.010
   0.00000000  0.00000000  0.06635134       0.010
   0.02098687  0.01198558  0.07341755       0.010
   0.04197374  0.02397117  0.08048376       0.010
   0.06296062  0.03595675  0.08754997       0.010
  -0.06296062 -0.03595675  0.04515271       0.010
  -0.04197374 -0.02397117  0.05221892       0.010
  -0.02098687 -0.01198558  0.05928513       0.010
  -0.03672703  0.02097477  0.05398548       0.020
  -0.01574015  0.03296036  0.06105169       0.020
   0.00524672  0.04494594  0.06811790       0.020
   0.02623359  0.05693153  0.07518411       0.020
  -0.09968764 -0.01498198  0.03278684       0.020
  -0.07870077 -0.00299640  0.03985305       0.020
  -0.05771390  0.00898919  0.04691926       0.020
  -0.07345405  0.04194955  0.04161961       0.010
  -0.05246718  0.05393513  0.04868582       0.010
  -0.03148031  0.06592071  0.05575203       0.010
  -0.01049344  0.07790630  0.06281824       0.010
  -0.13641467  0.00599279  0.02042098       0.010
  -0.11542779  0.01797838  0.02748719       0.010
  -0.09444092  0.02996396  0.03455340       0.010
   0.05184992  0.02961144  0.01745770       0.000
   0.04968951  0.02837763  0.01673029       0.000
   0.04752909  0.02714382  0.01600289       0.000
   0.04536868  0.02591001  0.01527548       0.000
   0.04320827  0.02467620  0.01454808       0.000
   0.04104785  0.02344239  0.01382068       0.000
   0.03888744  0.02220858  0.01309327       0.000
   0.03672703  0.02097477  0.01236587       0.000
   0.03456661  0.01974096  0.01163846       0.000
   0.03240620  0.01850715  0.01091106       0.000
   0.03024579  0.01727334  0.01018366       0.000
   0.02808537  0.01603953  0.00945625       0.000
   0.02592496  0.01480572  0.00872885       0.000
   0.02376455  0.01357191  0.00800144       0.000
   0.02160413  0.01233810  0.00727404       0.000
   0.01944372  0.01110429  0.00654664       0.000
   0.01728331  0.00987048  0.00581923       0.000
   0.01512289  0.00863667  0.00509183       0.000
   0.01296248  0.00740286  0.00436442       0.000
   0.01080207  0.00616905  0.00363702       0.000
   0.00864165  0.00493524  0.00290962       0.000
   0.00648124  0.00370143  0.00218221       0.000
   0.00432083  0.00246762  0.00145481       0.000
   0.00216041  0.00123381  0.00072740       0.000
   0.00000000  0.00000000  0.00000000       0.000
   0.00000000  0.00000000  0.00258033       0.000
   0.00000000  0.00000000  0.00516066       0.000
   0.00000000  0.00000000  0.00774099       0.000
   0.00000000  0.00000000  0.01032132       0.000
   0.00000000  0.00000000  0.01290165       0.000
   0.00000000  0.00000000  0.01548198       0.000
   0.00000000  0.00000000  0.01806231       0.000
   0.00000000  0.00000000  0.02064264       0.000
   0.00000000  0.00000000  0.02322297       0.000
   0.00000000  0.00000000  0.02580330       0.000
   0.00000000  0.00000000  0.02838363       0.000
   0.00000000  0.00000000  0.03096396       0.000
   0.00000000  0.00000000  0.03354429       0.000
   0.00000000  0.00000000  0.03612462       0.000
   0.00000000  0.00000000  0.03870495       0.000
   0.00000000  0.00000000  0.04128528       0.000
   0.00000000  0.00000000  0.04386561       0.000
   0.00000000  0.00000000  0.04644594       0.000
   0.00000000  0.00000000  0.04902627       0.000
   0.00000000  0.00000000  0.05160660       0.000
   0.00000000  0.00000000  0.05418693       0.000
   0.00000000  0.00000000  0.05676726       0.000
   0.00000000  0.00000000  0.05934759       0.000
   0.00000000  0.00000000  0.06192792       0.000
   0.00000000  0.00000000  0.06450825       0.000
   0.00000000  0.00000000  0.06708858       0.000
   0.00000000  0.00000000  0.06966891       0.000
   0.00000000  0.00000000  0.07224924       0.000
   0.00000000  0.00000000  0.07482957       0.000
   0.00000000  0.00000000  0.07740990       0.000
   0.00000000  0.00262185  0.07740990       0.000
   0.00000000  0.00524369  0.07740990       0.000
   0.00000000  0.00786554  0.07740990       0.000
   0.00000000  0.01048739  0.07740990       0.000
   0.00000000  0.01310923  0.07740990       0.000
   0.00000000  0.01573108  0.07740990       0.000
  -0.00000000  0.01835293  0.07740990       0.000
   0.00000000  0.02097477  0.07740990       0.000
   0.00000000  0.02359662  0.07740990       0.000
   0.00000000  0.02621847  0.07740990       0.000
  -0.00000000  0.02884031  0.07740990       0.000
   0.00000000  0.03146216  0.07740990       0.000
   0.00000000  0.03408401  0.07740990       0.000
  -0.00000000  0.03670585  0.07740990       0.000
  -0.00000000  0.03932770  0.07740990       0.000
   0.00000000  0.04194955  0.07740990       0.000
   0.00000000  0.04457139  0.07740990       0.000
   0.00000000  0.04719324  0.07740990       0.000
  -0.00000000  0.04981509  0.07740990       0.000
   0.00000000  0.05243693  0.07740990       0.000
   0.00000000  0.05505878  0.07740990       0.000

 k-points in reciprocal lattice and weights: \Gamma -> A                             
   0.00000000  0.00000000  0.00000000       0.005
   0.14285714  0.00000000  0.00000000       0.010
   0.28571429  0.00000000  0.00000000       0.010
   0.42857143  0.00000000  0.00000000       0.010
   0.00000000  0.25000000  0.00000000       0.010
   0.14285714  0.25000000  0.00000000       0.020
   0.28571429  0.25000000  0.00000000       0.020
   0.42857143  0.25000000  0.00000000       0.020
   0.00000000  0.50000000  0.00000000       0.005
   0.14285714  0.50000000  0.00000000       0.010
   0.28571429  0.50000000  0.00000000       0.010
   0.42857143  0.50000000  0.00000000       0.010
   0.00000000  0.00000000  0.14285714       0.010
   0.14285714  0.00000000  0.14285714       0.010
   0.28571429  0.00000000  0.14285714       0.010
   0.42857143  0.00000000  0.14285714       0.010
  -0.42857143  0.00000000  0.14285714       0.010
  -0.28571429  0.00000000  0.14285714       0.010
  -0.14285714  0.00000000  0.14285714       0.010
   0.00000000  0.25000000  0.14285714       0.020
   0.14285714  0.25000000  0.14285714       0.020
   0.28571429  0.25000000  0.14285714       0.020
   0.42857143  0.25000000  0.14285714       0.020
  -0.42857143  0.25000000  0.14285714       0.020
  -0.28571429  0.25000000  0.14285714       0.020
  -0.14285714  0.25000000  0.14285714       0.020
   0.00000000  0.50000000  0.14285714       0.010
   0.14285714  0.50000000  0.14285714       0.010
   0.28571429  0.50000000  0.14285714       0.010
   0.42857143  0.50000000  0.14285714       0.010
  -0.42857143  0.50000000  0.14285714       0.010
  -0.28571429  0.50000000  0.14285714       0.010
  -0.14285714  0.50000000  0.14285714       0.010
   0.00000000  0.00000000  0.28571429       0.010
   0.14285714  0.00000000  0.28571429       0.010
   0.28571429  0.00000000  0.28571429       0.010
   0.42857143  0.00000000  0.28571429       0.010
  -0.42857143  0.00000000  0.28571429       0.010
  -0.28571429  0.00000000  0.28571429       0.010
  -0.14285714  0.00000000  0.28571429       0.010
   0.00000000  0.25000000  0.28571429       0.020
   0.14285714  0.25000000  0.28571429       0.020
   0.28571429  0.25000000  0.28571429       0.020
   0.42857143  0.25000000  0.28571429       0.020
  -0.42857143  0.25000000  0.28571429       0.020
  -0.28571429  0.25000000  0.28571429       0.020
  -0.14285714  0.25000000  0.28571429       0.020
   0.00000000  0.50000000  0.28571429       0.010
   0.14285714  0.50000000  0.28571429       0.010
   0.28571429  0.50000000  0.28571429       0.010
   0.42857143  0.50000000  0.28571429       0.010
  -0.42857143  0.50000000  0.28571429       0.010
  -0.28571429  0.50000000  0.28571429       0.010
  -0.14285714  0.50000000  0.28571429       0.010
   0.00000000  0.00000000  0.42857143       0.010
   0.14285714  0.00000000  0.42857143       0.010
   0.28571429  0.00000000  0.42857143       0.010
   0.42857143  0.00000000  0.42857143       0.010
  -0.42857143  0.00000000  0.42857143       0.010
  -0.28571429  0.00000000  0.42857143       0.010
  -0.14285714  0.00000000  0.42857143       0.010
   0.00000000  0.25000000  0.42857143       0.020
   0.14285714  0.25000000  0.42857143       0.020
   0.28571429  0.25000000  0.42857143       0.020
   0.42857143  0.25000000  0.42857143       0.020
  -0.42857143  0.25000000  0.42857143       0.020
  -0.28571429  0.25000000  0.42857143       0.020
  -0.14285714  0.25000000  0.42857143       0.020
   0.00000000  0.50000000  0.42857143       0.010
   0.14285714  0.50000000  0.42857143       0.010
   0.28571429  0.50000000  0.42857143       0.010
   0.42857143  0.50000000  0.42857143       0.010
  -0.42857143  0.50000000  0.42857143       0.010
  -0.28571429  0.50000000  0.42857143       0.010
  -0.14285714  0.50000000  0.42857143       0.010
   0.35294118 -0.00000000 -0.00000000       0.000
   0.33823529 -0.00000000 -0.00000000       0.000
   0.32352941  0.00000000  0.00000000       0.000
   0.30882353 -0.00000000 -0.00000000       0.000
   0.29411765  0.00000000 -0.00000000       0.000
   0.27941176 -0.00000000  0.00000000       0.000
   0.26470588 -0.00000000 -0.00000000       0.000
   0.25000000  0.00000000 -0.00000000       0.000
   0.23529412  0.00000000 -0.00000000       0.000
   0.22058824 -0.00000000  0.00000000       0.000
   0.20588235 -0.00000000 -0.00000000       0.000
   0.19117647 -0.00000000 -0.00000000       0.000
   0.17647059 -0.00000000 -0.00000000       0.000
   0.16176471 -0.00000000  0.00000000       0.000
   0.14705882  0.00000000 -0.00000000       0.000
   0.13235294  0.00000000  0.00000000       0.000
   0.11764706 -0.00000000  0.00000000       0.000
   0.10294118  0.00000000  0.00000000       0.000
   0.08823529  0.00000000  0.00000000       0.000
   0.07352941 -0.00000000 -0.00000000       0.000
   0.05882353 -0.00000000 -0.00000000       0.000
   0.04411765 -0.00000000 -0.00000000       0.000
   0.02941176  0.00000000 -0.00000000       0.000
   0.01470588 -0.00000000 -0.00000000       0.000
   0.00000000  0.00000000  0.00000000       0.000
   0.00000000  0.00000000  0.01666667       0.000
   0.00000000  0.00000000  0.03333333       0.000
   0.00000000  0.00000000  0.05000000       0.000
   0.00000000  0.00000000  0.06666667       0.000
   0.00000000  0.00000000  0.08333333       0.000
   0.00000000  0.00000000  0.10000000       0.000
   0.00000000  0.00000000  0.11666667       0.000
   0.00000000  0.00000000  0.13333333       0.000
   0.00000000  0.00000000  0.15000000       0.000
   0.00000000  0.00000000  0.16666667       0.000
   0.00000000  0.00000000  0.18333333       0.000
   0.00000000  0.00000000  0.20000000       0.000
   0.00000000  0.00000000  0.21666667       0.000
   0.00000000  0.00000000  0.23333333       0.000
   0.00000000  0.00000000  0.25000000       0.000
   0.00000000  0.00000000  0.26666667       0.000
   0.00000000  0.00000000  0.28333333       0.000
   0.00000000  0.00000000  0.30000000       0.000
   0.00000000  0.00000000  0.31666667       0.000
   0.00000000  0.00000000  0.33333333       0.000
   0.00000000  0.00000000  0.35000000       0.000
   0.00000000  0.00000000  0.36666667       0.000
   0.00000000  0.00000000  0.38333333       0.000
   0.00000000  0.00000000  0.40000000       0.000
   0.00000000  0.00000000  0.41666667       0.000
   0.00000000  0.00000000  0.43333333       0.000
   0.00000000  0.00000000  0.45000000       0.000
   0.00000000  0.00000000  0.46666667       0.000
   0.00000000  0.00000000  0.48333333       0.000
   0.00000000  0.00000000  0.50000000       0.000
   0.01562500  0.01562500  0.50000000       0.000
   0.03125000  0.03125000  0.50000000       0.000
   0.04687500  0.04687500  0.50000000       0.000
   0.06250000  0.06250000  0.50000000       0.000
   0.07812500  0.07812500  0.50000000       0.000
   0.09375000  0.09375000  0.50000000       0.000
   0.10937500  0.10937500  0.50000000       0.000
   0.12500000  0.12500000  0.50000000       0.000
   0.14062500  0.14062500  0.50000000       0.000
   0.15625000  0.15625000  0.50000000       0.000
   0.17187500  0.17187500  0.50000000       0.000
   0.18750000  0.18750000  0.50000000       0.000
   0.20312500  0.20312500  0.50000000       0.000
   0.21875000  0.21875000  0.50000000       0.000
   0.23437500  0.23437500  0.50000000       0.000
   0.25000000  0.25000000  0.50000000       0.000
   0.26562500  0.26562500  0.50000000       0.000
   0.28125000  0.28125000  0.50000000       0.000
   0.29687500  0.29687500  0.50000000       0.000
   0.31250000  0.31250000  0.50000000       0.000
   0.32812500  0.32812500  0.50000000       0.000

 position of ions in fractional coordinates (direct lattice) 
   0.66705818  0.82735048  0.00575888
   0.17264952  0.33294182  0.50575888
   0.84803761  0.97926242  0.50948195
   0.02073758  0.15196239  0.00948195
   0.49167933  0.68001935  0.48611071
   0.31998065  0.50832067  0.98611071
   0.12744751  0.04142428  0.38415272
   0.95857572  0.87255249  0.88415272
   0.29980573  0.20959850  0.87835164
   0.79040150  0.70019427  0.37835164
   0.46596950  0.37162993  0.36932967
   0.62837007  0.53403050  0.86932967

 position of ions in cartesian coordinates  (Angst):
  -0.55807715  8.90598831  0.03719728
  -1.64545968  3.01309186  3.26675834
  -1.55462563 10.88986776  3.29080611
  -0.46724310  1.02921241  0.06124505
  -1.69818962  6.98278521  3.13984842
  -2.78557215  4.93629496  6.36940949
  -0.54266287  1.00639823  2.48128933
  -1.63004540 10.91268194  5.71085039
  -1.60318922  3.03581494  5.67338052
  -0.51580669  8.88326523  2.44381946
  -0.48212166  4.99170739  2.38554547
  -1.56950419  6.92737278  5.61510653



--------------------------------------------------------------------------------------------------------


 k-point   1 :   0.0000 0.0000 0.0000  plane waves:    6635
 k-point   2 :   0.1429 0.0000 0.0000  plane waves:    6661
 k-point   3 :   0.2857 0.0000 0.0000  plane waves:    6667
 k-point   4 :   0.4286 0.0000 0.0000  plane waves:    6660
 k-point   5 :   0.0000 0.2500 0.0000  plane waves:    6656
 k-point   6 :   0.1429 0.2500 0.0000  plane waves:    6675
 k-point   7 :   0.2857 0.2500 0.0000  plane waves:    6664
 k-point   8 :   0.4286 0.2500 0.0000  plane waves:    6664
 k-point   9 :   0.0000 0.5000 0.0000  plane waves:    6660
 k-point  10 :   0.1429 0.5000 0.0000  plane waves:    6647
 k-point  11 :   0.2857 0.5000 0.0000  plane waves:    6662
 k-point  12 :   0.4286 0.5000 0.0000  plane waves:    6638
 k-point  13 :   0.0000 0.0000 0.1429  plane waves:    6671
 k-point  14 :   0.1429 0.0000 0.1429  plane waves:    6674
 k-point  15 :   0.2857 0.0000 0.1429  plane waves:    6664
 k-point  16 :   0.4286 0.0000 0.1429  plane waves:    6647
 k-point  17 :  -0.4286 0.0000 0.1429  plane waves:    6647
 k-point  18 :  -0.2857 0.0000 0.1429  plane waves:    6660
 k-point  19 :  -0.1429 0.0000 0.1429  plane waves:    6675
 k-point  20 :   0.0000 0.2500 0.1429  plane waves:    6663
 k-point  21 :   0.1429 0.2500 0.1429  plane waves:    6669
 k-point  22 :   0.2857 0.2500 0.1429  plane waves:    6665
 k-point  23 :   0.4286 0.2500 0.1429  plane waves:    6649
 k-point  24 :  -0.4286 0.2500 0.1429  plane waves:    6647
 k-point  25 :  -0.2857 0.2500 0.1429  plane waves:    6647
 k-point  26 :  -0.1429 0.2500 0.1429  plane waves:    6642
 k-point  27 :   0.0000 0.5000 0.1429  plane waves:    6641
 k-point  28 :   0.1429 0.5000 0.1429  plane waves:    6652
 k-point  29 :   0.2857 0.5000 0.1429  plane waves:    6661
 k-point  30 :   0.4286 0.5000 0.1429  plane waves:    6646
 k-point  31 :  -0.4286 0.5000 0.1429  plane waves:    6649
 k-point  32 :  -0.2857 0.5000 0.1429  plane waves:    6652
 k-point  33 :  -0.1429 0.5000 0.1429  plane waves:    6637
 k-point  34 :   0.0000 0.0000 0.2857  plane waves:    6678
 k-point  35 :   0.1429 0.0000 0.2857  plane waves:    6669
 k-point  36 :   0.2857 0.0000 0.2857  plane waves:    6643
 k-point  37 :   0.4286 0.0000 0.2857  plane waves:    6631
 k-point  38 :  -0.4286 0.0000 0.2857  plane waves:    6654
 k-point  39 :  -0.2857 0.0000 0.2857  plane waves:    6649
 k-point  40 :  -0.1429 0.0000 0.2857  plane waves:    6667
 k-point  41 :   0.0000 0.2500 0.2857  plane waves:    6653
 k-point  42 :   0.1429 0.2500 0.2857  plane waves:    6671
 k-point  43 :   0.2857 0.2500 0.2857  plane waves:    6652
 k-point  44 :   0.4286 0.2500 0.2857  plane waves:    6640
 k-point  45 :  -0.4286 0.2500 0.2857  plane waves:    6650
 k-point  46 :  -0.2857 0.2500 0.2857  plane waves:    6663
 k-point  47 :  -0.1429 0.2500 0.2857  plane waves:    6659
 k-point  48 :   0.0000 0.5000 0.2857  plane waves:    6647
 k-point  49 :   0.1429 0.5000 0.2857  plane waves:    6653
 k-point  50 :   0.2857 0.5000 0.2857  plane waves:    6652
 k-point  51 :   0.4286 0.5000 0.2857  plane waves:    6636
 k-point  52 :  -0.4286 0.5000 0.2857  plane waves:    6638
 k-point  53 :  -0.2857 0.5000 0.2857  plane waves:    6641
 k-point  54 :  -0.1429 0.5000 0.2857  plane waves:    6636
 k-point  55 :   0.0000 0.0000 0.4286  plane waves:    6668
 k-point  56 :   0.1429 0.0000 0.4286  plane waves:    6653
 k-point  57 :   0.2857 0.0000 0.4286  plane waves:    6653
 k-point  58 :   0.4286 0.0000 0.4286  plane waves:    6639
 k-point  59 :  -0.4286 0.0000 0.4286  plane waves:    6633
 k-point  60 :  -0.2857 0.0000 0.4286  plane waves:    6657
 k-point  61 :  -0.1429 0.0000 0.4286  plane waves:    6676
 k-point  62 :   0.0000 0.2500 0.4286  plane waves:    6659
 k-point  63 :   0.1429 0.2500 0.4286  plane waves:    6655
 k-point  64 :   0.2857 0.2500 0.4286  plane waves:    6647
 k-point  65 :   0.4286 0.2500 0.4286  plane waves:    6631
 k-point  66 :  -0.4286 0.2500 0.4286  plane waves:    6635
 k-point  67 :  -0.2857 0.2500 0.4286  plane waves:    6645
 k-point  68 :  -0.1429 0.2500 0.4286  plane waves:    6657
 k-point  69 :   0.0000 0.5000 0.4286  plane waves:    6640
 k-point  70 :   0.1429 0.5000 0.4286  plane waves:    6638
 k-point  71 :   0.2857 0.5000 0.4286  plane waves:    6624
 k-point  72 :   0.4286 0.5000 0.4286  plane waves:    6637
 k-point  73 :  -0.4286 0.5000 0.4286  plane waves:    6632
 k-point  74 :  -0.2857 0.5000 0.4286  plane waves:    6627
 k-point  75 :  -0.1429 0.5000 0.4286  plane waves:    6641
 k-point  76 :   0.3529-0.0000-0.0000  plane waves:    6655
 k-point  77 :   0.3382-0.0000-0.0000  plane waves:    6659
 k-point  78 :   0.3235 0.0000 0.0000  plane waves:    6657
 k-point  79 :   0.3088-0.0000-0.0000  plane waves:    6662
 k-point  80 :   0.2941 0.0000-0.0000  plane waves:    6663
 k-point  81 :   0.2794-0.0000 0.0000  plane waves:    6665
 k-point  82 :   0.2647-0.0000-0.0000  plane waves:    6661
 k-point  83 :   0.2500 0.0000-0.0000  plane waves:    6656
 k-point  84 :   0.2353 0.0000-0.0000  plane waves:    6660
 k-point  85 :   0.2206-0.0000 0.0000  plane waves:    6664
 k-point  86 :   0.2059-0.0000-0.0000  plane waves:    6664
 k-point  87 :   0.1912-0.0000-0.0000  plane waves:    6663
 k-point  88 :   0.1765-0.0000-0.0000  plane waves:    6660
 k-point  89 :   0.1618-0.0000 0.0000  plane waves:    6661
 k-point  90 :   0.1471 0.0000-0.0000  plane waves:    6660
 k-point  91 :   0.1324 0.0000 0.0000  plane waves:    6661
 k-point  92 :   0.1176-0.0000 0.0000  plane waves:    6659
 k-point  93 :   0.1029 0.0000 0.0000  plane waves:    6660
 k-point  94 :   0.0882 0.0000 0.0000  plane waves:    6658
 k-point  95 :   0.0735-0.0000-0.0000  plane waves:    6665
 k-point  96 :   0.0588-0.0000-0.0000  plane waves:    6665
 k-point  97 :   0.0441-0.0000-0.0000  plane waves:    6663
 k-point  98 :   0.0294 0.0000-0.0000  plane waves:    6657
 k-point  99 :   0.0147-0.0000-0.0000  plane waves:    6649
 k-point 100 :   0.0000 0.0000 0.0000  plane waves:    6635
 k-point 101 :   0.0000 0.0000 0.0167  plane waves:    6648
 k-point 102 :   0.0000 0.0000 0.0333  plane waves:    6652
 k-point 103 :   0.0000 0.0000 0.0500  plane waves:    6660
 k-point 104 :   0.0000 0.0000 0.0667  plane waves:    6664
 k-point 105 :   0.0000 0.0000 0.0833  plane waves:    6662
 k-point 106 :   0.0000 0.0000 0.1000  plane waves:    6668
 k-point 107 :   0.0000 0.0000 0.1167  plane waves:    6668
 k-point 108 :   0.0000 0.0000 0.1333  plane waves:    6671
 k-point 109 :   0.0000 0.0000 0.1500  plane waves:    6667
 k-point 110 :   0.0000 0.0000 0.1667  plane waves:    6670
 k-point 111 :   0.0000 0.0000 0.1833  plane waves:    6672
 k-point 112 :   0.0000 0.0000 0.2000  plane waves:    6666
 k-point 113 :   0.0000 0.0000 0.2167  plane waves:    6670
 k-point 114 :   0.0000 0.0000 0.2333  plane waves:    6677
 k-point 115 :   0.0000 0.0000 0.2500  plane waves:    6675
 k-point 116 :   0.0000 0.0000 0.2667  plane waves:    6676
 k-point 117 :   0.0000 0.0000 0.2833  plane waves:    6678
 k-point 118 :   0.0000 0.0000 0.3000  plane waves:    6674
 k-point 119 :   0.0000 0.0000 0.3167  plane waves:    6682
 k-point 120 :   0.0000 0.0000 0.3333  plane waves:    6680
 k-point 121 :   0.0000 0.0000 0.3500  plane waves:    6680
 k-point 122 :   0.0000 0.0000 0.3667  plane waves:    6676
 k-point 123 :   0.0000 0.0000 0.3833  plane waves:    6664
 k-point 124 :   0.0000 0.0000 0.4000  plane waves:    6665
 k-point 125 :   0.0000 0.0000 0.4167  plane waves:    6667
 k-point 126 :   0.0000 0.0000 0.4333  plane waves:    6664
 k-point 127 :   0.0000 0.0000 0.4500  plane waves:    6658
 k-point 128 :   0.0000 0.0000 0.4667  plane waves:    6654
 k-point 129 :   0.0000 0.0000 0.4833  plane waves:    6652
 k-point 130 :   0.0000 0.0000 0.5000  plane waves:    6646
 k-point 131 :   0.0156 0.0156 0.5000  plane waves:    6648
 k-point 132 :   0.0312 0.0312 0.5000  plane waves:    6652
 k-point 133 :   0.0469 0.0469 0.5000  plane waves:    6648
 k-point 134 :   0.0625 0.0625 0.5000  plane waves:    6658
 k-point 135 :   0.0781 0.0781 0.5000  plane waves:    6656
 k-point 136 :   0.0938 0.0938 0.5000  plane waves:    6654
 k-point 137 :   0.1094 0.1094 0.5000  plane waves:    6654
 k-point 138 :   0.1250 0.1250 0.5000  plane waves:    6648
 k-point 139 :   0.1406 0.1406 0.5000  plane waves:    6652
 k-point 140 :   0.1563 0.1563 0.5000  plane waves:    6650
 k-point 141 :   0.1719 0.1719 0.5000  plane waves:    6652
 k-point 142 :   0.1875 0.1875 0.5000  plane waves:    6652
 k-point 143 :   0.2031 0.2031 0.5000  plane waves:    6652
 k-point 144 :   0.2188 0.2188 0.5000  plane waves:    6652
 k-point 145 :   0.2344 0.2344 0.5000  plane waves:    6652
 k-point 146 :   0.2500 0.2500 0.5000  plane waves:    6648
 k-point 147 :   0.2656 0.2656 0.5000  plane waves:    6646
 k-point 148 :   0.2812 0.2812 0.5000  plane waves:    6642
 k-point 149 :   0.2969 0.2969 0.5000  plane waves:    6642
 k-point 150 :   0.3125 0.3125 0.5000  plane waves:    6644
 k-point 151 :   0.3281 0.3281 0.5000  plane waves:    6642

 maximum and minimum number of plane-waves per node :      6682     6624

 maximum number of plane-waves:      6682
 maximum index in each direction: 
   IXMAX=   12   IYMAX=   12   IZMAX=   12
   IXMIN=  -12   IYMIN=  -13   IZMIN=  -12


 serial   3D FFT for wavefunctions
 parallel 3D FFT for charge:
    minimum data exchange during FFTs selected (reduces bandwidth)


 FFT grid for exact exchange (Hartree Fock) 
  NGX = 28; NGY = 28; NGZ = 28


 Radii for the augmentation spheres in the non-local exchange
 for species   1 augmentation radius   1.273 (default was   0.943)
       energy cutoff for augmentation   2000.0
 for species   2 augmentation radius   1.338 (default was   0.991)
       energy cutoff for augmentation   2000.0
 for species   3 augmentation radius   1.459 (default was   1.081)
       energy cutoff for augmentation   2000.0
 Maximum index for augmentation-charges in exchange         1091
  SETUP_FOCK is finished

 total amount of memory used by VASP MPI-rank0   718930. kBytes
=======================================================================

   base      :      30000. kBytes
   nonl-proj :     437686. kBytes
   fftplans  :       3940. kBytes
   grid      :      11536. kBytes
   one-center:        186. kBytes
   HF        :        194. kBytes
   nonlr-proj:       2679. kBytes
   wavefun   :     232709. kBytes

     INWAV:  cpu time      0.0000: real time      0.0000
 initial charge density was supplied:
 charge density of overlapping atoms calculated
 number of electron     108.0000000 magnetization 
 keeping initial charge density in first step


--------------------------------------------------------------------------------------------------------


 Maximum index for augmentation-charges         2085 (set IRDMAX)


--------------------------------------------------------------------------------------------------------


 First call to EWALD:  gamma=   0.277
 Maximum number of real-space cells 3x 3x 3
 Maximum number of reciprocal cells 3x 3x 3

    FEWALD:  cpu time      0.0504: real time      0.0506


--------------------------------------- Ionic step        1  -------------------------------------------




--------------------------------------- Iteration      1(   1)  ---------------------------------------


    POTLOK:  cpu time      0.0594: real time      0.0605
    SETDIJ:  cpu time      0.1734: real time      0.1739
     EDDAV:  cpu time     13.0475: real time     13.1116
       DOS:  cpu time      0.0032: real time      0.0034
    --------------------------------------------
      LOOP:  cpu time     13.2835: real time     13.3494

 eigenvalue-minimisations  : 56030
 total energy-change (2. order) :-0.4765810E+04  (-0.3544424E+04)
 number of electron     108.0000000 magnetization 
 augmentation part      108.0000000 magnetization 

 Free energy of the ion-electron system (eV)
  ---------------------------------------------------
  alpha Z        PSCENC =       339.60362103
  Ewald energy   TEWEN  =     -7293.00641415
  -Hartree energ DENC   =     -4092.97412800
  -exchange      EXHF   =         0.00000000
  -V(xc)+E(xc)   XCENC  =       324.34492775
  PAW double counting   =      9847.86107400   -16681.06695459
  entropy T*S    EENTRO =        -0.00077490
  eigenvalues    EBANDS =       513.36245074
  atomic energy  EATOM  =     12276.06643119
  Solvation  Ediel_sol  =         0.00000000
  ---------------------------------------------------
  free energy    TOTEN  =     -4765.80976692 eV

  energy without entropy =    -4765.80899203  energy(sigma->0) =    -4765.80937947
  exchange ACFDT corr.  =         0.00000000  see jH, gK, PRB 81, 115126


--------------------------------------------------------------------------------------------------------




--------------------------------------- Iteration      1(   2)  ---------------------------------------


     EDDAV:  cpu time     10.7774: real time     10.8286
       DOS:  cpu time      0.0030: real time      0.0030
    --------------------------------------------
      LOOP:  cpu time     10.7804: real time     10.8316

 eigenvalue-minimisations  : 42280
 total energy-change (2. order) :-0.9502159E+03  (-0.8111218E+03)
 number of electron     108.0000000 magnetization 
 augmentation part      108.0000000 magnetization 

 Free energy of the ion-electron system (eV)
  ---------------------------------------------------
  alpha Z        PSCENC =       339.60362103
  Ewald energy   TEWEN  =     -7293.00641415
  -Hartree energ DENC   =     -4092.97412800
  -exchange      EXHF   =         0.00000000
  -V(xc)+E(xc)   XCENC  =       324.34492775
  PAW double counting   =      9847.86107400   -16681.06695459
  entropy T*S    EENTRO =        -0.00026611
  eigenvalues    EBANDS =      -436.85391989
  atomic energy  EATOM  =     12276.06643119
  Solvation  Ediel_sol  =         0.00000000
  ---------------------------------------------------
  free energy    TOTEN  =     -5716.02562877 eV

  energy without entropy =    -5716.02536266  energy(sigma->0) =    -5716.02549572
  exchange ACFDT corr.  =         0.00000000  see jH, gK, PRB 81, 115126


--------------------------------------------------------------------------------------------------------




--------------------------------------- Iteration      1(   3)  ---------------------------------------


     EDDAV:  cpu time     11.2760: real time     11.3289
       DOS:  cpu time      0.0027: real time      0.0027
    --------------------------------------------
      LOOP:  cpu time     11.2787: real time     11.3316

 eigenvalue-minimisations  : 44920
 total energy-change (2. order) :-0.2502111E+03  (-0.2339522E+03)
 number of electron     108.0000000 magnetization 
 augmentation part      108.0000000 magnetization 

 Free energy of the ion-electron system (eV)
  ---------------------------------------------------
  alpha Z        PSCENC =       339.60362103
  Ewald energy   TEWEN  =     -7293.00641415
  -Hartree energ DENC   =     -4092.97412800
  -exchange      EXHF   =         0.00000000
  -V(xc)+E(xc)   XCENC  =       324.34492775
  PAW double counting   =      9847.86107400   -16681.06695459
  entropy T*S    EENTRO =        -0.00000000
  eigenvalues    EBANDS =      -687.06524050
  atomic energy  EATOM  =     12276.06643119
  Solvation  Ediel_sol  =         0.00000000
  ---------------------------------------------------
  free energy    TOTEN  =     -5966.23668327 eV

  energy without entropy =    -5966.23668327  energy(sigma->0) =    -5966.23668327
  exchange ACFDT corr.  =         0.00000000  see jH, gK, PRB 81, 115126


--------------------------------------------------------------------------------------------------------




--------------------------------------- Iteration      1(   4)  ---------------------------------------


     EDDAV:  cpu time     12.7396: real time     12.8016
       DOS:  cpu time      0.0028: real time      0.0028
    --------------------------------------------
      LOOP:  cpu time     12.7425: real time     12.8044

 eigenvalue-minimisations  : 52690
 total energy-change (2. order) :-0.1823434E+02  (-0.1800439E+02)
 number of electron     108.0000000 magnetization 
 augmentation part      108.0000000 magnetization 

 Free energy of the ion-electron system (eV)
  ---------------------------------------------------
  alpha Z        PSCENC =       339.60362103
  Ewald energy   TEWEN  =     -7293.00641415
  -Hartree energ DENC   =     -4092.97412800
  -exchange      EXHF   =         0.00000000
  -V(xc)+E(xc)   XCENC  =       324.34492775
  PAW double counting   =      9847.86107400   -16681.06695459
  entropy T*S    EENTRO =        -0.00000000
  eigenvalues    EBANDS =      -705.29958377
  atomic energy  EATOM  =     12276.06643119
  Solvation  Ediel_sol  =         0.00000000
  ---------------------------------------------------
  free energy    TOTEN  =     -5984.47102654 eV

  energy without entropy =    -5984.47102654  energy(sigma->0) =    -5984.47102654
  exchange ACFDT corr.  =         0.00000000  see jH, gK, PRB 81, 115126


--------------------------------------------------------------------------------------------------------




--------------------------------------- Iteration      1(   5)  ---------------------------------------


    POTLOK:  cpu time      0.1565: real time      0.1575
    SETDIJ:  cpu time      0.5186: real time      0.5199
     EDDAV:  cpu time   7450.4346: real time   7493.5298
       DOS:  cpu time      0.0027: real time      0.0027
    CHARGE:  cpu time      0.5951: real time      0.5979
    MIXING:  cpu time      0.0007: real time      0.0007
    --------------------------------------------
      LOOP:  cpu time   7451.7082: real time   7494.8085

 eigenvalue-minimisations  : 62830
 total energy-change (2. order) : 0.5927745E+04  (-0.3173437E+01)
 number of electron     107.9999998 magnetization 
 augmentation part       39.0253498 magnetization 

 Free energy of the ion-electron system (eV)
  ---------------------------------------------------
  alpha Z        PSCENC =       339.60362103
  Ewald energy   TEWEN  =     -7293.00641415
  -Hartree energ DENC   =     -4092.97412800
  -exchange      EXHF   =       261.36570599
  -V(xc)+E(xc)   XCENC  =       243.13029044
  PAW double counting   =      9925.02809175   -11068.68355829
  entropy T*S    EENTRO =        -0.00000000
  eigenvalues    EBANDS =      -647.25615692
  atomic energy  EATOM  =     12276.06643119
  Solvation  Ediel_sol  =         0.00000000
  ---------------------------------------------------
  free energy    TOTEN  =       -56.72611696 eV

  energy without entropy =      -56.72611696  energy(sigma->0) =      -56.72611696
  exchange ACFDT corr.  =         0.00000000  see jH, gK, PRB 81, 115126


--------------------------------------------------------------------------------------------------------




--------------------------------------- Iteration      1(   6)  ---------------------------------------


    POTLOK:  cpu time      0.1571: real time      0.1577
    SETDIJ:  cpu time      0.5117: real time      0.5130
     EDDAV:  cpu time   7364.3289: real time   7395.9062
       DOS:  cpu time      0.0072: real time      0.0073
    CHARGE:  cpu time      0.5946: real time      0.5969
    MIXING:  cpu time      0.0008: real time      0.0008
    --------------------------------------------
      LOOP:  cpu time   7365.6004: real time   7397.1819

 eigenvalue-minimisations  : 59170
 total energy-change (2. order) : 0.3828512E+00  (-0.2975868E+00)
 number of electron     107.9999997 magnetization 
 augmentation part       38.8912638 magnetization 

 Free energy of the ion-electron system (eV)
  ---------------------------------------------------
  alpha Z        PSCENC =       339.60362103
  Ewald energy   TEWEN  =     -7293.00641415
  -Hartree energ DENC   =     -4076.04782527
  -exchange      EXHF   =       254.16858454
  -V(xc)+E(xc)   XCENC  =       243.24277919
  PAW double counting   =     10876.98831135   -12028.07949375
  entropy T*S    EENTRO =        -0.00000000
  eigenvalues    EBANDS =      -649.27925991
  atomic energy  EATOM  =     12276.06643119
  Solvation  Ediel_sol  =         0.00000000
  ---------------------------------------------------
  free energy    TOTEN  =       -56.34326579 eV

  energy without entropy =      -56.34326579  energy(sigma->0) =      -56.34326579
  exchange ACFDT corr.  =         0.00000000  see jH, gK, PRB 81, 115126


--------------------------------------------------------------------------------------------------------




--------------------------------------- Iteration      1(   7)  ---------------------------------------


    POTLOK:  cpu time      0.1571: real time      0.1577
    SETDIJ:  cpu time      0.5082: real time      0.5094
     EDDAV:  cpu time   7401.4664: real time   7436.9622
       DOS:  cpu time      0.0026: real time      0.0027
    CHARGE:  cpu time      0.6099: real time      0.6127
    MIXING:  cpu time      0.0006: real time      0.0006
    --------------------------------------------
      LOOP:  cpu time   7402.7448: real time   7438.2453

 eigenvalue-minimisations  : 66080
 total energy-change (2. order) : 0.1062456E+00  (-0.7006083E-01)
 number of electron     107.9999996 magnetization 
 augmentation part       39.2273411 magnetization 

 Free energy of the ion-electron system (eV)
  ---------------------------------------------------
  alpha Z        PSCENC =       339.60362103
  Ewald energy   TEWEN  =     -7293.00641415
  -Hartree energ DENC   =     -4056.36492684
  -exchange      EXHF   =       252.26240744
  -V(xc)+E(xc)   XCENC  =       242.89907993
  PAW double counting   =     11584.37246586   -12738.58459950
  entropy T*S    EENTRO =        -0.00000000
  eigenvalues    EBANDS =      -663.48508511
  atomic energy  EATOM  =     12276.06643119
  Solvation  Ediel_sol  =         0.00000000
  ---------------------------------------------------
  free energy    TOTEN  =       -56.23702015 eV

  energy without entropy =      -56.23702015  energy(sigma->0) =      -56.23702015
  exchange ACFDT corr.  =         0.00000000  see jH, gK, PRB 81, 115126


--------------------------------------------------------------------------------------------------------




--------------------------------------- Iteration      1(   8)  ---------------------------------------


    POTLOK:  cpu time      0.1563: real time      0.1574
    SETDIJ:  cpu time      0.5085: real time      0.5098
     EDDAV:  cpu time   7439.9883: real time   7473.8521
       DOS:  cpu time      0.0027: real time      0.0027
    CHARGE:  cpu time      0.6066: real time      0.6090
    MIXING:  cpu time      0.0006: real time      0.0006
    --------------------------------------------
      LOOP:  cpu time   7441.2631: real time   7475.1316

 eigenvalue-minimisations  : 65320
 total energy-change (2. order) : 0.2040119E-01  (-0.2413673E-01)
 number of electron     107.9999995 magnetization 
 augmentation part       39.1563390 magnetization 

 Free energy of the ion-electron system (eV)
  ---------------------------------------------------
  alpha Z        PSCENC =       339.60362103
  Ewald energy   TEWEN  =     -7293.00641415
  -Hartree energ DENC   =     -4057.87456432
  -exchange      EXHF   =       252.78960900
  -V(xc)+E(xc)   XCENC  =       243.07232294
  PAW double counting   =     12082.20409794   -13242.60623637
  entropy T*S    EENTRO =        -0.00000000
  eigenvalues    EBANDS =      -656.46548622
  atomic energy  EATOM  =     12276.06643119
  Solvation  Ediel_sol  =         0.00000000
  ---------------------------------------------------
  free energy    TOTEN  =       -56.21661896 eV

  energy without entropy =      -56.21661896  energy(sigma->0) =      -56.21661896
  exchange ACFDT corr.  =         0.00000000  see jH, gK, PRB 81, 115126


--------------------------------------------------------------------------------------------------------




--------------------------------------- Iteration      1(   9)  ---------------------------------------


    POTLOK:  cpu time      0.1545: real time      0.3650
    SETDIJ:  cpu time      0.5109: real time      0.5121
     EDDAV:  cpu time   7392.8950: real time   7426.9228
       DOS:  cpu time      0.0026: real time      0.0026
    CHARGE:  cpu time      0.6060: real time      0.6085
    MIXING:  cpu time      0.0007: real time      0.0007
    --------------------------------------------
      LOOP:  cpu time   7394.1697: real time   7428.4119

 eigenvalue-minimisations  : 55820
 total energy-change (2. order) : 0.1974406E-01  (-0.1516935E-02)
 number of electron     107.9999995 magnetization 
 augmentation part       39.1464585 magnetization 

 Free energy of the ion-electron system (eV)
  ---------------------------------------------------
  alpha Z        PSCENC =       339.60362103
  Ewald energy   TEWEN  =     -7293.00641415
  -Hartree energ DENC   =     -4055.93504865
  -exchange      EXHF   =       252.44780919
  -V(xc)+E(xc)   XCENC  =       243.08122705
  PAW double counting   =     12405.45427749   -13568.43595864
  entropy T*S    EENTRO =        -0.00000000
  eigenvalues    EBANDS =      -655.47281943
  atomic energy  EATOM  =     12276.06643119
  Solvation  Ediel_sol  =         0.00000000
  ---------------------------------------------------
  free energy    TOTEN  =       -56.19687491 eV

  energy without entropy =      -56.19687491  energy(sigma->0) =      -56.19687491
  exchange ACFDT corr.  =         0.00000000  see jH, gK, PRB 81, 115126


--------------------------------------------------------------------------------------------------------




--------------------------------------- Iteration      1(  10)  ---------------------------------------


    POTLOK:  cpu time      0.1555: real time      0.1562
    SETDIJ:  cpu time      0.5088: real time      0.5102
     EDDAV:  cpu time   7285.4484: real time   7315.3529
       DOS:  cpu time      0.0026: real time      0.0026
    CHARGE:  cpu time      0.5781: real time      0.5804
    MIXING:  cpu time      0.0007: real time      0.0007
    --------------------------------------------
      LOOP:  cpu time   7286.6941: real time   7316.6030

 eigenvalue-minimisations  : 63560
 total energy-change (2. order) : 0.5552829E-02  (-0.6103236E-03)
 number of electron     107.9999995 magnetization 
 augmentation part       39.1480596 magnetization 

 Free energy of the ion-electron system (eV)
  ---------------------------------------------------
  alpha Z        PSCENC =       339.60362103
  Ewald energy   TEWEN  =     -7293.00641415
  -Hartree energ DENC   =     -4054.61849329
  -exchange      EXHF   =       252.46293983
  -V(xc)+E(xc)   XCENC  =       243.08877205
  PAW double counting   =     12589.60046772   -13753.96312928
  entropy T*S    EENTRO =        -0.00000000
  eigenvalues    EBANDS =      -655.42551718
  atomic energy  EATOM  =     12276.06643119
  Solvation  Ediel_sol  =         0.00000000
  ---------------------------------------------------
  free energy    TOTEN  =       -56.19132208 eV

  energy without entropy =      -56.19132208  energy(sigma->0) =      -56.19132208
  exchange ACFDT corr.  =         0.00000000  see jH, gK, PRB 81, 115126


--------------------------------------------------------------------------------------------------------




--------------------------------------- Iteration      1(  11)  ---------------------------------------


    POTLOK:  cpu time      0.1531: real time      0.3527
    SETDIJ:  cpu time      0.5099: real time      0.5112
     EDDAV:  cpu time   7233.3067: real time   7265.5332
       DOS:  cpu time      0.0026: real time      0.0026
    CHARGE:  cpu time      0.5971: real time      0.5996
    MIXING:  cpu time      0.0007: real time      0.0007
    --------------------------------------------
      LOOP:  cpu time   7234.5702: real time   7267.0000

 eigenvalue-minimisations  : 60000
 total energy-change (2. order) : 0.1291694E-02  (-0.1180046E-03)
 number of electron     107.9999995 magnetization 
 augmentation part       39.1416840 magnetization 

 Free energy of the ion-electron system (eV)
  ---------------------------------------------------
  alpha Z        PSCENC =       339.60362103
  Ewald energy   TEWEN  =     -7293.00641415
  -Hartree energ DENC   =     -4054.19413810
  -exchange      EXHF   =       252.52121126
  -V(xc)+E(xc)   XCENC  =       243.10848766
  PAW double counting   =     12689.19444430   -13854.45674741
  entropy T*S    EENTRO =        -0.00000000
  eigenvalues    EBANDS =      -655.02692617
  atomic energy  EATOM  =     12276.06643119
  Solvation  Ediel_sol  =         0.00000000
  ---------------------------------------------------
  free energy    TOTEN  =       -56.19003038 eV

  energy without entropy =      -56.19003038  energy(sigma->0) =      -56.19003038
  exchange ACFDT corr.  =         0.00000000  see jH, gK, PRB 81, 115126


--------------------------------------------------------------------------------------------------------




--------------------------------------- Iteration      1(  12)  ---------------------------------------


    POTLOK:  cpu time      0.1551: real time      0.1561
    SETDIJ:  cpu time      0.5002: real time      0.5014
     EDDAV:  cpu time   7219.0321: real time   7252.6672
       DOS:  cpu time      0.0026: real time      0.0026
    CHARGE:  cpu time      0.5879: real time      0.5903
    MIXING:  cpu time      0.0007: real time      0.0007
    --------------------------------------------
      LOOP:  cpu time   7220.2785: real time   7253.9183

 eigenvalue-minimisations  : 54720
 total energy-change (2. order) : 0.2995343E-03  (-0.4196157E-04)
 number of electron     107.9999995 magnetization 
 augmentation part       39.1403956 magnetization 

 Free energy of the ion-electron system (eV)
  ---------------------------------------------------
  alpha Z        PSCENC =       339.60362103
  Ewald energy   TEWEN  =     -7293.00641415
  -Hartree energ DENC   =     -4053.80781917
  -exchange      EXHF   =       252.51749566
  -V(xc)+E(xc)   XCENC  =       243.11676707
  PAW double counting   =     12745.18284376   -13910.92547721
  entropy T*S    EENTRO =        -0.00000000
  eigenvalues    EBANDS =      -654.93717903
  atomic energy  EATOM  =     12276.06643119
  Solvation  Ediel_sol  =         0.00000000
  ---------------------------------------------------
  free energy    TOTEN  =       -56.18973085 eV

  energy without entropy =      -56.18973085  energy(sigma->0) =      -56.18973085
  exchange ACFDT corr.  =         0.00000000  see jH, gK, PRB 81, 115126


--------------------------------------------------------------------------------------------------------




--------------------------------------- Iteration      1(  13)  ---------------------------------------


    POTLOK:  cpu time      0.1548: real time      0.1557
    SETDIJ:  cpu time      0.5002: real time      0.5015
     EDDAV:  cpu time   7227.8513: real time   7258.0772
       DOS:  cpu time      0.0027: real time      0.0027
    CHARGE:  cpu time      0.5758: real time      0.5782
    MIXING:  cpu time      0.0007: real time      0.0007
    --------------------------------------------
      LOOP:  cpu time   7229.0854: real time   7259.3160

 eigenvalue-minimisations  : 54130
 total energy-change (2. order) : 0.1491280E-04  (-0.1370476E-04)
 number of electron     107.9999995 magnetization 
 augmentation part       39.1398148 magnetization 

 Free energy of the ion-electron system (eV)
  ---------------------------------------------------
  alpha Z        PSCENC =       339.60362103
  Ewald energy   TEWEN  =     -7293.00641415
  -Hartree energ DENC   =     -4053.63262215
  -exchange      EXHF   =       252.51970523
  -V(xc)+E(xc)   XCENC  =       243.12305025
  PAW double counting   =     12776.02853995   -13942.07251393
  entropy T*S    EENTRO =        -0.00000000
  eigenvalues    EBANDS =      -654.81951337
  atomic energy  EATOM  =     12276.06643119
  Solvation  Ediel_sol  =         0.00000000
  ---------------------------------------------------
  free energy    TOTEN  =       -56.18971594 eV

  energy without entropy =      -56.18971594  energy(sigma->0) =      -56.18971594
  exchange ACFDT corr.  =         0.00000000  see jH, gK, PRB 81, 115126


--------------------------------------------------------------------------------------------------------




--------------------------------------- Iteration      1(  14)  ---------------------------------------


    POTLOK:  cpu time      0.1530: real time      1.7506
    SETDIJ:  cpu time      0.5014: real time      0.5027
     EDDAV:  cpu time   7243.2117: real time   7276.2274
       DOS:  cpu time      0.0026: real time      0.0026
    CHARGE:  cpu time      0.5827: real time      0.5851
    MIXING:  cpu time      0.0007: real time      0.0007
    --------------------------------------------
      LOOP:  cpu time   7244.4521: real time   7279.0691

 eigenvalue-minimisations  : 49230
 total energy-change (2. order) :-0.4025433E-04  (-0.5171606E-05)
 number of electron     107.9999995 magnetization 
 augmentation part       39.1391911 magnetization 

 Free energy of the ion-electron system (eV)
  ---------------------------------------------------
  alpha Z        PSCENC =       339.60362103
  Ewald energy   TEWEN  =     -7293.00641415
  -Hartree energ DENC   =     -4053.56425333
  -exchange      EXHF   =       252.51915133
  -V(xc)+E(xc)   XCENC  =       243.12750465
  PAW double counting   =     12793.12940674   -13959.36068199
  entropy T*S    EENTRO =        -0.00000000
  eigenvalues    EBANDS =      -654.70452167
  atomic energy  EATOM  =     12276.06643119
  Solvation  Ediel_sol  =         0.00000000
  ---------------------------------------------------
  free energy    TOTEN  =       -56.18975619 eV

  energy without entropy =      -56.18975619  energy(sigma->0) =      -56.18975619
  exchange ACFDT corr.  =         0.00000000  see jH, gK, PRB 81, 115126


--------------------------------------------------------------------------------------------------------




--------------------------------------- Iteration      1(  15)  ---------------------------------------


    POTLOK:  cpu time      0.1552: real time      0.1562
    SETDIJ:  cpu time      0.4999: real time      0.5011
     EDDAV:  cpu time   7195.0877: real time   7227.1761
       DOS:  cpu time      0.0026: real time      0.0026
    CHARGE:  cpu time      0.5707: real time      0.5731
    MIXING:  cpu time      0.0007: real time      0.0007
    --------------------------------------------
      LOOP:  cpu time   7196.3168: real time   7228.4099

 eigenvalue-minimisations  : 49360
 total energy-change (2. order) :-0.3513189E-04  (-0.1753852E-05)
 number of electron     107.9999995 magnetization 
 augmentation part       39.1390049 magnetization 

 Free energy of the ion-electron system (eV)
  ---------------------------------------------------
  alpha Z        PSCENC =       339.60362103
  Ewald energy   TEWEN  =     -7293.00641415
  -Hartree energ DENC   =     -4053.53115570
  -exchange      EXHF   =       252.51759437
  -V(xc)+E(xc)   XCENC  =       243.13014365
  PAW double counting   =     12802.56516664   -13968.90499612
  entropy T*S    EENTRO =        -0.00000000
  eigenvalues    EBANDS =      -654.63018224
  atomic energy  EATOM  =     12276.06643119
  Solvation  Ediel_sol  =         0.00000000
  ---------------------------------------------------
  free energy    TOTEN  =       -56.18979132 eV

  energy without entropy =      -56.18979132  energy(sigma->0) =      -56.18979132
  exchange ACFDT corr.  =         0.00000000  see jH, gK, PRB 81, 115126


--------------------------------------------------------------------------------------------------------




--------------------------------------- Iteration      1(  16)  ---------------------------------------


    POTLOK:  cpu time      0.1552: real time      0.1565
    SETDIJ:  cpu time      0.4990: real time      0.5003
     EDDAV:  cpu time   7235.2392: real time   7266.2603
       DOS:  cpu time      0.0026: real time      0.0026
    CHARGE:  cpu time      0.5828: real time      0.5857
    MIXING:  cpu time      0.0007: real time      0.0007
    --------------------------------------------
      LOOP:  cpu time   7236.4796: real time   7267.5061

 eigenvalue-minimisations  : 46220
 total energy-change (2. order) :-0.2250527E-04  (-0.8259429E-06)
 number of electron     107.9999995 magnetization 
 augmentation part       39.1388183 magnetization 

 Free energy of the ion-electron system (eV)
  ---------------------------------------------------
  alpha Z        PSCENC =       339.60362103
  Ewald energy   TEWEN  =     -7293.00641415
  -Hartree energ DENC   =     -4053.52314198
  -exchange      EXHF   =       252.51738914
  -V(xc)+E(xc)   XCENC  =       243.13197488
  PAW double counting   =     12807.74142289   -13974.14593049
  entropy T*S    EENTRO =        -0.00000000
  eigenvalues    EBANDS =      -654.57516635
  atomic energy  EATOM  =     12276.06643119
  Solvation  Ediel_sol  =         0.00000000
  ---------------------------------------------------
  free energy    TOTEN  =       -56.18981383 eV

  energy without entropy =      -56.18981383  energy(sigma->0) =      -56.18981383
  exchange ACFDT corr.  =         0.00000000  see jH, gK, PRB 81, 115126


--------------------------------------------------------------------------------------------------------




--------------------------------------- Iteration      1(  17)  ---------------------------------------


    POTLOK:  cpu time      0.1558: real time      0.1565
    SETDIJ:  cpu time      0.5050: real time      0.5064
     EDDAV:  cpu time   7282.2515: real time   7313.9053
       DOS:  cpu time      0.0027: real time      0.0027
    CHARGE:  cpu time      0.6013: real time      0.6042
    MIXING:  cpu time      0.0007: real time      0.0007
    --------------------------------------------
      LOOP:  cpu time   7283.5169: real time   7315.1757

 eigenvalue-minimisations  : 46180
 total energy-change (2. order) :-0.1294988E-04  (-0.3529809E-06)
 number of electron     107.9999995 magnetization 
 augmentation part       39.1387466 magnetization 

 Free energy of the ion-electron system (eV)
  ---------------------------------------------------
  alpha Z        PSCENC =       339.60362103
  Ewald energy   TEWEN  =     -7293.00641415
  -Hartree energ DENC   =     -4053.52259554
  -exchange      EXHF   =       252.51708293
  -V(xc)+E(xc)   XCENC  =       243.13313490
  PAW double counting   =     12810.56762259   -13977.00923724
  entropy T*S    EENTRO =        -0.00000000
  eigenvalues    EBANDS =      -654.53947249
  atomic energy  EATOM  =     12276.06643119
  Solvation  Ediel_sol  =         0.00000000
  ---------------------------------------------------
  free energy    TOTEN  =       -56.18982678 eV

  energy without entropy =      -56.18982678  energy(sigma->0) =      -56.18982678
  exchange ACFDT corr.  =         0.00000000  see jH, gK, PRB 81, 115126


--------------------------------------------------------------------------------------------------------




--------------------------------------- Iteration      1(  18)  ---------------------------------------


    POTLOK:  cpu time      0.2050: real time      0.2059
    SETDIJ:  cpu time      0.4507: real time      0.4519
     EDDAV:  cpu time   7287.3977: real time   7323.1891
       DOS:  cpu time      0.0026: real time      0.0026
    CHARGE:  cpu time      0.5873: real time      0.5896
    MIXING:  cpu time      0.0008: real time      0.0008
    --------------------------------------------
      LOOP:  cpu time   7288.6442: real time   7324.4399

 eigenvalue-minimisations  : 43340
 total energy-change (2. order) :-0.7047753E-05  (-0.1556707E-06)
 number of electron     107.9999995 magnetization 
 augmentation part       39.1386870 magnetization 

 Free energy of the ion-electron system (eV)
  ---------------------------------------------------
  alpha Z        PSCENC =       339.60362103
  Ewald energy   TEWEN  =     -7293.00641415
  -Hartree energ DENC   =     -4053.52719985
  -exchange      EXHF   =       252.51706291
  -V(xc)+E(xc)   XCENC  =       243.13394420
  PAW double counting   =     12812.08313650   -13978.54675685
  entropy T*S    EENTRO =        -0.00000000
  eigenvalues    EBANDS =      -654.51365881
  atomic energy  EATOM  =     12276.06643119
  Solvation  Ediel_sol  =         0.00000000
  ---------------------------------------------------
  free energy    TOTEN  =       -56.18983382 eV

  energy without entropy =      -56.18983382  energy(sigma->0) =      -56.18983382
  exchange ACFDT corr.  =         0.00000000  see jH, gK, PRB 81, 115126


--------------------------------------------------------------------------------------------------------




--------------------------------------- Iteration      1(  19)  ---------------------------------------


    POTLOK:  cpu time      0.1564: real time      0.1570
    SETDIJ:  cpu time      0.4999: real time      0.5013
     EDDAV:  cpu time   7305.5759: real time   7335.6085
       DOS:  cpu time      0.0027: real time      0.0027
    CHARGE:  cpu time      0.5986: real time      0.6019
    MIXING:  cpu time      0.0007: real time      0.0007
    --------------------------------------------
      LOOP:  cpu time   7306.8342: real time   7336.8720

 eigenvalue-minimisations  : 42650
 total energy-change (2. order) :-0.3711508E-05  (-0.8815414E-07)
 number of electron     107.9999995 magnetization 
 augmentation part       39.1386643 magnetization 

 Free energy of the ion-electron system (eV)
  ---------------------------------------------------
  alpha Z        PSCENC =       339.60362103
  Ewald energy   TEWEN  =     -7293.00641415
  -Hartree energ DENC   =     -4053.53262846
  -exchange      EXHF   =       252.51699967
  -V(xc)+E(xc)   XCENC  =       243.13448647
  PAW double counting   =     12812.88953152   -13979.36580881
  entropy T*S    EENTRO =        -0.00000000
  eigenvalues    EBANDS =      -654.49605599
  atomic energy  EATOM  =     12276.06643119
  Solvation  Ediel_sol  =         0.00000000
  ---------------------------------------------------
  free energy    TOTEN  =       -56.18983754 eV

  energy without entropy =      -56.18983754  energy(sigma->0) =      -56.18983754
  exchange ACFDT corr.  =         0.00000000  see jH, gK, PRB 81, 115126


--------------------------------------------------------------------------------------------------------




--------------------------------------- Iteration      1(  20)  ---------------------------------------


    POTLOK:  cpu time      0.1563: real time      0.1569
    SETDIJ:  cpu time      0.5000: real time      0.5012
     EDDAV:  cpu time   7306.6171: real time   7337.6518
       DOS:  cpu time      0.0027: real time      0.0027
    CHARGE:  cpu time      0.5992: real time      0.6016
    MIXING:  cpu time      0.0007: real time      0.0007
    --------------------------------------------
      LOOP:  cpu time   7307.8760: real time   7338.9149

 eigenvalue-minimisations  : 39470
 total energy-change (2. order) :-0.1917915E-05  (-0.5517767E-07)
 number of electron     107.9999995 magnetization 
 augmentation part       39.1386487 magnetization 

 Free energy of the ion-electron system (eV)
  ---------------------------------------------------
  alpha Z        PSCENC =       339.60362103
  Ewald energy   TEWEN  =     -7293.00641415
  -Hartree energ DENC   =     -4053.53827160
  -exchange      EXHF   =       252.51699486
  -V(xc)+E(xc)   XCENC  =       243.13487112
  PAW double counting   =     12813.31211688   -13979.79591106
  entropy T*S    EENTRO =        -0.00000000
  eigenvalues    EBANDS =      -654.48327772
  atomic energy  EATOM  =     12276.06643119
  Solvation  Ediel_sol  =         0.00000000
  ---------------------------------------------------
  free energy    TOTEN  =       -56.18983945 eV

  energy without entropy =      -56.18983945  energy(sigma->0) =      -56.18983945
  exchange ACFDT corr.  =         0.00000000  see jH, gK, PRB 81, 115126


--------------------------------------------------------------------------------------------------------




--------------------------------------- Iteration      1(  21)  ---------------------------------------


    POTLOK:  cpu time      0.1537: real time      0.3750
    SETDIJ:  cpu time      0.5026: real time      0.5039
     EDDAV:  cpu time   7280.4306: real time   7313.7851
       DOS:  cpu time      0.0027: real time      0.0027
    --------------------------------------------
      LOOP:  cpu time   7281.0895: real time   7314.6668

 eigenvalue-minimisations  : 33770
 total energy-change (2. order) :-0.9895401E-06  (-0.4688977E-07)
 number of electron     107.9999995 magnetization 
 augmentation part       39.1386487 magnetization 

 Free energy of the ion-electron system (eV)
  ---------------------------------------------------
  alpha Z        PSCENC =       339.60362103
  Ewald energy   TEWEN  =     -7293.00641415
  -Hartree energ DENC   =     -4053.54301947
  -exchange      EXHF   =       252.51697196
  -V(xc)+E(xc)   XCENC  =       243.13513672
  PAW double counting   =     12813.53885903   -13980.02698723
  entropy T*S    EENTRO =        -0.00000000
  eigenvalues    EBANDS =      -654.47443953
  atomic energy  EATOM  =     12276.06643119
  Solvation  Ediel_sol  =         0.00000000
  ---------------------------------------------------
  free energy    TOTEN  =       -56.18984044 eV

  energy without entropy =      -56.18984044  energy(sigma->0) =      -56.18984044
  exchange ACFDT corr.  =         0.00000000  see jH, gK, PRB 81, 115126


--------------------------------------------------------------------------------------------------------




 average (electrostatic) potential at core
  the test charge radii are     0.9430  0.9911  1.0808
  (the norm of the test charge is              1.0000)
       1 -58.5777       2 -58.5777       3 -58.5361       4 -58.5361       5 -69.6176
       6 -69.6176       7 -50.9669       8 -50.9669       9 -50.9273      10 -50.9273
      11 -51.6990      12 -51.6990



 E-fermi :   3.5722     XC(G=0):  -7.9640     alpha+bet : -9.1369

 Fermi energy:         3.5721592383

 k-point     1 :       0.0000    0.0000    0.0000
  band No.  band energies     occupation 
      1     -25.4538      2.00000
      2     -25.4487      2.00000
      3     -25.4391      2.00000
      4     -25.4384      2.00000
      5     -25.4092      2.00000
      6     -25.4088      2.00000
      7     -25.3868      2.00000
      8     -25.3860      2.00000
      9     -25.3814      2.00000
     10     -25.3806      2.00000
     11     -12.8636      2.00000
     12     -11.5500      2.00000
     13     -11.3766      2.00000
     14     -11.1376      2.00000
     15     -10.8297      2.00000
     16     -10.8243      2.00000
     17      -6.4584      2.00000
     18      -5.5777      2.00000
     19      -2.8937      2.00000
     20      -2.3159      2.00000
     21      -2.2317      2.00000
     22      -2.1173      2.00000
     23      -1.7685      2.00000
     24      -1.3783      2.00000
     25      -1.3193      2.00000
     26      -0.9591      2.00000
     27      -0.7388      2.00000
     28      -0.6558      2.00000
     29      -0.6542      2.00000
     30      -0.6294      2.00000
     31      -0.5979      2.00000
     32      -0.5391      2.00000
     33      -0.4106      2.00000
     34      -0.4103      2.00000
     35       0.5325      2.00000
     36       0.5680      2.00000
     37       0.5981      2.00000
     38       0.6293      2.00000
     39       0.6400      2.00000
     40       0.6659      2.00000
     41       0.6958      2.00000
     42       0.7010      2.00000
     43       0.7312      2.00000
     44       0.9125      2.00000
     45       1.0951      2.00000
     46       1.1164      2.00000
     47       1.2291      2.00000
     48       1.7763      2.00000
     49       1.9385      2.00000
     50       2.3214      2.00000
     51       2.4717      2.00000
     52       3.3076      2.00000
     53       3.3230      2.00000
     54       3.4762      2.00000
     55       4.0787      0.00000
     56       4.9944      0.00000
     57       6.4460      0.00000
     58       6.7734      0.00000
     59       7.4207      0.00000
     60       7.6062      0.00000
     61       8.3325      0.00000
     62       8.4406      0.00000
     63       8.5845      0.00000
     64       9.2317      0.00000
     65       9.5482      0.00000
     66       9.6451      0.00000
     67       9.7298      0.00000
     68      10.1102      0.00000
     69      10.6892      0.00000
     70      11.2592      0.00000
     71      11.3531      0.00000
     72      11.6897      0.00000
     73      12.2497      0.00000
     74      12.3919      0.00000
     75      12.7105      0.00000
     76      12.7299      0.00000
     77      12.9348      0.00000
     78      13.1573      0.00000
     79      13.5005      0.00000
     80      13.5906      0.00000
     81      13.6305      0.00000
     82      13.8798      0.00000
     83      14.3487      0.00000
     84      14.6924      0.00000
     85      14.8465      0.00000
     86      15.0216      0.00000
     87      15.2635      0.00000
     88      15.4615      0.00000
     89      16.7178      0.00000
     90      16.7455      0.00000
     91      16.8187      0.00000
     92      16.8301      0.00000
     93      16.9654      0.00000
     94      17.3155      0.00000
     95      17.4454      0.00000
     96      17.7985      0.00000
     97      17.9671      0.00000
     98      18.4031      0.00000
     99      18.6813      0.00000
    100      18.8012      0.00000
    101      19.0257      0.00000
    102      19.3373      0.00000
    103      19.8976      0.00000
    104      20.1734      0.00000
    105      20.2511      0.00000
    106      20.7571      0.00000
    107      20.7802      0.00000
    108      20.9797      0.00000
    109      21.4065      0.00000
    110      21.7840      0.00000
    111      21.7885      0.00000
    112      22.0243      0.00000
    113      22.1972      0.00000
    114      22.3957      0.00000
    115      22.7906      0.00000
    116      22.9739      0.00000
    117      22.9939      0.00000
    118      23.0966      0.00000
    119      23.3134      0.00000
    120      24.0038      0.00000
    121      24.0169      0.00000
    122      24.5336      0.00000
    123      24.6124      0.00000
    124      25.1947      0.00000
    125      25.6807      0.00000
    126      25.6808      0.00000
    127      26.2544      0.00000
    128      26.3416      0.00000
    129      27.0205      0.00000
    130      27.0599      0.00000
    131      27.2301      0.00000
    132      27.2660      0.00000
    133      27.3961      0.00000
    134      27.4436      0.00000
    135      27.6173      0.00000
    136      27.7386      0.00000
    137      27.8095      0.00000
    138      27.9475      0.00000
    139      28.2777      0.00000
    140      28.3890      0.00000

 k-point     2 :       0.1429    0.0000    0.0000
  band No.  band energies     occupation 
      1     -25.4537      2.00000
      2     -25.4486      2.00000
      3     -25.4390      2.00000
      4     -25.4384      2.00000
      5     -25.4092      2.00000
      6     -25.4088      2.00000
      7     -25.3867      2.00000
      8     -25.3860      2.00000
      9     -25.3813      2.00000
     10     -25.3805      2.00000
     11     -12.8233      2.00000
     12     -11.5341      2.00000
     13     -11.4096      2.00000
     14     -11.1562      2.00000
     15     -10.8804      2.00000
     16     -10.8274      2.00000
     17      -6.4429      2.00000
     18      -5.5147      2.00000
     19      -2.8561      2.00000
     20      -2.3605      2.00000
     21      -2.2252      2.00000
     22      -2.0368      2.00000
     23      -1.7283      2.00000
     24      -1.3227      2.00000
     25      -1.1623      2.00000
     26      -0.9862      2.00000
     27      -0.7768      2.00000
     28      -0.7134      2.00000
     29      -0.6689      2.00000
     30      -0.6422      2.00000
     31      -0.5859      2.00000
     32      -0.5507      2.00000
     33      -0.4344      2.00000
     34      -0.4076      2.00000
     35       0.5225      2.00000
     36       0.5581      2.00000
     37       0.5809      2.00000
     38       0.5931      2.00000
     39       0.6231      2.00000
     40       0.6428      2.00000
     41       0.6716      2.00000
     42       0.7117      2.00000
     43       0.7995      2.00000
     44       0.9544      2.00000
     45       1.1621      2.00000
     46       1.2144      2.00000
     47       1.2561      2.00000
     48       1.6954      2.00000
     49       1.8776      2.00000
     50       2.1292      2.00000
     51       2.3290      2.00000
     52       2.7781      2.00000
     53       3.1856      2.00000
     54       3.4192      2.00000
     55       4.5552      0.00000
     56       5.2686      0.00000
     57       6.6827      0.00000
     58       6.9076      0.00000
     59       7.4336      0.00000
     60       7.6940      0.00000
     61       8.2488      0.00000
     62       8.4711      0.00000
     63       8.5426      0.00000
     64       9.2687      0.00000
     65       9.4640      0.00000
     66       9.6702      0.00000
     67       9.7926      0.00000
     68      10.1517      0.00000
     69      10.6189      0.00000
     70      10.8035      0.00000
     71      11.1421      0.00000
     72      11.3576      0.00000
     73      11.8164      0.00000
     74      12.0931      0.00000
     75      12.6711      0.00000
     76      12.8083      0.00000
     77      12.9626      0.00000
     78      13.1911      0.00000
     79      13.5684      0.00000
     80      13.8161      0.00000
     81      14.0495      0.00000
     82      14.3722      0.00000
     83      14.5299      0.00000
     84      14.7040      0.00000
     85      15.0150      0.00000
     86      15.0823      0.00000
     87      15.3668      0.00000
     88      15.7322      0.00000
     89      16.3626      0.00000
     90      16.3798      0.00000
     91      16.7971      0.00000
     92      16.9538      0.00000
     93      17.0890      0.00000
     94      17.3620      0.00000
     95      17.6327      0.00000
     96      17.9524      0.00000
     97      18.2689      0.00000
     98      18.6279      0.00000
     99      18.7557      0.00000
    100      19.0080      0.00000
    101      19.3516      0.00000
    102      19.4655      0.00000
    103      19.7520      0.00000
    104      19.9345      0.00000
    105      20.3360      0.00000
    106      20.4312      0.00000
    107      20.6148      0.00000
    108      20.9362      0.00000
    109      21.1193      0.00000
    110      21.3562      0.00000
    111      21.4588      0.00000
    112      21.8011      0.00000
    113      22.0231      0.00000
    114      22.2437      0.00000
    115      22.4307      0.00000
    116      22.8948      0.00000
    117      23.1149      0.00000
    118      23.2357      0.00000
    119      23.4897      0.00000
    120      24.2852      0.00000
    121      24.8334      0.00000
    122      24.9707      0.00000
    123      25.0039      0.00000
    124      25.4714      0.00000
    125      25.5860      0.00000
    126      25.8364      0.00000
    127      26.0616      0.00000
    128      26.2605      0.00000
    129      26.4447      0.00000
    130      26.5346      0.00000
    131      26.7720      0.00000
    132      26.8864      0.00000
    133      27.0187      0.00000
    134      27.2611      0.00000
    135      27.4643      0.00000
    136      27.6359      0.00000
    137      27.7880      0.00000
    138      27.9917      0.00000
    139      28.2486      0.00000
    140      28.3841      0.00000

 k-point     3 :       0.2857    0.0000    0.0000
  band No.  band energies     occupation 
      1     -25.4536      2.00000
      2     -25.4485      2.00000
      3     -25.4390      2.00000
      4     -25.4383      2.00000
      5     -25.4091      2.00000
      6     -25.4086      2.00000
      7     -25.3866      2.00000
      8     -25.3859      2.00000
      9     -25.3812      2.00000
     10     -25.3804      2.00000
     11     -12.7201      2.00000
     12     -11.5337      2.00000
     13     -11.4572      2.00000
     14     -11.2099      2.00000
     15     -10.9478      2.00000
     16     -10.8719      2.00000
     17      -6.4042      2.00000
     18      -5.3661      2.00000
     19      -2.7465      2.00000
     20      -2.3872      2.00000
     21      -2.2656      2.00000
     22      -1.8078      2.00000
     23      -1.5130      2.00000
     24      -1.3404      2.00000
     25      -1.0535      2.00000
     26      -0.9696      2.00000
     27      -0.9330      2.00000
     28      -0.8211      2.00000
     29      -0.7307      2.00000
     30      -0.6236      2.00000
     31      -0.5834      2.00000
     32      -0.5586      2.00000
     33      -0.4438      2.00000
     34      -0.3863      2.00000
     35       0.4836      2.00000
     36       0.5396      2.00000
     37       0.5504      2.00000
     38       0.5825      2.00000
     39       0.6094      2.00000
     40       0.6379      2.00000
     41       0.6717      2.00000
     42       0.6996      2.00000
     43       0.9225      2.00000
     44       1.0439      2.00000
     45       1.2154      2.00000
     46       1.3100      2.00000
     47       1.3931      2.00000
     48       1.4685      2.00000
     49       1.6595      2.00000
     50       2.0104      2.00000
     51       2.0892      2.00000
     52       2.3328      2.00000
     53       2.8455      2.00000
     54       3.2745      2.00000
     55       4.9804      0.00000
     56       5.6871      0.00000
     57       6.9754      0.00000
     58       7.1187      0.00000
     59       7.3778      0.00000
     60       7.8595      0.00000
     61       8.0072      0.00000
     62       8.3234      0.00000
     63       8.7397      0.00000
     64       9.2872      0.00000
     65       9.4735      0.00000
     66       9.7814      0.00000
     67       9.9083      0.00000
     68      10.1467      0.00000
     69      10.4087      0.00000
     70      10.6254      0.00000
     71      10.9671      0.00000
     72      11.1972      0.00000
     73      11.3470      0.00000
     74      11.7959      0.00000
     75      12.3061      0.00000
     76      12.6964      0.00000
     77      12.9731      0.00000
     78      13.2607      0.00000
     79      13.6064      0.00000
     80      13.8000      0.00000
     81      14.0898      0.00000
     82      14.2679      0.00000
     83      14.6524      0.00000
     84      14.8460      0.00000
     85      15.2503      0.00000
     86      15.4960      0.00000
     87      15.8022      0.00000
     88      16.2093      0.00000
     89      16.5202      0.00000
     90      16.8243      0.00000
     91      16.9540      0.00000
     92      17.1397      0.00000
     93      17.2996      0.00000
     94      17.5646      0.00000
     95      17.7537      0.00000
     96      17.9975      0.00000
     97      18.3377      0.00000
     98      18.4693      0.00000
     99      18.6144      0.00000
    100      18.9644      0.00000
    101      19.1770      0.00000
    102      19.4540      0.00000
    103      19.7564      0.00000
    104      19.8624      0.00000
    105      20.3031      0.00000
    106      20.4422      0.00000
    107      20.6263      0.00000
    108      20.8818      0.00000
    109      21.1024      0.00000
    110      21.3081      0.00000
    111      21.5200      0.00000
    112      21.9174      0.00000
    113      22.2775      0.00000
    114      22.3786      0.00000
    115      22.6564      0.00000
    116      23.0216      0.00000
    117      23.2084      0.00000
    118      23.4183      0.00000
    119      23.5881      0.00000
    120      23.8089      0.00000
    121      24.3194      0.00000
    122      24.8788      0.00000
    123      25.0371      0.00000
    124      25.2721      0.00000
    125      25.3959      0.00000
    126      25.5694      0.00000
    127      25.6537      0.00000
    128      26.0744      0.00000
    129      26.1639      0.00000
    130      26.3272      0.00000
    131      26.4795      0.00000
    132      26.5897      0.00000
    133      26.8900      0.00000
    134      26.9646      0.00000
    135      27.1631      0.00000
    136      27.3761      0.00000
    137      27.4556      0.00000
    138      27.6513      0.00000
    139      27.8001      0.00000
    140      27.9061      0.00000

 k-point     4 :       0.4286    0.0000    0.0000
  band No.  band energies     occupation 
      1     -25.4535      2.00000
      2     -25.4485      2.00000
      3     -25.4389      2.00000
      4     -25.4383      2.00000
      5     -25.4089      2.00000
      6     -25.4085      2.00000
      7     -25.3865      2.00000
      8     -25.3858      2.00000
      9     -25.3811      2.00000
     10     -25.3803      2.00000
     11     -12.6181      2.00000
     12     -11.6190      2.00000
     13     -11.4326      2.00000
     14     -11.2528      2.00000
     15     -10.9813      2.00000
     16     -10.9239      2.00000
     17      -6.3692      2.00000
     18      -5.2400      2.00000
     19      -2.6405      2.00000
     20      -2.3755      2.00000
     21      -2.1691      2.00000
     22      -1.6390      2.00000
     23      -1.5198      2.00000
     24      -1.3538      2.00000
     25      -1.1583      2.00000
     26      -1.1275      2.00000
     27      -0.9395      2.00000
     28      -0.8536      2.00000
     29      -0.6924      2.00000
     30      -0.6182      2.00000
     31      -0.5719      2.00000
     32      -0.5497      2.00000
     33      -0.4265      2.00000
     34      -0.3576      2.00000
     35       0.4709      2.00000
     36       0.5258      2.00000
     37       0.5451      2.00000
     38       0.5896      2.00000
     39       0.6373      2.00000
     40       0.6550      2.00000
     41       0.6825      2.00000
     42       0.7271      2.00000
     43       0.9154      2.00000
     44       1.0194      2.00000
     45       1.1035      2.00000
     46       1.2386      2.00000
     47       1.3935      2.00000
     48       1.5517      2.00000
     49       1.7052      2.00000
     50       1.8019      2.00000
     51       2.1479      2.00000
     52       2.3293      2.00000
     53       2.5295      2.00000
     54       3.1214      2.00000
     55       5.1297      0.00000
     56       5.7993      0.00000
     57       6.8116      0.00000
     58       7.0452      0.00000
     59       7.3481      0.00000
     60       7.7150      0.00000
     61       8.1721      0.00000
     62       8.5323      0.00000
     63       8.9575      0.00000
     64       9.2611      0.00000
     65       9.5437      0.00000
     66       9.7606      0.00000
     67      10.0323      0.00000
     68      10.2439      0.00000
     69      10.4403      0.00000
     70      10.6258      0.00000
     71      10.8991      0.00000
     72      11.1738      0.00000
     73      11.5883      0.00000
     74      11.7862      0.00000
     75      12.1185      0.00000
     76      12.4653      0.00000
     77      12.5755      0.00000
     78      13.0055      0.00000
     79      13.5737      0.00000
     80      13.6349      0.00000
     81      13.9525      0.00000
     82      14.2817      0.00000
     83      14.7870      0.00000
     84      15.1539      0.00000
     85      15.2081      0.00000
     86      15.6863      0.00000
     87      15.9911      0.00000
     88      16.2254      0.00000
     89      16.4527      0.00000
     90      16.7229      0.00000
     91      16.8850      0.00000
     92      17.1148      0.00000
     93      17.5579      0.00000
     94      17.8129      0.00000
     95      17.9637      0.00000
     96      18.2581      0.00000
     97      18.4282      0.00000
     98      18.5876      0.00000
     99      18.8827      0.00000
    100      18.9494      0.00000
    101      19.3254      0.00000
    102      19.4423      0.00000
    103      19.7540      0.00000
    104      19.8497      0.00000
    105      20.0751      0.00000
    106      20.6183      0.00000
    107      20.7222      0.00000
    108      21.0667      0.00000
    109      21.3093      0.00000
    110      21.6033      0.00000
    111      21.6949      0.00000
    112      21.9337      0.00000
    113      22.6224      0.00000
    114      22.8109      0.00000
    115      22.9503      0.00000
    116      23.1558      0.00000
    117      23.3719      0.00000
    118      23.6635      0.00000
    119      23.8083      0.00000
    120      24.0160      0.00000
    121      24.1730      0.00000
    122      24.2045      0.00000
    123      24.4164      0.00000
    124      24.6867      0.00000
    125      25.0883      0.00000
    126      25.2947      0.00000
    127      25.3543      0.00000
    128      25.5609      0.00000
    129      25.6915      0.00000
    130      25.8796      0.00000
    131      26.0128      0.00000
    132      26.1901      0.00000
    133      26.4605      0.00000
    134      26.6250      0.00000
    135      26.7043      0.00000
    136      26.9735      0.00000
    137      27.0170      0.00000
    138      27.2911      0.00000
    139      27.4729      0.00000
    140      27.6262      0.00000

 k-point     5 :       0.0000    0.2500    0.0000
  band No.  band energies     occupation 
      1     -25.4536      2.00000
      2     -25.4486      2.00000
      3     -25.4390      2.00000
      4     -25.4384      2.00000
      5     -25.4091      2.00000
      6     -25.4087      2.00000
      7     -25.3866      2.00000
      8     -25.3859      2.00000
      9     -25.3812      2.00000
     10     -25.3804      2.00000
     11     -12.7493      2.00000
     12     -11.5223      2.00000
     13     -11.4541      2.00000
     14     -11.1949      2.00000
     15     -10.9329      2.00000
     16     -10.8584      2.00000
     17      -6.4149      2.00000
     18      -5.4061      2.00000
     19      -2.7782      2.00000
     20      -2.3878      2.00000
     21      -2.2606      2.00000
     22      -1.8726      2.00000
     23      -1.5741      2.00000
     24      -1.3033      2.00000
     25      -1.0673      2.00000
     26      -0.9770      2.00000
     27      -0.8821      2.00000
     28      -0.7846      2.00000
     29      -0.7364      2.00000
     30      -0.6266      2.00000
     31      -0.5829      2.00000
     32      -0.5594      2.00000
     33      -0.4453      2.00000
     34      -0.3938      2.00000
     35       0.4924      2.00000
     36       0.5482      2.00000
     37       0.5507      2.00000
     38       0.5831      2.00000
     39       0.6073      2.00000
     40       0.6387      2.00000
     41       0.6681      2.00000
     42       0.7021      2.00000
     43       0.9034      2.00000
     44       1.0092      2.00000
     45       1.2101      2.00000
     46       1.3002      2.00000
     47       1.4015      2.00000
     48       1.5037      2.00000
     49       1.6905      2.00000
     50       2.0278      2.00000
     51       2.1435      2.00000
     52       2.3926      2.00000
     53       2.9411      2.00000
     54       3.3157      2.00000
     55       4.9036      0.00000
     56       5.6020      0.00000
     57       6.9333      0.00000
     58       7.0981      0.00000
     59       7.3806      0.00000
     60       7.8621      0.00000
     61       8.0582      0.00000
     62       8.3367      0.00000
     63       8.6569      0.00000
     64       9.2671      0.00000
     65       9.5305      0.00000
     66       9.7483      0.00000
     67       9.8637      0.00000
     68      10.1055      0.00000
     69      10.4439      0.00000
     70      10.6258      0.00000
     71      10.9668      0.00000
     72      11.1803      0.00000
     73      11.4620      0.00000
     74      11.8483      0.00000
     75      12.4185      0.00000
     76      12.7637      0.00000
     77      12.9820      0.00000
     78      13.3781      0.00000
     79      13.5897      0.00000
     80      13.7710      0.00000
     81      14.0289      0.00000
     82      14.3511      0.00000
     83      14.6655      0.00000
     84      14.7904      0.00000
     85      15.2202      0.00000
     86      15.4076      0.00000
     87      15.6171      0.00000
     88      16.1497      0.00000
     89      16.4713      0.00000
     90      16.7336      0.00000
     91      16.8736      0.00000
     92      17.0655      0.00000
     93      17.2290      0.00000
     94      17.6759      0.00000
     95      17.8055      0.00000
     96      18.0292      0.00000
     97      18.1370      0.00000
     98      18.3872      0.00000
     99      18.7619      0.00000
    100      19.0532      0.00000
    101      19.2302      0.00000
    102      19.4739      0.00000
    103      19.5707      0.00000
    104      19.8063      0.00000
    105      20.3005      0.00000
    106      20.4847      0.00000
    107      20.7544      0.00000
    108      20.9965      0.00000
    109      21.0129      0.00000
    110      21.2873      0.00000
    111      21.4377      0.00000
    112      21.7479      0.00000
    113      22.0730      0.00000
    114      22.2031      0.00000
    115      22.5380      0.00000
    116      23.0311      0.00000
    117      23.2191      0.00000
    118      23.5287      0.00000
    119      23.9044      0.00000
    120      23.9967      0.00000
    121      24.2015      0.00000
    122      24.6656      0.00000
    123      24.9991      0.00000
    124      25.2724      0.00000
    125      25.4893      0.00000
    126      25.6384      0.00000
    127      25.8471      0.00000
    128      26.1713      0.00000
    129      26.2940      0.00000
    130      26.5217      0.00000
    131      26.6507      0.00000
    132      26.8741      0.00000
    133      27.1010      0.00000
    134      27.1321      0.00000
    135      27.2437      0.00000
    136      27.4589      0.00000
    137      27.5179      0.00000
    138      27.7900      0.00000
    139      27.9651      0.00000
    140      28.1526      0.00000

 k-point     6 :       0.1429    0.2500    0.0000
  band No.  band energies     occupation 
      1     -25.4537      2.00000
      2     -25.4486      2.00000
      3     -25.4390      2.00000
      4     -25.4384      2.00000
      5     -25.4092      2.00000
      6     -25.4088      2.00000
      7     -25.3867      2.00000
      8     -25.3860      2.00000
      9     -25.3813      2.00000
     10     -25.3805      2.00000
     11     -12.7776      2.00000
     12     -11.5596      2.00000
     13     -11.4796      2.00000
     14     -11.1241      2.00000
     15     -10.9233      2.00000
     16     -10.7935      2.00000
     17      -6.4573      2.00000
     18      -5.4915      2.00000
     19      -2.8132      2.00000
     20      -2.4552      2.00000
     21      -2.1871      2.00000
     22      -1.9018      2.00000
     23      -1.6685      2.00000
     24      -1.3712      2.00000
     25      -1.1547      2.00000
     26      -0.9645      2.00000
     27      -0.7745      2.00000
     28      -0.7341      2.00000
     29      -0.6810      2.00000
     30      -0.6169      2.00000
     31      -0.5895      2.00000
     32      -0.5223      2.00000
     33      -0.4303      2.00000
     34      -0.3656      2.00000
     35       0.4817      2.00000
     36       0.5465      2.00000
     37       0.5549      2.00000
     38       0.5991      2.00000
     39       0.6199      2.00000
     40       0.6426      2.00000
     41       0.6648      2.00000
     42       0.6952      2.00000
     43       0.8885      2.00000
     44       0.9616      2.00000
     45       1.1584      2.00000
     46       1.2331      2.00000
     47       1.5265      2.00000
     48       1.6587      2.00000
     49       1.7101      2.00000
     50       2.0864      2.00000
     51       2.2997      2.00000
     52       2.5055      2.00000
     53       3.0963      2.00000
     54       3.3129      2.00000
     55       4.7339      0.00000
     56       5.3862      0.00000
     57       6.5621      0.00000
     58       6.9329      0.00000
     59       7.4186      0.00000
     60       7.7486      0.00000
     61       8.1026      0.00000
     62       8.3410      0.00000
     63       8.5886      0.00000
     64       9.2178      0.00000
     65       9.3922      0.00000
     66       9.6448      0.00000
     67       9.9795      0.00000
     68      10.0223      0.00000
     69      10.5079      0.00000
     70      10.6084      0.00000
     71      11.1748      0.00000
     72      11.2860      0.00000
     73      11.9232      0.00000
     74      12.0751      0.00000
     75      12.3201      0.00000
     76      12.5505      0.00000
     77      12.9969      0.00000
     78      13.4856      0.00000
     79      13.5742      0.00000
     80      13.9986      0.00000
     81      14.4869      0.00000
     82      14.5441      0.00000
     83      14.7564      0.00000
     84      14.9543      0.00000
     85      15.1354      0.00000
     86      15.4323      0.00000
     87      15.7085      0.00000
     88      15.8866      0.00000
     89      16.2439      0.00000
     90      16.4117      0.00000
     91      16.6576      0.00000
     92      16.9616      0.00000
     93      17.3684      0.00000
     94      17.5166      0.00000
     95      17.8273      0.00000
     96      18.0428      0.00000
     97      18.1531      0.00000
     98      18.4356      0.00000
     99      18.5516      0.00000
    100      18.8894      0.00000
    101      19.0921      0.00000
    102      19.2202      0.00000
    103      19.5087      0.00000
    104      19.7719      0.00000
    105      20.0664      0.00000
    106      20.3390      0.00000
    107      20.5065      0.00000
    108      20.7044      0.00000
    109      21.0792      0.00000
    110      21.3665      0.00000
    111      21.6652      0.00000
    112      22.0855      0.00000
    113      22.2045      0.00000
    114      22.6661      0.00000
    115      22.7724      0.00000
    116      23.0405      0.00000
    117      23.2766      0.00000
    118      23.5249      0.00000
    119      23.7393      0.00000
    120      23.9885      0.00000
    121      24.2826      0.00000
    122      24.4650      0.00000
    123      24.6358      0.00000
    124      25.0698      0.00000
    125      25.4381      0.00000
    126      25.6180      0.00000
    127      25.7050      0.00000
    128      25.8837      0.00000
    129      26.2876      0.00000
    130      26.4167      0.00000
    131      26.6330      0.00000
    132      26.7886      0.00000
    133      27.0203      0.00000
    134      27.2226      0.00000
    135      27.3591      0.00000
    136      27.6645      0.00000
    137      27.7769      0.00000
    138      27.9062      0.00000
    139      28.0671      0.00000
    140      28.2990      0.00000

 k-point     7 :       0.2857    0.2500    0.0000
  band No.  band energies     occupation 
      1     -25.4536      2.00000
      2     -25.4486      2.00000
      3     -25.4390      2.00000
      4     -25.4384      2.00000
      5     -25.4092      2.00000
      6     -25.4087      2.00000
      7     -25.3867      2.00000
      8     -25.3860      2.00000
      9     -25.3813      2.00000
     10     -25.3805      2.00000
     11     -12.7381      2.00000
     12     -11.6452      2.00000
     13     -11.4614      2.00000
     14     -11.1147      2.00000
     15     -10.9372      2.00000
     16     -10.7784      2.00000
     17      -6.4727      2.00000
     18      -5.4823      2.00000
     19      -2.7633      2.00000
     20      -2.4996      2.00000
     21      -2.1042      2.00000
     22      -1.8298      2.00000
     23      -1.7336      2.00000
     24      -1.4110      2.00000
     25      -1.0961      2.00000
     26      -0.9707      2.00000
     27      -0.8144      2.00000
     28      -0.7026      2.00000
     29      -0.6869      2.00000
     30      -0.6304      2.00000
     31      -0.5653      2.00000
     32      -0.4796      2.00000
     33      -0.4354      2.00000
     34      -0.3203      2.00000
     35       0.4803      2.00000
     36       0.5205      2.00000
     37       0.5474      2.00000
     38       0.5989      2.00000
     39       0.6205      2.00000
     40       0.6390      2.00000
     41       0.6685      2.00000
     42       0.7007      2.00000
     43       0.9286      2.00000
     44       1.0170      2.00000
     45       1.1611      2.00000
     46       1.2036      2.00000
     47       1.5177      2.00000
     48       1.6948      2.00000
     49       1.7531      2.00000
     50       2.0188      2.00000
     51       2.1439      2.00000
     52       2.5020      2.00000
     53       2.9953      2.00000
     54       3.3499      2.00000
     55       4.7225      0.00000
     56       5.4236      0.00000
     57       6.3957      0.00000
     58       7.0064      0.00000
     59       7.3926      0.00000
     60       7.7091      0.00000
     61       8.0360      0.00000
     62       8.2562      0.00000
     63       8.6264      0.00000
     64       9.1616      0.00000
     65       9.4088      0.00000
     66       9.6590      0.00000
     67       9.8297      0.00000
     68      10.2696      0.00000
     69      10.4589      0.00000
     70      10.6025      0.00000
     71      10.9837      0.00000
     72      11.3533      0.00000
     73      11.7127      0.00000
     74      11.8984      0.00000
     75      12.2323      0.00000
     76      12.5619      0.00000
     77      13.2551      0.00000
     78      13.6103      0.00000
     79      13.7140      0.00000
     80      14.2353      0.00000
     81      14.3331      0.00000
     82      14.6701      0.00000
     83      14.9342      0.00000
     84      15.0218      0.00000
     85      15.1439      0.00000
     86      15.6610      0.00000
     87      15.9796      0.00000
     88      16.2156      0.00000
     89      16.4097      0.00000
     90      16.5783      0.00000
     91      16.6524      0.00000
     92      16.9526      0.00000
     93      17.4448      0.00000
     94      17.6702      0.00000
     95      17.7755      0.00000
     96      17.9616      0.00000
     97      18.1917      0.00000
     98      18.3824      0.00000
     99      18.5440      0.00000
    100      18.7981      0.00000
    101      19.0569      0.00000
    102      19.0968      0.00000
    103      19.2897      0.00000
    104      19.5470      0.00000
    105      19.7327      0.00000
    106      20.1443      0.00000
    107      20.3222      0.00000
    108      20.7678      0.00000
    109      20.9994      0.00000
    110      21.3942      0.00000
    111      21.5762      0.00000
    112      21.6533      0.00000
    113      22.4078      0.00000
    114      22.6503      0.00000
    115      23.1850      0.00000
    116      23.3081      0.00000
    117      23.5116      0.00000
    118      23.7354      0.00000
    119      23.8931      0.00000
    120      23.9650      0.00000
    121      24.1527      0.00000
    122      24.6241      0.00000
    123      24.8255      0.00000
    124      24.9711      0.00000
    125      25.3229      0.00000
    126      25.4428      0.00000
    127      25.6442      0.00000
    128      25.9258      0.00000
    129      26.0572      0.00000
    130      26.2325      0.00000
    131      26.3731      0.00000
    132      26.3948      0.00000
    133      26.5839      0.00000
    134      26.7391      0.00000
    135      26.9516      0.00000
    136      27.1226      0.00000
    137      27.4906      0.00000
    138      27.7609      0.00000
    139      28.1224      0.00000
    140      28.3637      0.00000

 k-point     8 :       0.4286    0.2500    0.0000
  band No.  band energies     occupation 
      1     -25.4536      2.00000
      2     -25.4485      2.00000
      3     -25.4389      2.00000
      4     -25.4383      2.00000
      5     -25.4091      2.00000
      6     -25.4087      2.00000
      7     -25.3866      2.00000
      8     -25.3859      2.00000
      9     -25.3812      2.00000
     10     -25.3804      2.00000
     11     -12.6511      2.00000
     12     -11.7109      2.00000
     13     -11.4263      2.00000
     14     -11.1895      2.00000
     15     -10.9545      2.00000
     16     -10.8203      2.00000
     17      -6.4457      2.00000
     18      -5.3678      2.00000
     19      -2.6159      2.00000
     20      -2.4552      2.00000
     21      -2.1795      2.00000
     22      -1.8783      2.00000
     23      -1.5402      2.00000
     24      -1.4452      2.00000
     25      -1.2402      2.00000
     26      -0.9074      2.00000
     27      -0.8447      2.00000
     28      -0.7157      2.00000
     29      -0.6858      2.00000
     30      -0.5854      2.00000
     31      -0.5705      2.00000
     32      -0.4984      2.00000
     33      -0.4121      2.00000
     34      -0.3008      2.00000
     35       0.4603      2.00000
     36       0.5241      2.00000
     37       0.5523      2.00000
     38       0.6132      2.00000
     39       0.6260      2.00000
     40       0.6452      2.00000
     41       0.6721      2.00000
     42       0.7039      2.00000
     43       0.9514      2.00000
     44       1.0417      2.00000
     45       1.0993      2.00000
     46       1.2871      2.00000
     47       1.3319      2.00000
     48       1.5493      2.00000
     49       1.8229      2.00000
     50       1.9565      2.00000
     51       2.1755      2.00000
     52       2.4870      2.00000
     53       2.9283      2.00000
     54       3.0732      2.00000
     55       4.7962      0.00000
     56       5.5906      0.00000
     57       6.4079      0.00000
     58       6.9265      0.00000
     59       7.3920      0.00000
     60       7.6608      0.00000
     61       7.7856      0.00000
     62       7.9673      0.00000
     63       8.7642      0.00000
     64       9.1635      0.00000
     65       9.5673      0.00000
     66       9.7816      0.00000
     67      10.1768      0.00000
     68      10.3073      0.00000
     69      10.4897      0.00000
     70      10.8212      0.00000
     71      11.1242      0.00000
     72      11.2623      0.00000
     73      11.7771      0.00000
     74      12.1370      0.00000
     75      12.2601      0.00000
     76      12.5549      0.00000
     77      13.0274      0.00000
     78      13.2396      0.00000
     79      13.4688      0.00000
     80      14.0998      0.00000
     81      14.4034      0.00000
     82      14.5610      0.00000
     83      14.6528      0.00000
     84      15.0250      0.00000
     85      15.3046      0.00000
     86      15.3726      0.00000
     87      15.6472      0.00000
     88      16.0988      0.00000
     89      16.2816      0.00000
     90      16.5859      0.00000
     91      16.9111      0.00000
     92      17.0418      0.00000
     93      17.5374      0.00000
     94      17.6276      0.00000
     95      17.7863      0.00000
     96      18.1173      0.00000
     97      18.3901      0.00000
     98      18.6633      0.00000
     99      18.7419      0.00000
    100      19.1116      0.00000
    101      19.2476      0.00000
    102      19.3473      0.00000
    103      19.7131      0.00000
    104      20.1280      0.00000
    105      20.1955      0.00000
    106      20.4874      0.00000
    107      20.8793      0.00000
    108      21.0282      0.00000
    109      21.3785      0.00000
    110      21.4648      0.00000
    111      21.8259      0.00000
    112      22.0579      0.00000
    113      22.1482      0.00000
    114      22.2931      0.00000
    115      22.7924      0.00000
    116      22.8736      0.00000
    117      23.0643      0.00000
    118      23.1804      0.00000
    119      23.4183      0.00000
    120      23.7807      0.00000
    121      24.0361      0.00000
    122      24.4283      0.00000
    123      24.5534      0.00000
    124      24.6805      0.00000
    125      24.8263      0.00000
    126      25.0704      0.00000
    127      25.2312      0.00000
    128      25.4025      0.00000
    129      25.7527      0.00000
    130      26.0237      0.00000
    131      26.0966      0.00000
    132      26.2410      0.00000
    133      26.4171      0.00000
    134      26.5907      0.00000
    135      26.7644      0.00000
    136      27.1450      0.00000
    137      27.3350      0.00000
    138      27.6371      0.00000
    139      27.8758      0.00000
    140      28.0963      0.00000

 k-point     9 :       0.0000    0.5000    0.0000
  band No.  band energies     occupation 
      1     -25.4535      2.00000
      2     -25.4485      2.00000
      3     -25.4389      2.00000
      4     -25.4383      2.00000
      5     -25.4089      2.00000
      6     -25.4085      2.00000
      7     -25.3865      2.00000
      8     -25.3858      2.00000
      9     -25.3811      2.00000
     10     -25.3803      2.00000
     11     -12.6010      2.00000
     12     -11.6357      2.00000
     13     -11.4277      2.00000
     14     -11.2581      2.00000
     15     -10.9841      2.00000
     16     -10.9338      2.00000
     17      -6.3638      2.00000
     18      -5.2211      2.00000
     19      -2.6240      2.00000
     20      -2.3725      2.00000
     21      -2.1259      2.00000
     22      -1.6786      2.00000
     23      -1.4925      2.00000
     24      -1.3523      2.00000
     25      -1.1968      2.00000
     26      -1.1492      2.00000
     27      -0.9373      2.00000
     28      -0.8463      2.00000
     29      -0.6915      2.00000
     30      -0.6098      2.00000
     31      -0.5730      2.00000
     32      -0.5473      2.00000
     33      -0.4223      2.00000
     34      -0.3527      2.00000
     35       0.4706      2.00000
     36       0.5259      2.00000
     37       0.5424      2.00000
     38       0.5921      2.00000
     39       0.6486      2.00000
     40       0.6581      2.00000
     41       0.6842      2.00000
     42       0.7466      2.00000
     43       0.9115      2.00000
     44       0.9610      2.00000
     45       1.0510      2.00000
     46       1.2803      2.00000
     47       1.4718      2.00000
     48       1.5095      2.00000
     49       1.6651      2.00000
     50       1.8070      2.00000
     51       2.1745      2.00000
     52       2.3508      2.00000
     53       2.4790      2.00000
     54       3.0935      2.00000
     55       5.1430      0.00000
     56       5.7915      0.00000
     57       6.7457      0.00000
     58       7.0416      0.00000
     59       7.3013      0.00000
     60       7.7562      0.00000
     61       8.1835      0.00000
     62       8.6535      0.00000
     63       8.8938      0.00000
     64       9.3036      0.00000
     65       9.6017      0.00000
     66       9.7119      0.00000
     67      10.0847      0.00000
     68      10.1817      0.00000
     69      10.4581      0.00000
     70      10.6482      0.00000
     71      10.8401      0.00000
     72      11.2550      0.00000
     73      11.6188      0.00000
     74      11.7642      0.00000
     75      12.1164      0.00000
     76      12.3944      0.00000
     77      12.6552      0.00000
     78      13.0515      0.00000
     79      13.4522      0.00000
     80      13.6318      0.00000
     81      13.7950      0.00000
     82      14.2428      0.00000
     83      14.8636      0.00000
     84      15.1805      0.00000
     85      15.3260      0.00000
     86      15.6317      0.00000
     87      15.9057      0.00000
     88      16.2306      0.00000
     89      16.3273      0.00000
     90      16.6888      0.00000
     91      16.8977      0.00000
     92      17.1185      0.00000
     93      17.7917      0.00000
     94      17.8681      0.00000
     95      18.0785      0.00000
     96      18.3451      0.00000
     97      18.5139      0.00000
     98      18.6549      0.00000
     99      18.6783      0.00000
    100      18.8104      0.00000
    101      19.3505      0.00000
    102      19.5094      0.00000
    103      19.8236      0.00000
    104      19.9355      0.00000
    105      20.0477      0.00000
    106      20.2022      0.00000
    107      20.7899      0.00000
    108      21.1847      0.00000
    109      21.3282      0.00000
    110      21.7715      0.00000
    111      21.9449      0.00000
    112      22.2585      0.00000
    113      22.6723      0.00000
    114      22.7556      0.00000
    115      23.1094      0.00000
    116      23.1456      0.00000
    117      23.3101      0.00000
    118      23.4794      0.00000
    119      23.7127      0.00000
    120      23.8676      0.00000
    121      23.9870      0.00000
    122      24.1852      0.00000
    123      24.3240      0.00000
    124      24.5855      0.00000
    125      25.2873      0.00000
    126      25.3514      0.00000
    127      25.3649      0.00000
    128      25.5927      0.00000
    129      25.6816      0.00000
    130      25.9381      0.00000
    131      25.9622      0.00000
    132      26.1057      0.00000
    133      26.1732      0.00000
    134      26.4406      0.00000
    135      26.6679      0.00000
    136      26.8854      0.00000
    137      26.9128      0.00000
    138      27.1809      0.00000
    139      27.3176      0.00000
    140      27.4831      0.00000

 k-point    10 :       0.1429    0.5000    0.0000
  band No.  band energies     occupation 
      1     -25.4535      2.00000
      2     -25.4485      2.00000
      3     -25.4389      2.00000
      4     -25.4383      2.00000
      5     -25.4090      2.00000
      6     -25.4085      2.00000
      7     -25.3865      2.00000
      8     -25.3858      2.00000
      9     -25.3811      2.00000
     10     -25.3803      2.00000
     11     -12.6049      2.00000
     12     -11.6559      2.00000
     13     -11.4230      2.00000
     14     -11.2728      2.00000
     15     -10.9661      2.00000
     16     -10.9015      2.00000
     17      -6.3855      2.00000
     18      -5.2419      2.00000
     19      -2.5818      2.00000
     20      -2.3541      2.00000
     21      -2.2179      2.00000
     22      -1.6780      2.00000
     23      -1.6015      2.00000
     24      -1.4879      2.00000
     25      -1.2983      2.00000
     26      -0.9403      2.00000
     27      -0.8593      2.00000
     28      -0.7403      2.00000
     29      -0.6990      2.00000
     30      -0.6248      2.00000
     31      -0.5736      2.00000
     32      -0.5374      2.00000
     33      -0.4114      2.00000
     34      -0.3395      2.00000
     35       0.4641      2.00000
     36       0.5194      2.00000
     37       0.5685      2.00000
     38       0.6092      2.00000
     39       0.6427      2.00000
     40       0.6519      2.00000
     41       0.6743      2.00000
     42       0.7416      2.00000
     43       0.8867      2.00000
     44       0.9735      2.00000
     45       1.1331      2.00000
     46       1.2474      2.00000
     47       1.3055      2.00000
     48       1.5320      2.00000
     49       1.7564      2.00000
     50       1.9561      2.00000
     51       2.1890      2.00000
     52       2.4069      2.00000
     53       2.6100      2.00000
     54       3.0500      2.00000
     55       4.9990      0.00000
     56       5.7015      0.00000
     57       6.7708      0.00000
     58       7.0255      0.00000
     59       7.2121      0.00000
     60       7.3750      0.00000
     61       7.9750      0.00000
     62       8.2564      0.00000
     63       8.9435      0.00000
     64       9.2632      0.00000
     65       9.6294      0.00000
     66       9.9349      0.00000
     67      10.1664      0.00000
     68      10.4771      0.00000
     69      10.5739      0.00000
     70      10.9473      0.00000
     71      11.1389      0.00000
     72      11.3703      0.00000
     73      11.5101      0.00000
     74      11.8107      0.00000
     75      12.0670      0.00000
     76      12.4407      0.00000
     77      12.8465      0.00000
     78      12.9880      0.00000
     79      13.5892      0.00000
     80      13.8565      0.00000
     81      14.0175      0.00000
     82      14.3670      0.00000
     83      14.6484      0.00000
     84      14.8714      0.00000
     85      14.9307      0.00000
     86      15.2226      0.00000
     87      15.5755      0.00000
     88      15.7576      0.00000
     89      16.3783      0.00000
     90      16.6945      0.00000
     91      17.1360      0.00000
     92      17.3307      0.00000
     93      17.4630      0.00000
     94      17.7090      0.00000
     95      17.8175      0.00000
     96      18.1420      0.00000
     97      18.5479      0.00000
     98      18.8421      0.00000
     99      19.0692      0.00000
    100      19.2397      0.00000
    101      19.4301      0.00000
    102      19.8753      0.00000
    103      19.9536      0.00000
    104      20.3380      0.00000
    105      20.6190      0.00000
    106      20.9567      0.00000
    107      21.0466      0.00000
    108      21.2024      0.00000
    109      21.4724      0.00000
    110      21.6255      0.00000
    111      21.8268      0.00000
    112      21.9549      0.00000
    113      22.3089      0.00000
    114      22.3555      0.00000
    115      22.5508      0.00000
    116      22.8932      0.00000
    117      23.0101      0.00000
    118      23.1494      0.00000
    119      23.4301      0.00000
    120      23.6755      0.00000
    121      23.9001      0.00000
    122      24.2868      0.00000
    123      24.3415      0.00000
    124      24.5660      0.00000
    125      24.7208      0.00000
    126      24.8531      0.00000
    127      25.1831      0.00000
    128      25.2223      0.00000
    129      25.5143      0.00000
    130      25.6993      0.00000
    131      25.8859      0.00000
    132      26.2003      0.00000
    133      26.4501      0.00000
    134      26.5174      0.00000
    135      26.8216      0.00000
    136      26.9804      0.00000
    137      27.2572      0.00000
    138      27.4398      0.00000
    139      27.6143      0.00000
    140      27.7911      0.00000

 k-point    11 :       0.2857    0.5000    0.0000
  band No.  band energies     occupation 
      1     -25.4535      2.00000
      2     -25.4485      2.00000
      3     -25.4389      2.00000
      4     -25.4383      2.00000
      5     -25.4091      2.00000
      6     -25.4086      2.00000
      7     -25.3866      2.00000
      8     -25.3859      2.00000
      9     -25.3812      2.00000
     10     -25.3804      2.00000
     11     -12.6076      2.00000
     12     -11.7445      2.00000
     13     -11.4083      2.00000
     14     -11.2312      2.00000
     15     -10.9533      2.00000
     16     -10.8404      2.00000
     17      -6.4349      2.00000
     18      -5.3157      2.00000
     19      -2.5133      2.00000
     20      -2.4126      2.00000
     21      -2.1768      2.00000
     22      -1.9189      2.00000
     23      -1.6016      2.00000
     24      -1.5271      2.00000
     25      -1.2762      2.00000
     26      -0.8699      2.00000
     27      -0.8357      2.00000
     28      -0.6930      2.00000
     29      -0.6762      2.00000
     30      -0.5826      2.00000
     31      -0.5539      2.00000
     32      -0.4920      2.00000
     33      -0.4083      2.00000
     34      -0.2861      2.00000
     35       0.4705      2.00000
     36       0.5184      2.00000
     37       0.5715      2.00000
     38       0.6178      2.00000
     39       0.6350      2.00000
     40       0.6534      2.00000
     41       0.6783      2.00000
     42       0.7231      2.00000
     43       0.9169      2.00000
     44       0.9960      2.00000
     45       1.0630      2.00000
     46       1.2987      2.00000
     47       1.3401      2.00000
     48       1.5125      2.00000
     49       1.7838      2.00000
     50       1.9685      2.00000
     51       2.2155      2.00000
     52       2.5619      2.00000
     53       2.9211      2.00000
     54       2.9696      2.00000
     55       4.7488      0.00000
     56       5.5993      0.00000
     57       6.3778      0.00000
     58       6.8604      0.00000
     59       7.3321      0.00000
     60       7.5337      0.00000
     61       7.6664      0.00000
     62       7.8216      0.00000
     63       8.8958      0.00000
     64       9.2456      0.00000
     65       9.6045      0.00000
     66       9.9656      0.00000
     67      10.3115      0.00000
     68      10.4200      0.00000
     69      10.6689      0.00000
     70      10.8255      0.00000
     71      11.1660      0.00000
     72      11.4349      0.00000
     73      11.8069      0.00000
     74      12.0809      0.00000
     75      12.2898      0.00000
     76      12.6226      0.00000
     77      13.0054      0.00000
     78      13.2188      0.00000
     79      13.4676      0.00000
     80      13.9026      0.00000
     81      14.2402      0.00000
     82      14.4777      0.00000
     83      14.6639      0.00000
     84      14.9528      0.00000
     85      14.9895      0.00000
     86      15.1753      0.00000
     87      15.4282      0.00000
     88      15.9890      0.00000
     89      16.1271      0.00000
     90      16.3400      0.00000
     91      16.8289      0.00000
     92      17.1892      0.00000
     93      17.4913      0.00000
     94      17.6317      0.00000
     95      17.9167      0.00000
     96      18.1857      0.00000
     97      18.8537      0.00000
     98      18.9100      0.00000
     99      19.0908      0.00000
    100      19.3507      0.00000
    101      19.5893      0.00000
    102      19.8158      0.00000
    103      20.1084      0.00000
    104      20.4002      0.00000
    105      20.6066      0.00000
    106      20.7654      0.00000
    107      20.8725      0.00000
    108      20.9897      0.00000
    109      21.3354      0.00000
    110      21.5476      0.00000
    111      21.6596      0.00000
    112      21.9234      0.00000
    113      22.0274      0.00000
    114      22.1696      0.00000
    115      22.5503      0.00000
    116      22.6984      0.00000
    117      22.9625      0.00000
    118      23.1581      0.00000
    119      23.4956      0.00000
    120      23.6692      0.00000
    121      23.8242      0.00000
    122      23.9546      0.00000
    123      24.1167      0.00000
    124      24.4112      0.00000
    125      24.7060      0.00000
    126      24.8455      0.00000
    127      25.2206      0.00000
    128      25.4187      0.00000
    129      25.5910      0.00000
    130      25.6726      0.00000
    131      25.8146      0.00000
    132      26.0215      0.00000
    133      26.2920      0.00000
    134      26.4835      0.00000
    135      27.0105      0.00000
    136      27.0748      0.00000
    137      27.3570      0.00000
    138      27.5052      0.00000
    139      27.6358      0.00000
    140      27.9228      0.00000

 k-point    12 :       0.4286    0.5000    0.0000
  band No.  band energies     occupation 
      1     -25.4535      2.00000
      2     -25.4485      2.00000
      3     -25.4389      2.00000
      4     -25.4383      2.00000
      5     -25.4091      2.00000
      6     -25.4087      2.00000
      7     -25.3867      2.00000
      8     -25.3859      2.00000
      9     -25.3812      2.00000
     10     -25.3804      2.00000
     11     -12.6032      2.00000
     12     -11.8329      2.00000
     13     -11.3942      2.00000
     14     -11.1627      2.00000
     15     -10.9593      2.00000
     16     -10.7990      2.00000
     17      -6.4756      2.00000
     18      -5.3982      2.00000
     19      -2.4820      2.00000
     20      -2.4539      2.00000
     21      -2.1984      2.00000
     22      -1.9607      2.00000
     23      -1.5278      2.00000
     24      -1.3700      2.00000
     25      -1.1915      2.00000
     26      -1.0121      2.00000
     27      -0.9883      2.00000
     28      -0.6696      2.00000
     29      -0.6351      2.00000
     30      -0.5837      2.00000
     31      -0.5357      2.00000
     32      -0.4180      2.00000
     33      -0.4081      2.00000
     34      -0.2344      2.00000
     35       0.4857      2.00000
     36       0.5105      2.00000
     37       0.5715      2.00000
     38       0.6021      2.00000
     39       0.6104      2.00000
     40       0.6445      2.00000
     41       0.6839      2.00000
     42       0.7128      2.00000
     43       0.9881      2.00000
     44       1.0576      2.00000
     45       1.0794      2.00000
     46       1.2374      2.00000
     47       1.4249      2.00000
     48       1.4667      2.00000
     49       1.7717      2.00000
     50       1.9212      2.00000
     51       2.0723      2.00000
     52       2.6147      2.00000
     53       2.9843      2.00000
     54       3.2469      2.00000
     55       4.5581      0.00000
     56       5.5549      0.00000
     57       5.9731      0.00000
     58       7.0210      0.00000
     59       7.3311      0.00000
     60       7.6774      0.00000
     61       7.8318      0.00000
     62       8.0258      0.00000
     63       8.7678      0.00000
     64       9.1866      0.00000
     65       9.5794      0.00000
     66       9.7550      0.00000
     67       9.8451      0.00000
     68      10.2936      0.00000
     69      10.4941      0.00000
     70      10.8177      0.00000
     71      10.8829      0.00000
     72      11.3127      0.00000
     73      11.5169      0.00000
     74      12.3956      0.00000
     75      12.5669      0.00000
     76      12.6951      0.00000
     77      12.8868      0.00000
     78      13.2129      0.00000
     79      13.4022      0.00000
     80      13.8770      0.00000
     81      14.7347      0.00000
     82      14.8573      0.00000
     83      15.1325      0.00000
     84      15.2597      0.00000
     85      15.3644      0.00000
     86      15.6147      0.00000
     87      15.9943      0.00000
     88      16.1872      0.00000
     89      16.4047      0.00000
     90      16.7936      0.00000
     91      16.9436      0.00000
     92      17.4038      0.00000
     93      17.6537      0.00000
     94      17.7444      0.00000
     95      17.8675      0.00000
     96      18.0430      0.00000
     97      18.2560      0.00000
     98      18.4486      0.00000
     99      18.5259      0.00000
    100      18.7865      0.00000
    101      19.0407      0.00000
    102      19.1797      0.00000
    103      19.5060      0.00000
    104      19.6995      0.00000
    105      19.7452      0.00000
    106      20.0191      0.00000
    107      20.4305      0.00000
    108      21.2144      0.00000
    109      21.3695      0.00000
    110      21.4616      0.00000
    111      21.8538      0.00000
    112      22.0363      0.00000
    113      22.2810      0.00000
    114      22.4341      0.00000
    115      22.6483      0.00000
    116      22.6855      0.00000
    117      23.0719      0.00000
    118      23.2653      0.00000
    119      23.5890      0.00000
    120      24.0723      0.00000
    121      24.2477      0.00000
    122      24.3583      0.00000
    123      24.5876      0.00000
    124      24.8418      0.00000
    125      25.1679      0.00000
    126      25.2707      0.00000
    127      25.3159      0.00000
    128      25.5756      0.00000
    129      25.6531      0.00000
    130      26.0368      0.00000
    131      26.1998      0.00000
    132      26.4385      0.00000
    133      26.5105      0.00000
    134      26.7080      0.00000
    135      26.8889      0.00000
    136      27.0144      0.00000
    137      27.1928      0.00000
    138      27.3332      0.00000
    139      27.4461      0.00000
    140      27.6475      0.00000

 k-point    13 :       0.0000    0.0000    0.1429
  band No.  band energies     occupation 
      1     -25.4535      2.00000
      2     -25.4489      2.00000
      3     -25.4390      2.00000
      4     -25.4384      2.00000
      5     -25.4092      2.00000
      6     -25.4088      2.00000
      7     -25.3867      2.00000
      8     -25.3860      2.00000
      9     -25.3813      2.00000
     10     -25.3806      2.00000
     11     -12.8182      2.00000
     12     -11.6881      2.00000
     13     -11.3068      2.00000
     14     -11.1400      2.00000
     15     -10.8295      2.00000
     16     -10.8248      2.00000
     17      -6.3893      2.00000
     18      -5.6057      2.00000
     19      -2.8135      2.00000
     20      -2.4513      2.00000
     21      -2.1325      2.00000
     22      -2.0290      2.00000
     23      -1.7014      2.00000
     24      -1.4165      2.00000
     25      -1.4082      2.00000
     26      -1.0002      2.00000
     27      -0.7627      2.00000
     28      -0.6622      2.00000
     29      -0.6486      2.00000
     30      -0.6288      2.00000
     31      -0.6074      2.00000
     32      -0.5276      2.00000
     33      -0.4130      2.00000
     34      -0.4066      2.00000
     35       0.5308      2.00000
     36       0.5736      2.00000
     37       0.5914      2.00000
     38       0.6151      2.00000
     39       0.6444      2.00000
     40       0.6554      2.00000
     41       0.6837      2.00000
     42       0.7076      2.00000
     43       0.7920      2.00000
     44       0.9207      2.00000
     45       0.9876      2.00000
     46       1.1899      2.00000
     47       1.2222      2.00000
     48       1.8414      2.00000
     49       1.8976      2.00000
     50       2.3810      2.00000
     51       2.4831      2.00000
     52       2.9113      2.00000
     53       3.2461      2.00000
     54       3.2870      2.00000
     55       4.5440      0.00000
     56       5.0301      0.00000
     57       6.5980      0.00000
     58       6.6803      0.00000
     59       7.2829      0.00000
     60       7.6105      0.00000
     61       8.4266      0.00000
     62       8.5534      0.00000
     63       8.6565      0.00000
     64       9.3700      0.00000
     65       9.4422      0.00000
     66       9.7535      0.00000
     67       9.8006      0.00000
     68      10.3989      0.00000
     69      10.6312      0.00000
     70      10.8815      0.00000
     71      11.3681      0.00000
     72      11.7108      0.00000
     73      11.9619      0.00000
     74      12.2473      0.00000
     75      12.5868      0.00000
     76      12.8251      0.00000
     77      12.9747      0.00000
     78      13.0202      0.00000
     79      13.4125      0.00000
     80      13.5513      0.00000
     81      13.8834      0.00000
     82      13.9149      0.00000
     83      14.4380      0.00000
     84      14.6873      0.00000
     85      14.8480      0.00000
     86      15.0143      0.00000
     87      15.3832      0.00000
     88      15.5281      0.00000
     89      16.0863      0.00000
     90      16.1127      0.00000
     91      16.2887      0.00000
     92      16.6087      0.00000
     93      16.6951      0.00000
     94      17.4266      0.00000
     95      17.5772      0.00000
     96      18.3531      0.00000
     97      18.5461      0.00000
     98      18.8317      0.00000
     99      19.1199      0.00000
    100      19.3173      0.00000
    101      19.6610      0.00000
    102      19.7519      0.00000
    103      19.7941      0.00000
    104      20.1269      0.00000
    105      20.4023      0.00000
    106      20.4208      0.00000
    107      20.6917      0.00000
    108      21.3200      0.00000
    109      21.4823      0.00000
    110      21.7278      0.00000
    111      21.7338      0.00000
    112      21.9634      0.00000
    113      22.2339      0.00000
    114      22.4198      0.00000
    115      22.5171      0.00000
    116      22.6669      0.00000
    117      22.6844      0.00000
    118      23.2214      0.00000
    119      23.2370      0.00000
    120      23.9493      0.00000
    121      24.6212      0.00000
    122      24.6970      0.00000
    123      24.8449      0.00000
    124      25.0750      0.00000
    125      25.4837      0.00000
    126      25.6232      0.00000
    127      25.8010      0.00000
    128      25.8674      0.00000
    129      26.4006      0.00000
    130      26.4967      0.00000
    131      26.8752      0.00000
    132      26.9704      0.00000
    133      27.2753      0.00000
    134      27.2952      0.00000
    135      27.5275      0.00000
    136      27.6019      0.00000
    137      27.6797      0.00000
    138      27.7964      0.00000
    139      28.2003      0.00000
    140      28.2741      0.00000

 k-point    14 :       0.1429    0.0000    0.1429
  band No.  band energies     occupation 
      1     -25.4534      2.00000
      2     -25.4488      2.00000
      3     -25.4389      2.00000
      4     -25.4383      2.00000
      5     -25.4091      2.00000
      6     -25.4087      2.00000
      7     -25.3866      2.00000
      8     -25.3860      2.00000
      9     -25.3812      2.00000
     10     -25.3805      2.00000
     11     -12.7602      2.00000
     12     -11.7132      2.00000
     13     -11.3153      2.00000
     14     -11.1792      2.00000
     15     -10.8823      2.00000
     16     -10.8186      2.00000
     17      -6.3598      2.00000
     18      -5.5093      2.00000
     19      -2.7332      2.00000
     20      -2.3644      2.00000
     21      -2.1081      2.00000
     22      -1.9629      2.00000
     23      -1.7982      2.00000
     24      -1.4346      2.00000
     25      -1.2080      2.00000
     26      -1.0387      2.00000
     27      -0.8718      2.00000
     28      -0.7697      2.00000
     29      -0.6629      2.00000
     30      -0.6162      2.00000
     31      -0.5934      2.00000
     32      -0.5282      2.00000
     33      -0.4345      2.00000
     34      -0.3974      2.00000
     35       0.5211      2.00000
     36       0.5590      2.00000
     37       0.5706      2.00000
     38       0.6152      2.00000
     39       0.6201      2.00000
     40       0.6588      2.00000
     41       0.6931      2.00000
     42       0.6981      2.00000
     43       0.8056      2.00000
     44       0.9725      2.00000
     45       1.0812      2.00000
     46       1.1608      2.00000
     47       1.2385      2.00000
     48       1.6859      2.00000
     49       1.9744      2.00000
     50       2.1361      2.00000
     51       2.4059      2.00000
     52       2.4567      2.00000
     53       3.0851      2.00000
     54       3.1696      2.00000
     55       4.9124      0.00000
     56       5.3467      0.00000
     57       6.8769      0.00000
     58       7.0398      0.00000
     59       7.3964      0.00000
     60       7.9183      0.00000
     61       8.3278      0.00000
     62       8.5253      0.00000
     63       8.7011      0.00000
     64       9.2304      0.00000
     65       9.7438      0.00000
     66       9.8529      0.00000
     67      10.1085      0.00000
     68      10.2839      0.00000
     69      10.4215      0.00000
     70      10.7304      0.00000
     71      10.9939      0.00000
     72      11.2643      0.00000
     73      11.5029      0.00000
     74      11.8166      0.00000
     75      12.1943      0.00000
     76      12.3645      0.00000
     77      13.0549      0.00000
     78      13.1342      0.00000
     79      13.2613      0.00000
     80      13.6264      0.00000
     81      13.7908      0.00000
     82      14.2958      0.00000
     83      14.4863      0.00000
     84      14.7994      0.00000
     85      15.0797      0.00000
     86      15.2074      0.00000
     87      15.3872      0.00000
     88      15.8379      0.00000
     89      15.9355      0.00000
     90      16.1085      0.00000
     91      16.5725      0.00000
     92      16.9491      0.00000
     93      17.1932      0.00000
     94      17.5630      0.00000
     95      17.8394      0.00000
     96      18.2447      0.00000
     97      18.7441      0.00000
     98      18.9942      0.00000
     99      19.1535      0.00000
    100      19.3066      0.00000
    101      19.5662      0.00000
    102      19.8114      0.00000
    103      20.1401      0.00000
    104      20.2755      0.00000
    105      20.4459      0.00000
    106      20.5406      0.00000
    107      20.6528      0.00000
    108      20.8447      0.00000
    109      21.1611      0.00000
    110      21.2001      0.00000
    111      21.5573      0.00000
    112      21.9445      0.00000
    113      22.0838      0.00000
    114      22.2800      0.00000
    115      22.6384      0.00000
    116      22.8557      0.00000
    117      23.0891      0.00000
    118      23.3205      0.00000
    119      23.4953      0.00000
    120      23.6355      0.00000
    121      24.2289      0.00000
    122      24.5759      0.00000
    123      25.1064      0.00000
    124      25.2229      0.00000
    125      25.4110      0.00000
    126      25.5676      0.00000
    127      25.9340      0.00000
    128      26.1701      0.00000
    129      26.2876      0.00000
    130      26.4522      0.00000
    131      26.5319      0.00000
    132      26.8653      0.00000
    133      26.9588      0.00000
    134      27.1386      0.00000
    135      27.2552      0.00000
    136      27.4281      0.00000
    137      27.5233      0.00000
    138      27.6533      0.00000
    139      28.0367      0.00000
    140      28.2027      0.00000

 k-point    15 :       0.2857    0.0000    0.1429
  band No.  band energies     occupation 
      1     -25.4533      2.00000
      2     -25.4488      2.00000
      3     -25.4388      2.00000
      4     -25.4382      2.00000
      5     -25.4090      2.00000
      6     -25.4086      2.00000
      7     -25.3865      2.00000
      8     -25.3858      2.00000
      9     -25.3811      2.00000
     10     -25.3804      2.00000
     11     -12.6507      2.00000
     12     -11.7162      2.00000
     13     -11.3900      2.00000
     14     -11.2144      2.00000
     15     -10.9594      2.00000
     16     -10.8440      2.00000
     17      -6.3250      2.00000
     18      -5.3688      2.00000
     19      -2.6268      2.00000
     20      -2.3648      2.00000
     21      -2.1190      2.00000
     22      -1.8072      2.00000
     23      -1.5899      2.00000
     24      -1.4756      2.00000
     25      -1.1452      2.00000
     26      -1.0422      2.00000
     27      -0.9645      2.00000
     28      -0.8269      2.00000
     29      -0.7229      2.00000
     30      -0.6214      2.00000
     31      -0.5824      2.00000
     32      -0.5316      2.00000
     33      -0.4495      2.00000
     34      -0.3701      2.00000
     35       0.5001      2.00000
     36       0.5384      2.00000
     37       0.5676      2.00000
     38       0.6072      2.00000
     39       0.6235      2.00000
     40       0.6375      2.00000
     41       0.6899      2.00000
     42       0.7085      2.00000
     43       0.8310      2.00000
     44       1.1012      2.00000
     45       1.2037      2.00000
     46       1.2339      2.00000
     47       1.3739      2.00000
     48       1.4834      2.00000
     49       1.6508      2.00000
     50       1.9703      2.00000
     51       2.1705      2.00000
     52       2.2781      2.00000
     53       2.8433      2.00000
     54       2.9783      2.00000
     55       5.1693      0.00000
     56       5.7329      0.00000
     57       7.0053      0.00000
     58       7.1342      0.00000
     59       7.6684      0.00000
     60       7.8039      0.00000
     61       8.2201      0.00000
     62       8.4419      0.00000
     63       8.9592      0.00000
     64       9.2528      0.00000
     65       9.5597      0.00000
     66       9.9453      0.00000
     67      10.1087      0.00000
     68      10.2931      0.00000
     69      10.4272      0.00000
     70      10.5684      0.00000
     71      10.9351      0.00000
     72      11.0876      0.00000
     73      11.2929      0.00000
     74      11.5509      0.00000
     75      11.8472      0.00000
     76      12.1098      0.00000
     77      12.4905      0.00000
     78      12.9498      0.00000
     79      13.3511      0.00000
     80      13.7272      0.00000
     81      13.8718      0.00000
     82      14.2004      0.00000
     83      14.5765      0.00000
     84      14.9820      0.00000
     85      15.7283      0.00000
     86      15.8451      0.00000
     87      15.9116      0.00000
     88      16.2601      0.00000
     89      16.5114      0.00000
     90      16.8654      0.00000
     91      17.2544      0.00000
     92      17.2913      0.00000
     93      17.4310      0.00000
     94      17.6314      0.00000
     95      17.9258      0.00000
     96      18.2461      0.00000
     97      18.4211      0.00000
     98      18.4730      0.00000
     99      18.6668      0.00000
    100      19.0083      0.00000
    101      19.1830      0.00000
    102      19.3671      0.00000
    103      19.6040      0.00000
    104      19.7908      0.00000
    105      19.9218      0.00000
    106      20.5294      0.00000
    107      20.7034      0.00000
    108      20.8989      0.00000
    109      21.4301      0.00000
    110      21.6425      0.00000
    111      21.8297      0.00000
    112      22.0023      0.00000
    113      22.4941      0.00000
    114      22.8234      0.00000
    115      22.9284      0.00000
    116      23.1738      0.00000
    117      23.4604      0.00000
    118      23.6062      0.00000
    119      23.7584      0.00000
    120      23.8773      0.00000
    121      24.0703      0.00000
    122      24.3624      0.00000
    123      24.5310      0.00000
    124      24.9294      0.00000
    125      25.0786      0.00000
    126      25.3226      0.00000
    127      25.6051      0.00000
    128      25.7237      0.00000
    129      25.9473      0.00000
    130      26.0301      0.00000
    131      26.1282      0.00000
    132      26.2940      0.00000
    133      26.4677      0.00000
    134      26.7075      0.00000
    135      26.9412      0.00000
    136      27.0029      0.00000
    137      27.2049      0.00000
    138      27.3856      0.00000
    139      27.7763      0.00000
    140      27.9789      0.00000

 k-point    16 :       0.4286    0.0000    0.1429
  band No.  band energies     occupation 
      1     -25.4533      2.00000
      2     -25.4488      2.00000
      3     -25.4388      2.00000
      4     -25.4382      2.00000
      5     -25.4089      2.00000
      6     -25.4085      2.00000
      7     -25.3865      2.00000
      8     -25.3858      2.00000
      9     -25.3810      2.00000
     10     -25.3803      2.00000
     11     -12.5667      2.00000
     12     -11.7142      2.00000
     13     -11.4423      2.00000
     14     -11.2204      2.00000
     15     -11.0097      2.00000
     16     -10.8936      2.00000
     17      -6.3076      2.00000
     18      -5.2887      2.00000
     19      -2.6018      2.00000
     20      -2.3518      2.00000
     21      -2.0670      2.00000
     22      -1.8072      2.00000
     23      -1.5036      2.00000
     24      -1.3802      2.00000
     25      -1.2240      2.00000
     26      -1.1082      2.00000
     27      -0.9270      2.00000
     28      -0.7950      2.00000
     29      -0.7040      2.00000
     30      -0.6123      2.00000
     31      -0.5556      2.00000
     32      -0.5314      2.00000
     33      -0.4327      2.00000
     34      -0.3645      2.00000
     35       0.4921      2.00000
     36       0.5278      2.00000
     37       0.5410      2.00000
     38       0.6191      2.00000
     39       0.6428      2.00000
     40       0.6474      2.00000
     41       0.6799      2.00000
     42       0.7441      2.00000
     43       0.8697      2.00000
     44       1.0359      2.00000
     45       1.1603      2.00000
     46       1.2463      2.00000
     47       1.4006      2.00000
     48       1.5724      2.00000
     49       1.6310      2.00000
     50       1.8643      2.00000
     51       2.1176      2.00000
     52       2.1929      2.00000
     53       2.6169      2.00000
     54       3.0685      2.00000
     55       5.1691      0.00000
     56       5.7372      0.00000
     57       6.6719      0.00000
     58       7.0041      0.00000
     59       7.4551      0.00000
     60       7.7395      0.00000
     61       8.2573      0.00000
     62       8.5544      0.00000
     63       8.9381      0.00000
     64       9.2715      0.00000
     65       9.4200      0.00000
     66       9.7843      0.00000
     67      10.0373      0.00000
     68      10.2522      0.00000
     69      10.3516      0.00000
     70      10.6768      0.00000
     71      10.7969      0.00000
     72      11.2080      0.00000
     73      11.6711      0.00000
     74      11.9185      0.00000
     75      12.0665      0.00000
     76      12.3297      0.00000
     77      12.6633      0.00000
     78      12.9573      0.00000
     79      13.0758      0.00000
     80      13.4427      0.00000
     81      14.1034      0.00000
     82      14.5314      0.00000
     83      14.9006      0.00000
     84      15.0440      0.00000
     85      15.2911      0.00000
     86      15.8494      0.00000
     87      16.0661      0.00000
     88      16.4325      0.00000
     89      16.5833      0.00000
     90      16.9131      0.00000
     91      17.2009      0.00000
     92      17.3135      0.00000
     93      17.5378      0.00000
     94      17.7499      0.00000
     95      17.9021      0.00000
     96      18.1490      0.00000
     97      18.2579      0.00000
     98      18.6460      0.00000
     99      18.7764      0.00000
    100      19.0334      0.00000
    101      19.1999      0.00000
    102      19.4163      0.00000
    103      19.8237      0.00000
    104      20.0639      0.00000
    105      20.2637      0.00000
    106      20.3437      0.00000
    107      20.5570      0.00000
    108      21.1647      0.00000
    109      21.2746      0.00000
    110      21.5580      0.00000
    111      21.6416      0.00000
    112      22.1791      0.00000
    113      22.4134      0.00000
    114      22.8098      0.00000
    115      23.0265      0.00000
    116      23.1553      0.00000
    117      23.3898      0.00000
    118      23.5851      0.00000
    119      23.6630      0.00000
    120      23.8920      0.00000
    121      24.0147      0.00000
    122      24.2646      0.00000
    123      24.5054      0.00000
    124      24.7185      0.00000
    125      24.8533      0.00000
    126      25.0157      0.00000
    127      25.2786      0.00000
    128      25.4962      0.00000
    129      25.5608      0.00000
    130      25.7199      0.00000
    131      25.8996      0.00000
    132      26.0822      0.00000
    133      26.3489      0.00000
    134      26.5443      0.00000
    135      26.6742      0.00000
    136      26.7340      0.00000
    137      27.0391      0.00000
    138      27.2968      0.00000
    139      27.5238      0.00000
    140      27.6056      0.00000

 k-point    17 :      -0.4286    0.0000    0.1429
  band No.  band energies     occupation 
      1     -25.4534      2.00000
      2     -25.4488      2.00000
      3     -25.4389      2.00000
      4     -25.4383      2.00000
      5     -25.4090      2.00000
      6     -25.4086      2.00000
      7     -25.3865      2.00000
      8     -25.3859      2.00000
      9     -25.3811      2.00000
     10     -25.3804      2.00000
     11     -12.5984      2.00000
     12     -11.6706      2.00000
     13     -11.4264      2.00000
     14     -11.2047      2.00000
     15     -11.0118      2.00000
     16     -10.9198      2.00000
     17      -6.3250      2.00000
     18      -5.3371      2.00000
     19      -2.6930      2.00000
     20      -2.4014      2.00000
     21      -2.2117      2.00000
     22      -1.6046      2.00000
     23      -1.5407      2.00000
     24      -1.3440      2.00000
     25      -1.1388      2.00000
     26      -1.0159      2.00000
     27      -0.8826      2.00000
     28      -0.8064      2.00000
     29      -0.6871      2.00000
     30      -0.6046      2.00000
     31      -0.5583      2.00000
     32      -0.5306      2.00000
     33      -0.4388      2.00000
     34      -0.3859      2.00000
     35       0.4714      2.00000
     36       0.4939      2.00000
     37       0.5549      2.00000
     38       0.6144      2.00000
     39       0.6269      2.00000
     40       0.6501      2.00000
     41       0.6703      2.00000
     42       0.7327      2.00000
     43       0.9431      2.00000
     44       1.0844      2.00000
     45       1.1801      2.00000
     46       1.2236      2.00000
     47       1.4228      2.00000
     48       1.5663      2.00000
     49       1.7222      2.00000
     50       1.7627      2.00000
     51       2.1465      2.00000
     52       2.2650      2.00000
     53       2.5618      2.00000
     54       3.2580      2.00000
     55       5.0692      0.00000
     56       5.6414      0.00000
     57       6.5692      0.00000
     58       6.9050      0.00000
     59       7.3580      0.00000
     60       7.5997      0.00000
     61       8.1003      0.00000
     62       8.3690      0.00000
     63       8.7421      0.00000
     64       9.0954      0.00000
     65       9.4911      0.00000
     66       9.7074      0.00000
     67       9.9373      0.00000
     68      10.1538      0.00000
     69      10.3477      0.00000
     70      10.6468      0.00000
     71      11.1443      0.00000
     72      11.3408      0.00000
     73      11.5260      0.00000
     74      12.1819      0.00000
     75      12.4209      0.00000
     76      12.6392      0.00000
     77      13.0564      0.00000
     78      13.2144      0.00000
     79      13.3782      0.00000
     80      13.8805      0.00000
     81      14.0709      0.00000
     82      14.3139      0.00000
     83      14.7020      0.00000
     84      15.1929      0.00000
     85      15.3299      0.00000
     86      15.7845      0.00000
     87      16.0867      0.00000
     88      16.3674      0.00000
     89      16.5745      0.00000
     90      16.7740      0.00000
     91      16.9398      0.00000
     92      17.1557      0.00000
     93      17.3231      0.00000
     94      17.5795      0.00000
     95      17.7185      0.00000
     96      18.0966      0.00000
     97      18.4177      0.00000
     98      18.7050      0.00000
     99      18.7778      0.00000
    100      19.0191      0.00000
    101      19.1390      0.00000
    102      19.2945      0.00000
    103      19.5864      0.00000
    104      19.9723      0.00000
    105      20.3444      0.00000
    106      20.5515      0.00000
    107      20.8387      0.00000
    108      21.2340      0.00000
    109      21.3113      0.00000
    110      21.6306      0.00000
    111      21.7117      0.00000
    112      21.8788      0.00000
    113      22.1097      0.00000
    114      22.4461      0.00000
    115      22.7206      0.00000
    116      23.0360      0.00000
    117      23.1949      0.00000
    118      23.2767      0.00000
    119      23.7321      0.00000
    120      23.7960      0.00000
    121      23.9810      0.00000
    122      24.0271      0.00000
    123      24.2992      0.00000
    124      24.4708      0.00000
    125      24.8988      0.00000
    126      25.0468      0.00000
    127      25.3271      0.00000
    128      25.6301      0.00000
    129      25.7724      0.00000
    130      25.9278      0.00000
    131      26.1610      0.00000
    132      26.3144      0.00000
    133      26.4608      0.00000
    134      26.8023      0.00000
    135      26.9396      0.00000
    136      27.2647      0.00000
    137      27.4057      0.00000
    138      27.5565      0.00000
    139      27.8039      0.00000
    140      27.8910      0.00000

 k-point    18 :      -0.2857    0.0000    0.1429
  band No.  band energies     occupation 
      1     -25.4535      2.00000
      2     -25.4489      2.00000
      3     -25.4389      2.00000
      4     -25.4384      2.00000
      5     -25.4091      2.00000
      6     -25.4087      2.00000
      7     -25.3866      2.00000
      8     -25.3860      2.00000
      9     -25.3812      2.00000
     10     -25.3805      2.00000
     11     -12.7078      2.00000
     12     -11.6195      2.00000
     13     -11.4005      2.00000
     14     -11.1649      2.00000
     15     -10.9656      2.00000
     16     -10.8807      2.00000
     17      -6.3654      2.00000
     18      -5.4753      2.00000
     19      -2.7880      2.00000
     20      -2.5442      2.00000
     21      -2.2501      2.00000
     22      -1.7513      2.00000
     23      -1.4145      2.00000
     24      -1.2625      2.00000
     25      -1.0593      2.00000
     26      -1.0081      2.00000
     27      -0.8690      2.00000
     28      -0.7584      2.00000
     29      -0.6605      2.00000
     30      -0.6422      2.00000
     31      -0.6037      2.00000
     32      -0.5394      2.00000
     33      -0.4459      2.00000
     34      -0.4039      2.00000
     35       0.4925      2.00000
     36       0.5085      2.00000
     37       0.5725      2.00000
     38       0.5974      2.00000
     39       0.6147      2.00000
     40       0.6264      2.00000
     41       0.6480      2.00000
     42       0.7180      2.00000
     43       0.9106      2.00000
     44       1.1097      2.00000
     45       1.1638      2.00000
     46       1.3047      2.00000
     47       1.4379      2.00000
     48       1.6063      2.00000
     49       1.7619      2.00000
     50       1.9495      2.00000
     51       2.0747      2.00000
     52       2.4060      2.00000
     53       2.8479      2.00000
     54       3.3439      2.00000
     55       4.9028      0.00000
     56       5.4875      0.00000
     57       6.7012      0.00000
     58       6.8690      0.00000
     59       7.1810      0.00000
     60       7.5859      0.00000
     61       8.0807      0.00000
     62       8.2778      0.00000
     63       8.6635      0.00000
     64       9.0713      0.00000
     65       9.3889      0.00000
     66       9.6580      0.00000
     67       9.8439      0.00000
     68       9.9652      0.00000
     69      10.4748      0.00000
     70      10.8139      0.00000
     71      11.2024      0.00000
     72      11.5373      0.00000
     73      11.6788      0.00000
     74      11.8720      0.00000
     75      12.3337      0.00000
     76      12.7323      0.00000
     77      12.9755      0.00000
     78      13.5710      0.00000
     79      13.7997      0.00000
     80      14.0547      0.00000
     81      14.3766      0.00000
     82      14.6644      0.00000
     83      14.7729      0.00000
     84      15.1199      0.00000
     85      15.3687      0.00000
     86      15.4512      0.00000
     87      15.8065      0.00000
     88      16.0687      0.00000
     89      16.5587      0.00000
     90      16.7159      0.00000
     91      17.0079      0.00000
     92      17.1955      0.00000
     93      17.3463      0.00000
     94      17.4954      0.00000
     95      17.6867      0.00000
     96      17.8893      0.00000
     97      18.1545      0.00000
     98      18.2334      0.00000
     99      18.5553      0.00000
    100      18.8220      0.00000
    101      19.0851      0.00000
    102      19.3239      0.00000
    103      19.3521      0.00000
    104      19.5696      0.00000
    105      19.8771      0.00000
    106      20.2576      0.00000
    107      20.5334      0.00000
    108      20.7322      0.00000
    109      20.9453      0.00000
    110      21.5850      0.00000
    111      21.8461      0.00000
    112      22.0189      0.00000
    113      22.1816      0.00000
    114      22.2617      0.00000
    115      22.7083      0.00000
    116      23.0051      0.00000
    117      23.2761      0.00000
    118      23.6019      0.00000
    119      23.7155      0.00000
    120      23.9729      0.00000
    121      24.4933      0.00000
    122      24.6250      0.00000
    123      24.8502      0.00000
    124      25.0932      0.00000
    125      25.4555      0.00000
    126      25.5736      0.00000
    127      25.8110      0.00000
    128      25.8961      0.00000
    129      26.0905      0.00000
    130      26.3301      0.00000
    131      26.4256      0.00000
    132      26.6534      0.00000
    133      26.7372      0.00000
    134      26.9306      0.00000
    135      27.0849      0.00000
    136      27.2511      0.00000
    137      27.3562      0.00000
    138      27.5001      0.00000
    139      27.8094      0.00000
    140      28.0931      0.00000

 k-point    19 :      -0.1429    0.0000    0.1429
  band No.  band energies     occupation 
      1     -25.4536      2.00000
      2     -25.4490      2.00000
      3     -25.4390      2.00000
      4     -25.4384      2.00000
      5     -25.4092      2.00000
      6     -25.4088      2.00000
      7     -25.3867      2.00000
      8     -25.3861      2.00000
      9     -25.3813      2.00000
     10     -25.3806      2.00000
     11     -12.7977      2.00000
     12     -11.6405      2.00000
     13     -11.3545      2.00000
     14     -11.1320      2.00000
     15     -10.8844      2.00000
     16     -10.8292      2.00000
     17      -6.3938      2.00000
     18      -5.5927      2.00000
     19      -2.8394      2.00000
     20      -2.5404      2.00000
     21      -2.1915      2.00000
     22      -1.9553      2.00000
     23      -1.5980      2.00000
     24      -1.3055      2.00000
     25      -1.2003      2.00000
     26      -0.9990      2.00000
     27      -0.7770      2.00000
     28      -0.7122      2.00000
     29      -0.6514      2.00000
     30      -0.6194      2.00000
     31      -0.5958      2.00000
     32      -0.5374      2.00000
     33      -0.4320      2.00000
     34      -0.4096      2.00000
     35       0.5384      2.00000
     36       0.5534      2.00000
     37       0.5770      2.00000
     38       0.5974      2.00000
     39       0.6230      2.00000
     40       0.6293      2.00000
     41       0.6702      2.00000
     42       0.7097      2.00000
     43       0.8174      2.00000
     44       1.0004      2.00000
     45       1.0485      2.00000
     46       1.2535      2.00000
     47       1.3662      2.00000
     48       1.7063      2.00000
     49       1.9401      2.00000
     50       2.2117      2.00000
     51       2.3347      2.00000
     52       2.7317      2.00000
     53       3.1779      2.00000
     54       3.2652      2.00000
     55       4.6721      0.00000
     56       5.2033      0.00000
     57       6.4839      0.00000
     58       6.7161      0.00000
     59       7.2843      0.00000
     60       7.4612      0.00000
     61       8.2745      0.00000
     62       8.4894      0.00000
     63       8.6566      0.00000
     64       9.2489      0.00000
     65       9.3179      0.00000
     66       9.5996      0.00000
     67       9.7689      0.00000
     68      10.2807      0.00000
     69      10.5164      0.00000
     70      10.9593      0.00000
     71      11.4077      0.00000
     72      11.5387      0.00000
     73      12.0224      0.00000
     74      12.0748      0.00000
     75      12.5178      0.00000
     76      12.6289      0.00000
     77      12.7464      0.00000
     78      13.3351      0.00000
     79      13.8282      0.00000
     80      14.1074      0.00000
     81      14.2268      0.00000
     82      14.3635      0.00000
     83      14.5343      0.00000
     84      14.9360      0.00000
     85      15.1619      0.00000
     86      15.2378      0.00000
     87      15.3564      0.00000
     88      15.7816      0.00000
     89      16.0762      0.00000
     90      16.5228      0.00000
     91      16.7812      0.00000
     92      16.9017      0.00000
     93      17.3354      0.00000
     94      17.3979      0.00000
     95      17.6194      0.00000
     96      17.7277      0.00000
     97      18.1457      0.00000
     98      18.3010      0.00000
     99      18.6730      0.00000
    100      18.8002      0.00000
    101      19.1904      0.00000
    102      19.3253      0.00000
    103      19.5467      0.00000
    104      19.9195      0.00000
    105      20.0851      0.00000
    106      20.3485      0.00000
    107      20.6613      0.00000
    108      20.8302      0.00000
    109      20.9604      0.00000
    110      21.3029      0.00000
    111      21.6224      0.00000
    112      22.0727      0.00000
    113      22.5040      0.00000
    114      22.5521      0.00000
    115      23.0542      0.00000
    116      23.1618      0.00000
    117      23.3952      0.00000
    118      23.6223      0.00000
    119      23.7455      0.00000
    120      24.0916      0.00000
    121      24.3314      0.00000
    122      24.5713      0.00000
    123      24.9536      0.00000
    124      25.2209      0.00000
    125      25.4031      0.00000
    126      25.7290      0.00000
    127      25.8377      0.00000
    128      25.9223      0.00000
    129      26.2063      0.00000
    130      26.2626      0.00000
    131      26.5184      0.00000
    132      26.6826      0.00000
    133      27.0973      0.00000
    134      27.2398      0.00000
    135      27.3045      0.00000
    136      27.6275      0.00000
    137      27.7096      0.00000
    138      27.9770      0.00000
    139      28.0649      0.00000
    140      28.2504      0.00000

 k-point    20 :       0.0000    0.2500    0.1429
  band No.  band energies     occupation 
      1     -25.4535      2.00000
      2     -25.4489      2.00000
      3     -25.4390      2.00000
      4     -25.4384      2.00000
      5     -25.4091      2.00000
      6     -25.4088      2.00000
      7     -25.3866      2.00000
      8     -25.3860      2.00000
      9     -25.3812      2.00000
     10     -25.3805      2.00000
     11     -12.7349      2.00000
     12     -11.6178      2.00000
     13     -11.3922      2.00000
     14     -11.1534      2.00000
     15     -10.9467      2.00000
     16     -10.8660      2.00000
     17      -6.3750      2.00000
     18      -5.5110      2.00000
     19      -2.8061      2.00000
     20      -2.5602      2.00000
     21      -2.2390      2.00000
     22      -1.8085      2.00000
     23      -1.4574      2.00000
     24      -1.2361      2.00000
     25      -1.0756      2.00000
     26      -1.0016      2.00000
     27      -0.8556      2.00000
     28      -0.7517      2.00000
     29      -0.6541      2.00000
     30      -0.6345      2.00000
     31      -0.6080      2.00000
     32      -0.5413      2.00000
     33      -0.4462      2.00000
     34      -0.4062      2.00000
     35       0.5071      2.00000
     36       0.5176      2.00000
     37       0.5733      2.00000
     38       0.5935      2.00000
     39       0.6130      2.00000
     40       0.6252      2.00000
     41       0.6518      2.00000
     42       0.7182      2.00000
     43       0.8767      2.00000
     44       1.0835      2.00000
     45       1.1562      2.00000
     46       1.2866      2.00000
     47       1.4418      2.00000
     48       1.6934      2.00000
     49       1.7379      2.00000
     50       2.0003      2.00000
     51       2.1365      2.00000
     52       2.4581      2.00000
     53       2.9417      2.00000
     54       3.3389      2.00000
     55       4.8509      0.00000
     56       5.4230      0.00000
     57       6.6408      0.00000
     58       6.8625      0.00000
     59       7.2133      0.00000
     60       7.5264      0.00000
     61       8.1490      0.00000
     62       8.2943      0.00000
     63       8.6769      0.00000
     64       9.0886      0.00000
     65       9.3640      0.00000
     66       9.6809      0.00000
     67       9.7888      0.00000
     68       9.9820      0.00000
     69      10.4712      0.00000
     70      10.8561      0.00000
     71      11.2259      0.00000
     72      11.6292      0.00000
     73      11.7175      0.00000
     74      11.8595      0.00000
     75      12.3399      0.00000
     76      12.7656      0.00000
     77      12.8702      0.00000
     78      13.6411      0.00000
     79      13.7518      0.00000
     80      14.0866      0.00000
     81      14.3970      0.00000
     82      14.6732      0.00000
     83      14.8262      0.00000
     84      15.0582      0.00000
     85      15.2755      0.00000
     86      15.4582      0.00000
     87      15.6889      0.00000
     88      15.9798      0.00000
     89      16.4342      0.00000
     90      16.6734      0.00000
     91      16.9448      0.00000
     92      17.1910      0.00000
     93      17.3379      0.00000
     94      17.4732      0.00000
     95      17.6879      0.00000
     96      17.9773      0.00000
     97      18.1673      0.00000
     98      18.2074      0.00000
     99      18.5273      0.00000
    100      18.6994      0.00000
    101      19.1411      0.00000
    102      19.2528      0.00000
    103      19.3952      0.00000
    104      19.4852      0.00000
    105      19.7466      0.00000
    106      20.2424      0.00000
    107      20.3194      0.00000
    108      20.8458      0.00000
    109      21.0846      0.00000
    110      21.4614      0.00000
    111      21.8298      0.00000
    112      22.0078      0.00000
    113      22.1753      0.00000
    114      22.3879      0.00000
    115      22.6891      0.00000
    116      23.0418      0.00000
    117      23.3188      0.00000
    118      23.8243      0.00000
    119      24.0130      0.00000
    120      24.0694      0.00000
    121      24.3738      0.00000
    122      24.7169      0.00000
    123      24.7665      0.00000
    124      25.0111      0.00000
    125      25.5644      0.00000
    126      25.6442      0.00000
    127      25.8029      0.00000
    128      25.9245      0.00000
    129      26.1879      0.00000
    130      26.4195      0.00000
    131      26.5525      0.00000
    132      26.6771      0.00000
    133      26.7900      0.00000
    134      26.9245      0.00000
    135      27.1627      0.00000
    136      27.3627      0.00000
    137      27.4855      0.00000
    138      27.6387      0.00000
    139      27.9353      0.00000
    140      28.1144      0.00000

 k-point    21 :       0.1429    0.2500    0.1429
  band No.  band energies     occupation 
      1     -25.4535      2.00000
      2     -25.4489      2.00000
      3     -25.4389      2.00000
      4     -25.4384      2.00000
      5     -25.4092      2.00000
      6     -25.4088      2.00000
      7     -25.3867      2.00000
      8     -25.3860      2.00000
      9     -25.3813      2.00000
     10     -25.3806      2.00000
     11     -12.7473      2.00000
     12     -11.6645      2.00000
     13     -11.4233      2.00000
     14     -11.1079      2.00000
     15     -10.9250      2.00000
     16     -10.8048      2.00000
     17      -6.3957      2.00000
     18      -5.5568      2.00000
     19      -2.7951      2.00000
     20      -2.5603      2.00000
     21      -2.0836      2.00000
     22      -1.9359      2.00000
     23      -1.6112      2.00000
     24      -1.3673      2.00000
     25      -1.1010      2.00000
     26      -0.9986      2.00000
     27      -0.8303      2.00000
     28      -0.7381      2.00000
     29      -0.6394      2.00000
     30      -0.6089      2.00000
     31      -0.5893      2.00000
     32      -0.5005      2.00000
     33      -0.4279      2.00000
     34      -0.3778      2.00000
     35       0.4949      2.00000
     36       0.5413      2.00000
     37       0.5497      2.00000
     38       0.6062      2.00000
     39       0.6259      2.00000
     40       0.6440      2.00000
     41       0.6655      2.00000
     42       0.7150      2.00000
     43       0.8802      2.00000
     44       0.9952      2.00000
     45       1.1473      2.00000
     46       1.2491      2.00000
     47       1.4907      2.00000
     48       1.6744      2.00000
     49       1.8266      2.00000
     50       2.0249      2.00000
     51       2.2052      2.00000
     52       2.5352      2.00000
     53       3.1767      2.00000
     54       3.2774      2.00000
     55       4.7056      0.00000
     56       5.3216      0.00000
     57       6.4858      0.00000
     58       6.8636      0.00000
     59       7.3313      0.00000
     60       7.5559      0.00000
     61       8.0808      0.00000
     62       8.4253      0.00000
     63       8.6390      0.00000
     64       9.2032      0.00000
     65       9.3601      0.00000
     66       9.4852      0.00000
     67       9.9109      0.00000
     68      10.0905      0.00000
     69      10.3062      0.00000
     70      10.8174      0.00000
     71      11.4688      0.00000
     72      11.7047      0.00000
     73      11.9404      0.00000
     74      12.0160      0.00000
     75      12.2048      0.00000
     76      12.4509      0.00000
     77      12.7986      0.00000
     78      13.3423      0.00000
     79      13.8902      0.00000
     80      14.1011      0.00000
     81      14.4142      0.00000
     82      14.6488      0.00000
     83      14.7842      0.00000
     84      15.0055      0.00000
     85      15.2158      0.00000
     86      15.4837      0.00000
     87      15.6766      0.00000
     88      16.0898      0.00000
     89      16.2876      0.00000
     90      16.4413      0.00000
     91      16.8708      0.00000
     92      16.9752      0.00000
     93      17.3384      0.00000
     94      17.5896      0.00000
     95      17.7736      0.00000
     96      18.0158      0.00000
     97      18.1304      0.00000
     98      18.3651      0.00000
     99      18.5677      0.00000
    100      18.7355      0.00000
    101      18.9537      0.00000
    102      19.1352      0.00000
    103      19.3088      0.00000
    104      19.4100      0.00000
    105      19.9308      0.00000
    106      20.0292      0.00000
    107      20.5083      0.00000
    108      21.1200      0.00000
    109      21.3272      0.00000
    110      21.5507      0.00000
    111      21.8373      0.00000
    112      22.2177      0.00000
    113      22.4067      0.00000
    114      22.6339      0.00000
    115      22.9461      0.00000
    116      23.1641      0.00000
    117      23.2806      0.00000
    118      23.7725      0.00000
    119      23.9086      0.00000
    120      24.1022      0.00000
    121      24.2255      0.00000
    122      24.4567      0.00000
    123      24.6374      0.00000
    124      24.8011      0.00000
    125      24.8805      0.00000
    126      25.1958      0.00000
    127      25.3591      0.00000
    128      25.7091      0.00000
    129      25.9879      0.00000
    130      26.0884      0.00000
    131      26.5513      0.00000
    132      26.9442      0.00000
    133      27.0835      0.00000
    134      27.2353      0.00000
    135      27.5401      0.00000
    136      27.6231      0.00000
    137      27.7410      0.00000
    138      27.8721      0.00000
    139      27.9652      0.00000
    140      28.1983      0.00000

 k-point    22 :       0.2857    0.2500    0.1429
  band No.  band energies     occupation 
      1     -25.4534      2.00000
      2     -25.4489      2.00000
      3     -25.4389      2.00000
      4     -25.4383      2.00000
      5     -25.4091      2.00000
      6     -25.4088      2.00000
      7     -25.3867      2.00000
      8     -25.3860      2.00000
      9     -25.3813      2.00000
     10     -25.3805      2.00000
     11     -12.6907      2.00000
     12     -11.7125      2.00000
     13     -11.4503      2.00000
     14     -11.1246      2.00000
     15     -10.9455      2.00000
     16     -10.7881      2.00000
     17      -6.3893      2.00000
     18      -5.4924      2.00000
     19      -2.7094      2.00000
     20      -2.5105      2.00000
     21      -2.1191      2.00000
     22      -1.7554      2.00000
     23      -1.7009      2.00000
     24      -1.3691      2.00000
     25      -1.1178      2.00000
     26      -1.0204      2.00000
     27      -0.8681      2.00000
     28      -0.7848      2.00000
     29      -0.6473      2.00000
     30      -0.5921      2.00000
     31      -0.5846      2.00000
     32      -0.4826      2.00000
     33      -0.4420      2.00000
     34      -0.3409      2.00000
     35       0.4882      2.00000
     36       0.5172      2.00000
     37       0.5508      2.00000
     38       0.6122      2.00000
     39       0.6203      2.00000
     40       0.6412      2.00000
     41       0.6623      2.00000
     42       0.7056      2.00000
     43       0.9031      2.00000
     44       1.0298      2.00000
     45       1.1508      2.00000
     46       1.2764      2.00000
     47       1.4631      2.00000
     48       1.5814      2.00000
     49       1.6865      2.00000
     50       2.0226      2.00000
     51       2.2391      2.00000
     52       2.4632      2.00000
     53       2.9216      2.00000
     54       3.0864      2.00000
     55       4.9457      0.00000
     56       5.5356      0.00000
     57       6.5809      0.00000
     58       6.9843      0.00000
     59       7.2867      0.00000
     60       7.7462      0.00000
     61       8.1327      0.00000
     62       8.3335      0.00000
     63       8.7726      0.00000
     64       9.1723      0.00000
     65       9.3181      0.00000
     66       9.6723      0.00000
     67       9.8900      0.00000
     68      10.1594      0.00000
     69      10.3751      0.00000
     70      10.7558      0.00000
     71      10.9126      0.00000
     72      11.3294      0.00000
     73      11.7970      0.00000
     74      12.1172      0.00000
     75      12.3253      0.00000
     76      12.5139      0.00000
     77      12.9655      0.00000
     78      13.1385      0.00000
     79      13.5566      0.00000
     80      13.8384      0.00000
     81      14.3348      0.00000
     82      14.5563      0.00000
     83      14.9444      0.00000
     84      15.1288      0.00000
     85      15.2800      0.00000
     86      15.6034      0.00000
     87      15.8591      0.00000
     88      16.0697      0.00000
     89      16.4676      0.00000
     90      16.7098      0.00000
     91      16.9704      0.00000
     92      17.1071      0.00000
     93      17.4670      0.00000
     94      17.6647      0.00000
     95      17.8108      0.00000
     96      17.9241      0.00000
     97      18.2556      0.00000
     98      18.5150      0.00000
     99      18.5548      0.00000
    100      18.7151      0.00000
    101      18.8866      0.00000
    102      19.1502      0.00000
    103      19.3952      0.00000
    104      19.7476      0.00000
    105      19.9527      0.00000
    106      20.4105      0.00000
    107      20.6309      0.00000
    108      20.9962      0.00000
    109      21.3078      0.00000
    110      21.4194      0.00000
    111      21.9310      0.00000
    112      22.1818      0.00000
    113      22.3516      0.00000
    114      22.5552      0.00000
    115      22.7759      0.00000
    116      22.8980      0.00000
    117      23.1153      0.00000
    118      23.3843      0.00000
    119      23.4660      0.00000
    120      23.6233      0.00000
    121      24.1823      0.00000
    122      24.3253      0.00000
    123      24.5745      0.00000
    124      24.7092      0.00000
    125      25.4002      0.00000
    126      25.5715      0.00000
    127      25.7866      0.00000
    128      25.9740      0.00000
    129      26.0575      0.00000
    130      26.2474      0.00000
    131      26.3474      0.00000
    132      26.5936      0.00000
    133      26.9094      0.00000
    134      26.9628      0.00000
    135      27.1130      0.00000
    136      27.3442      0.00000
    137      27.5163      0.00000
    138      27.7802      0.00000
    139      28.0552      0.00000
    140      28.1212      0.00000

 k-point    23 :       0.4286    0.2500    0.1429
  band No.  band energies     occupation 
      1     -25.4534      2.00000
      2     -25.4488      2.00000
      3     -25.4389      2.00000
      4     -25.4383      2.00000
      5     -25.4091      2.00000
      6     -25.4087      2.00000
      7     -25.3866      2.00000
      8     -25.3860      2.00000
      9     -25.3812      2.00000
     10     -25.3805      2.00000
     11     -12.5952      2.00000
     12     -11.7374      2.00000
     13     -11.4544      2.00000
     14     -11.2093      2.00000
     15     -10.9897      2.00000
     16     -10.8132      2.00000
     17      -6.3566      2.00000
     18      -5.3490      2.00000
     19      -2.5746      2.00000
     20      -2.4482      2.00000
     21      -2.1621      2.00000
     22      -1.7589      2.00000
     23      -1.5043      2.00000
     24      -1.3768      2.00000
     25      -1.2720      2.00000
     26      -1.0568      2.00000
     27      -0.9484      2.00000
     28      -0.7281      2.00000
     29      -0.6744      2.00000
     30      -0.5769      2.00000
     31      -0.5454      2.00000
     32      -0.5258      2.00000
     33      -0.4171      2.00000
     34      -0.3347      2.00000
     35       0.4748      2.00000
     36       0.5306      2.00000
     37       0.5685      2.00000
     38       0.5927      2.00000
     39       0.6285      2.00000
     40       0.6523      2.00000
     41       0.6602      2.00000
     42       0.7120      2.00000
     43       0.9089      2.00000
     44       1.0381      2.00000
     45       1.1348      2.00000
     46       1.2146      2.00000
     47       1.3596      2.00000
     48       1.4690      2.00000
     49       1.7903      2.00000
     50       2.0409      2.00000
     51       2.1948      2.00000
     52       2.3296      2.00000
     53       2.6885      2.00000
     54       2.9379      2.00000
     55       5.0518      0.00000
     56       5.6844      0.00000
     57       6.7004      0.00000
     58       6.8987      0.00000
     59       7.2467      0.00000
     60       7.7972      0.00000
     61       7.9408      0.00000
     62       8.1310      0.00000
     63       8.9327      0.00000
     64       9.2149      0.00000
     65       9.5256      0.00000
     66       9.8585      0.00000
     67      10.1255      0.00000
     68      10.4817      0.00000
     69      10.5565      0.00000
     70      10.8073      0.00000
     71      10.9988      0.00000
     72      11.3322      0.00000
     73      11.6336      0.00000
     74      11.9118      0.00000
     75      12.3410      0.00000
     76      12.4743      0.00000
     77      12.8633      0.00000
     78      13.2040      0.00000
     79      13.4019      0.00000
     80      13.4438      0.00000
     81      13.7687      0.00000
     82      14.2958      0.00000
     83      14.6043      0.00000
     84      14.8493      0.00000
     85      15.1672      0.00000
     86      15.6538      0.00000
     87      15.7940      0.00000
     88      16.1912      0.00000
     89      16.6477      0.00000
     90      16.9720      0.00000
     91      17.1782      0.00000
     92      17.3555      0.00000
     93      17.5624      0.00000
     94      17.8949      0.00000
     95      18.0992      0.00000
     96      18.3629      0.00000
     97      18.4112      0.00000
     98      18.6362      0.00000
     99      18.8235      0.00000
    100      18.9733      0.00000
    101      19.0845      0.00000
    102      19.2918      0.00000
    103      19.4874      0.00000
    104      19.6718      0.00000
    105      19.8630      0.00000
    106      20.6447      0.00000
    107      20.9558      0.00000
    108      21.4440      0.00000
    109      21.5540      0.00000
    110      21.7872      0.00000
    111      21.8469      0.00000
    112      22.0817      0.00000
    113      22.3231      0.00000
    114      22.5570      0.00000
    115      22.7034      0.00000
    116      22.8331      0.00000
    117      22.9534      0.00000
    118      23.1610      0.00000
    119      23.4084      0.00000
    120      23.5171      0.00000
    121      23.8685      0.00000
    122      24.0608      0.00000
    123      24.2419      0.00000
    124      24.4282      0.00000
    125      24.8490      0.00000
    126      24.9864      0.00000
    127      25.2251      0.00000
    128      25.5263      0.00000
    129      25.6790      0.00000
    130      26.0310      0.00000
    131      26.0638      0.00000
    132      26.3133      0.00000
    133      26.6053      0.00000
    134      26.8102      0.00000
    135      27.1526      0.00000
    136      27.3156      0.00000
    137      27.5032      0.00000
    138      27.7891      0.00000
    139      27.9254      0.00000
    140      28.0780      0.00000

 k-point    24 :      -0.4286    0.2500    0.1429
  band No.  band energies     occupation 
      1     -25.4534      2.00000
      2     -25.4488      2.00000
      3     -25.4389      2.00000
      4     -25.4383      2.00000
      5     -25.4090      2.00000
      6     -25.4086      2.00000
      7     -25.3866      2.00000
      8     -25.3859      2.00000
      9     -25.3811      2.00000
     10     -25.3804      2.00000
     11     -12.5344      2.00000
     12     -11.7028      2.00000
     13     -11.4410      2.00000
     14     -11.3016      2.00000
     15     -11.0156      2.00000
     16     -10.8733      2.00000
     17      -6.3213      2.00000
     18      -5.2341      2.00000
     19      -2.5037      2.00000
     20      -2.3867      2.00000
     21      -2.0264      2.00000
     22      -1.8452      2.00000
     23      -1.6305      2.00000
     24      -1.4933      2.00000
     25      -1.3405      2.00000
     26      -0.9833      2.00000
     27      -0.9127      2.00000
     28      -0.6714      2.00000
     29      -0.6382      2.00000
     30      -0.6173      2.00000
     31      -0.5328      2.00000
     32      -0.4929      2.00000
     33      -0.4284      2.00000
     34      -0.3568      2.00000
     35       0.4988      2.00000
     36       0.5405      2.00000
     37       0.6054      2.00000
     38       0.6108      2.00000
     39       0.6358      2.00000
     40       0.6572      2.00000
     41       0.6938      2.00000
     42       0.7570      2.00000
     43       0.8134      2.00000
     44       0.9291      2.00000
     45       0.9876      2.00000
     46       1.2901      2.00000
     47       1.4227      2.00000
     48       1.5608      2.00000
     49       1.6696      2.00000
     50       1.8941      2.00000
     51       2.2207      2.00000
     52       2.3984      2.00000
     53       2.6006      2.00000
     54       2.9946      2.00000
     55       5.0346      0.00000
     56       5.5657      0.00000
     57       6.4527      0.00000
     58       6.9114      0.00000
     59       7.1673      0.00000
     60       7.4473      0.00000
     61       7.9249      0.00000
     62       7.9869      0.00000
     63       9.0996      0.00000
     64       9.2115      0.00000
     65       9.9099      0.00000
     66      10.2204      0.00000
     67      10.4955      0.00000
     68      10.6812      0.00000
     69      10.7322      0.00000
     70      11.0618      0.00000
     71      11.2480      0.00000
     72      11.4448      0.00000
     73      11.6790      0.00000
     74      11.8320      0.00000
     75      12.1523      0.00000
     76      12.5657      0.00000
     77      12.7932      0.00000
     78      12.8957      0.00000
     79      13.3489      0.00000
     80      13.5412      0.00000
     81      13.7711      0.00000
     82      14.0055      0.00000
     83      14.4344      0.00000
     84      14.5094      0.00000
     85      14.7398      0.00000
     86      15.1976      0.00000
     87      15.3584      0.00000
     88      15.5874      0.00000
     89      16.2172      0.00000
     90      16.7348      0.00000
     91      16.9945      0.00000
     92      17.6701      0.00000
     93      17.9569      0.00000
     94      18.2309      0.00000
     95      18.5046      0.00000
     96      18.6188      0.00000
     97      18.7726      0.00000
     98      18.9516      0.00000
     99      19.0935      0.00000
    100      19.5163      0.00000
    101      19.6795      0.00000
    102      19.8937      0.00000
    103      20.1665      0.00000
    104      20.3019      0.00000
    105      20.6704      0.00000
    106      20.8670      0.00000
    107      20.9839      0.00000
    108      21.2871      0.00000
    109      21.4153      0.00000
    110      21.5636      0.00000
    111      21.6542      0.00000
    112      21.9574      0.00000
    113      22.0412      0.00000
    114      22.3588      0.00000
    115      22.4442      0.00000
    116      22.7243      0.00000
    117      22.9068      0.00000
    118      23.1528      0.00000
    119      23.2815      0.00000
    120      23.4769      0.00000
    121      23.6484      0.00000
    122      23.7732      0.00000
    123      23.8844      0.00000
    124      24.0354      0.00000
    125      24.0843      0.00000
    126      24.5586      0.00000
    127      25.0015      0.00000
    128      25.2134      0.00000
    129      25.3952      0.00000
    130      25.7693      0.00000
    131      25.8931      0.00000
    132      26.0234      0.00000
    133      26.2604      0.00000
    134      26.4331      0.00000
    135      26.7679      0.00000
    136      27.0165      0.00000
    137      27.1759      0.00000
    138      27.4466      0.00000
    139      27.7813      0.00000
    140      27.9175      0.00000

 k-point    25 :      -0.2857    0.2500    0.1429
  band No.  band energies     occupation 
      1     -25.4534      2.00000
      2     -25.4489      2.00000
      3     -25.4389      2.00000
      4     -25.4384      2.00000
      5     -25.4090      2.00000
      6     -25.4086      2.00000
      7     -25.3866      2.00000
      8     -25.3859      2.00000
      9     -25.3811      2.00000
     10     -25.3804      2.00000
     11     -12.5694      2.00000
     12     -11.6251      2.00000
     13     -11.4017      2.00000
     14     -11.3284      2.00000
     15     -11.0087      2.00000
     16     -10.9346      2.00000
     17      -6.3150      2.00000
     18      -5.2526      2.00000
     19      -2.5338      2.00000
     20      -2.4985      2.00000
     21      -2.0949      2.00000
     22      -1.6918      2.00000
     23      -1.5723      2.00000
     24      -1.4660      2.00000
     25      -1.2323      2.00000
     26      -1.0334      2.00000
     27      -0.9257      2.00000
     28      -0.6421      2.00000
     29      -0.6323      2.00000
     30      -0.5754      2.00000
     31      -0.5610      2.00000
     32      -0.5133      2.00000
     33      -0.4877      2.00000
     34      -0.3916      2.00000
     35       0.5171      2.00000
     36       0.5295      2.00000
     37       0.5907      2.00000
     38       0.6096      2.00000
     39       0.6353      2.00000
     40       0.6380      2.00000
     41       0.6872      2.00000
     42       0.7520      2.00000
     43       0.8609      2.00000
     44       0.8960      2.00000
     45       1.0765      2.00000
     46       1.3895      2.00000
     47       1.4409      2.00000
     48       1.5695      2.00000
     49       1.6709      2.00000
     50       1.6845      2.00000
     51       2.0624      2.00000
     52       2.4237      2.00000
     53       2.7631      2.00000
     54       3.0537      2.00000
     55       5.0543      0.00000
     56       5.5582      0.00000
     57       6.3892      0.00000
     58       6.8402      0.00000
     59       7.2930      0.00000
     60       7.5148      0.00000
     61       7.8967      0.00000
     62       8.0513      0.00000
     63       8.9889      0.00000
     64       9.0057      0.00000
     65       9.9862      0.00000
     66      10.1020      0.00000
     67      10.2127      0.00000
     68      10.4633      0.00000
     69      10.7441      0.00000
     70      11.0431      0.00000
     71      11.3535      0.00000
     72      11.4479      0.00000
     73      11.9011      0.00000
     74      11.9674      0.00000
     75      12.3237      0.00000
     76      12.4275      0.00000
     77      12.8490      0.00000
     78      13.0582      0.00000
     79      13.3559      0.00000
     80      13.6101      0.00000
     81      13.8494      0.00000
     82      14.2514      0.00000
     83      14.4161      0.00000
     84      14.6672      0.00000
     85      14.7798      0.00000
     86      15.0429      0.00000
     87      15.4173      0.00000
     88      15.6939      0.00000
     89      16.0826      0.00000
     90      16.8171      0.00000
     91      17.0170      0.00000
     92      17.5123      0.00000
     93      17.6300      0.00000
     94      17.8839      0.00000
     95      18.1351      0.00000
     96      18.5774      0.00000
     97      18.8660      0.00000
     98      19.2212      0.00000
     99      19.3963      0.00000
    100      19.4848      0.00000
    101      19.7036      0.00000
    102      19.8574      0.00000
    103      20.2095      0.00000
    104      20.5480      0.00000
    105      20.8321      0.00000
    106      20.9064      0.00000
    107      20.9744      0.00000
    108      21.0153      0.00000
    109      21.2542      0.00000
    110      21.3703      0.00000
    111      21.5446      0.00000
    112      21.7446      0.00000
    113      21.9137      0.00000
    114      22.1426      0.00000
    115      22.3638      0.00000
    116      22.5458      0.00000
    117      22.7087      0.00000
    118      23.0236      0.00000
    119      23.2446      0.00000
    120      23.3700      0.00000
    121      23.6964      0.00000
    122      23.8172      0.00000
    123      24.0650      0.00000
    124      24.3821      0.00000
    125      24.6589      0.00000
    126      24.7583      0.00000
    127      24.8929      0.00000
    128      25.1359      0.00000
    129      25.2632      0.00000
    130      25.7569      0.00000
    131      25.8380      0.00000
    132      26.1241      0.00000
    133      26.2225      0.00000
    134      26.8294      0.00000
    135      26.9037      0.00000
    136      26.9864      0.00000
    137      27.2300      0.00000
    138      27.7905      0.00000
    139      28.0768      0.00000
    140      28.2148      0.00000

 k-point    26 :      -0.1429    0.2500    0.1429
  band No.  band energies     occupation 
      1     -25.4535      2.00000
      2     -25.4489      2.00000
      3     -25.4390      2.00000
      4     -25.4384      2.00000
      5     -25.4091      2.00000
      6     -25.4087      2.00000
      7     -25.3866      2.00000
      8     -25.3860      2.00000
      9     -25.3812      2.00000
     10     -25.3805      2.00000
     11     -12.6612      2.00000
     12     -11.5954      2.00000
     13     -11.3786      2.00000
     14     -11.2448      2.00000
     15     -10.9810      2.00000
     16     -10.9366      2.00000
     17      -6.3407      2.00000
     18      -5.3820      2.00000
     19      -2.7012      2.00000
     20      -2.5610      2.00000
     21      -2.2360      2.00000
     22      -1.6278      2.00000
     23      -1.3662      2.00000
     24      -1.3020      2.00000
     25      -1.1496      2.00000
     26      -1.0062      2.00000
     27      -0.9151      2.00000
     28      -0.7246      2.00000
     29      -0.6564      2.00000
     30      -0.6252      2.00000
     31      -0.6047      2.00000
     32      -0.5385      2.00000
     33      -0.4944      2.00000
     34      -0.4047      2.00000
     35       0.4910      2.00000
     36       0.5285      2.00000
     37       0.5680      2.00000
     38       0.5813      2.00000
     39       0.6226      2.00000
     40       0.6324      2.00000
     41       0.6566      2.00000
     42       0.7199      2.00000
     43       0.9296      2.00000
     44       1.0640      2.00000
     45       1.1639      2.00000
     46       1.2656      2.00000
     47       1.4720      2.00000
     48       1.5758      2.00000
     49       1.6592      2.00000
     50       1.9131      2.00000
     51       1.9934      2.00000
     52       2.3518      2.00000
     53       2.7752      2.00000
     54       3.2158      2.00000
     55       5.0466      0.00000
     56       5.5989      0.00000
     57       6.6023      0.00000
     58       6.8620      0.00000
     59       7.2682      0.00000
     60       7.6411      0.00000
     61       8.0381      0.00000
     62       8.3810      0.00000
     63       8.6615      0.00000
     64       8.9071      0.00000
     65       9.6053      0.00000
     66       9.7592      0.00000
     67       9.9162      0.00000
     68       9.9942      0.00000
     69      10.4989      0.00000
     70      10.8357      0.00000
     71      11.1631      0.00000
     72      11.6797      0.00000
     73      11.8160      0.00000
     74      11.9617      0.00000
     75      12.4287      0.00000
     76      12.5962      0.00000
     77      12.9534      0.00000
     78      13.2579      0.00000
     79      13.5368      0.00000
     80      14.0156      0.00000
     81      14.1842      0.00000
     82      14.4037      0.00000
     83      14.6084      0.00000
     84      14.8879      0.00000
     85      15.2012      0.00000
     86      15.3852      0.00000
     87      15.9000      0.00000
     88      16.1024      0.00000
     89      16.4833      0.00000
     90      16.7197      0.00000
     91      16.9086      0.00000
     92      17.0697      0.00000
     93      17.5113      0.00000
     94      17.7673      0.00000
     95      18.0319      0.00000
     96      18.2251      0.00000
     97      18.3966      0.00000
     98      18.5396      0.00000
     99      18.8135      0.00000
    100      18.9437      0.00000
    101      19.1616      0.00000
    102      19.3545      0.00000
    103      19.8140      0.00000
    104      19.9327      0.00000
    105      20.2499      0.00000
    106      20.5710      0.00000
    107      20.6428      0.00000
    108      20.8144      0.00000
    109      20.9260      0.00000
    110      21.2149      0.00000
    111      21.2627      0.00000
    112      21.8646      0.00000
    113      22.0738      0.00000
    114      22.2525      0.00000
    115      22.6555      0.00000
    116      22.7992      0.00000
    117      23.2520      0.00000
    118      23.4698      0.00000
    119      23.5096      0.00000
    120      23.9069      0.00000
    121      24.1082      0.00000
    122      24.2934      0.00000
    123      24.6132      0.00000
    124      24.9787      0.00000
    125      25.0720      0.00000
    126      25.2719      0.00000
    127      25.4268      0.00000
    128      25.6499      0.00000
    129      25.9223      0.00000
    130      26.1671      0.00000
    131      26.4924      0.00000
    132      26.6207      0.00000
    133      26.7755      0.00000
    134      26.9321      0.00000
    135      27.1138      0.00000
    136      27.4364      0.00000
    137      27.6456      0.00000
    138      27.7381      0.00000
    139      27.8782      0.00000
    140      28.1098      0.00000

 k-point    27 :       0.0000    0.5000    0.1429
  band No.  band energies     occupation 
      1     -25.4533      2.00000
      2     -25.4488      2.00000
      3     -25.4388      2.00000
      4     -25.4382      2.00000
      5     -25.4089      2.00000
      6     -25.4085      2.00000
      7     -25.3865      2.00000
      8     -25.3858      2.00000
      9     -25.3811      2.00000
     10     -25.3803      2.00000
     11     -12.5667      2.00000
     12     -11.6995      2.00000
     13     -11.4396      2.00000
     14     -11.2145      2.00000
     15     -11.0169      2.00000
     16     -10.9141      2.00000
     17      -6.3118      2.00000
     18      -5.2965      2.00000
     19      -2.6395      2.00000
     20      -2.3574      2.00000
     21      -2.1285      2.00000
     22      -1.7304      2.00000
     23      -1.5153      2.00000
     24      -1.3811      2.00000
     25      -1.1668      2.00000
     26      -1.0711      2.00000
     27      -0.9080      2.00000
     28      -0.7995      2.00000
     29      -0.6935      2.00000
     30      -0.5975      2.00000
     31      -0.5503      2.00000
     32      -0.5313      2.00000
     33      -0.4326      2.00000
     34      -0.3735      2.00000
     35       0.4842      2.00000
     36       0.5040      2.00000
     37       0.5449      2.00000
     38       0.6216      2.00000
     39       0.6346      2.00000
     40       0.6520      2.00000
     41       0.6778      2.00000
     42       0.7609      2.00000
     43       0.8883      2.00000
     44       1.0278      2.00000
     45       1.1427      2.00000
     46       1.2637      2.00000
     47       1.4357      2.00000
     48       1.5467      2.00000
     49       1.6835      2.00000
     50       1.8074      2.00000
     51       2.1407      2.00000
     52       2.2122      2.00000
     53       2.5600      2.00000
     54       3.1675      2.00000
     55       5.1266      0.00000
     56       5.6821      0.00000
     57       6.5451      0.00000
     58       6.9619      0.00000
     59       7.4093      0.00000
     60       7.6378      0.00000
     61       8.2470      0.00000
     62       8.4554      0.00000
     63       8.8130      0.00000
     64       9.1953      0.00000
     65       9.4986      0.00000
     66       9.7444      0.00000
     67       9.9533      0.00000
     68      10.1591      0.00000
     69      10.3570      0.00000
     70      10.6773      0.00000
     71      11.0102      0.00000
     72      11.2160      0.00000
     73      11.5484      0.00000
     74      12.1058      0.00000
     75      12.4477      0.00000
     76      12.5972      0.00000
     77      12.8228      0.00000
     78      13.0765      0.00000
     79      13.2400      0.00000
     80      13.5407      0.00000
     81      14.0422      0.00000
     82      14.2076      0.00000
     83      14.8562      0.00000
     84      15.1509      0.00000
     85      15.3999      0.00000
     86      15.7930      0.00000
     87      15.9861      0.00000
     88      16.3739      0.00000
     89      16.5465      0.00000
     90      16.8238      0.00000
     91      17.1187      0.00000
     92      17.3081      0.00000
     93      17.4126      0.00000
     94      17.6834      0.00000
     95      17.8072      0.00000
     96      18.1758      0.00000
     97      18.4538      0.00000
     98      18.6127      0.00000
     99      18.9016      0.00000
    100      19.0332      0.00000
    101      19.3709      0.00000
    102      19.4868      0.00000
    103      19.7022      0.00000
    104      19.7744      0.00000
    105      20.1281      0.00000
    106      20.2810      0.00000
    107      20.5863      0.00000
    108      21.5630      0.00000
    109      21.6597      0.00000
    110      21.8470      0.00000
    111      21.9489      0.00000
    112      22.1855      0.00000
    113      22.3458      0.00000
    114      22.5808      0.00000
    115      22.7922      0.00000
    116      22.8385      0.00000
    117      22.9548      0.00000
    118      23.2040      0.00000
    119      23.5130      0.00000
    120      23.5989      0.00000
    121      23.8782      0.00000
    122      24.1844      0.00000
    123      24.3858      0.00000
    124      24.6294      0.00000
    125      24.8478      0.00000
    126      24.9712      0.00000
    127      25.3357      0.00000
    128      25.5171      0.00000
    129      25.7384      0.00000
    130      25.8484      0.00000
    131      25.9488      0.00000
    132      26.0980      0.00000
    133      26.3412      0.00000
    134      26.5331      0.00000
    135      26.9255      0.00000
    136      27.0433      0.00000
    137      27.2303      0.00000
    138      27.3689      0.00000
    139      27.5880      0.00000
    140      27.8447      0.00000

 k-point    28 :       0.1429    0.5000    0.1429
  band No.  band energies     occupation 
      1     -25.4533      2.00000
      2     -25.4488      2.00000
      3     -25.4388      2.00000
      4     -25.4382      2.00000
      5     -25.4090      2.00000
      6     -25.4086      2.00000
      7     -25.3865      2.00000
      8     -25.3858      2.00000
      9     -25.3811      2.00000
     10     -25.3803      2.00000
     11     -12.5817      2.00000
     12     -11.7247      2.00000
     13     -11.4108      2.00000
     14     -11.2304      2.00000
     15     -10.9857      2.00000
     16     -10.8914      2.00000
     17      -6.3372      2.00000
     18      -5.3524      2.00000
     19      -2.6387      2.00000
     20      -2.3754      2.00000
     21      -2.1733      2.00000
     22      -1.7727      2.00000
     23      -1.6509      2.00000
     24      -1.5096      2.00000
     25      -1.2134      2.00000
     26      -0.8674      2.00000
     27      -0.7806      2.00000
     28      -0.7007      2.00000
     29      -0.6681      2.00000
     30      -0.6251      2.00000
     31      -0.5626      2.00000
     32      -0.5292      2.00000
     33      -0.4133      2.00000
     34      -0.3536      2.00000
     35       0.4519      2.00000
     36       0.5113      2.00000
     37       0.5663      2.00000
     38       0.6246      2.00000
     39       0.6360      2.00000
     40       0.6465      2.00000
     41       0.7171      2.00000
     42       0.7266      2.00000
     43       0.9463      2.00000
     44       0.9708      2.00000
     45       1.1935      2.00000
     46       1.2806      2.00000
     47       1.4259      2.00000
     48       1.5369      2.00000
     49       1.7117      2.00000
     50       1.8431      2.00000
     51       2.1759      2.00000
     52       2.4700      2.00000
     53       2.7905      2.00000
     54       3.1427      2.00000
     55       4.8646      0.00000
     56       5.5177      0.00000
     57       6.5702      0.00000
     58       6.8101      0.00000
     59       7.0560      0.00000
     60       7.4852      0.00000
     61       7.8924      0.00000
     62       8.0804      0.00000
     63       8.7780      0.00000
     64       9.1316      0.00000
     65       9.4431      0.00000
     66       9.7894      0.00000
     67      10.1343      0.00000
     68      10.2678      0.00000
     69      10.7235      0.00000
     70      10.9703      0.00000
     71      11.0597      0.00000
     72      11.4304      0.00000
     73      11.6854      0.00000
     74      11.8718      0.00000
     75      12.3747      0.00000
     76      12.6600      0.00000
     77      13.3778      0.00000
     78      13.4396      0.00000
     79      13.5250      0.00000
     80      14.0840      0.00000
     81      14.2915      0.00000
     82      14.3874      0.00000
     83      14.5539      0.00000
     84      14.9426      0.00000
     85      15.0502      0.00000
     86      15.4018      0.00000
     87      15.7421      0.00000
     88      16.1164      0.00000
     89      16.2315      0.00000
     90      16.4854      0.00000
     91      16.5704      0.00000
     92      17.0160      0.00000
     93      17.4062      0.00000
     94      17.7180      0.00000
     95      17.9704      0.00000
     96      18.2733      0.00000
     97      18.6673      0.00000
     98      18.8442      0.00000
     99      19.0107      0.00000
    100      19.2372      0.00000
    101      19.4548      0.00000
    102      19.7514      0.00000
    103      19.9961      0.00000
    104      20.2220      0.00000
    105      20.2990      0.00000
    106      20.7591      0.00000
    107      21.1264      0.00000
    108      21.2218      0.00000
    109      21.4808      0.00000
    110      21.7065      0.00000
    111      21.8603      0.00000
    112      22.1436      0.00000
    113      22.3663      0.00000
    114      22.4619      0.00000
    115      22.4847      0.00000
    116      22.9093      0.00000
    117      22.9606      0.00000
    118      23.2244      0.00000
    119      23.5269      0.00000
    120      23.6262      0.00000
    121      23.8097      0.00000
    122      23.8565      0.00000
    123      24.0841      0.00000
    124      24.2395      0.00000
    125      24.3865      0.00000
    126      24.6165      0.00000
    127      24.8081      0.00000
    128      25.0173      0.00000
    129      25.3848      0.00000
    130      25.4709      0.00000
    131      25.6140      0.00000
    132      25.9193      0.00000
    133      26.3128      0.00000
    134      26.5981      0.00000
    135      26.7271      0.00000
    136      26.9265      0.00000
    137      27.2083      0.00000
    138      27.6850      0.00000
    139      27.7415      0.00000
    140      28.0901      0.00000

 k-point    29 :       0.2857    0.5000    0.1429
  band No.  band energies     occupation 
      1     -25.4533      2.00000
      2     -25.4488      2.00000
      3     -25.4388      2.00000
      4     -25.4382      2.00000
      5     -25.4090      2.00000
      6     -25.4086      2.00000
      7     -25.3865      2.00000
      8     -25.3859      2.00000
      9     -25.3811      2.00000
     10     -25.3804      2.00000
     11     -12.5832      2.00000
     12     -11.7927      2.00000
     13     -11.4070      2.00000
     14     -11.1860      2.00000
     15     -10.9578      2.00000
     16     -10.8668      2.00000
     17      -6.3723      2.00000
     18      -5.4152      2.00000
     19      -2.6053      2.00000
     20      -2.4311      2.00000
     21      -2.0699      2.00000
     22      -1.9005      2.00000
     23      -1.7051      2.00000
     24      -1.5755      2.00000
     25      -1.1864      2.00000
     26      -0.8336      2.00000
     27      -0.7715      2.00000
     28      -0.7353      2.00000
     29      -0.6294      2.00000
     30      -0.5881      2.00000
     31      -0.5517      2.00000
     32      -0.4626      2.00000
     33      -0.4197      2.00000
     34      -0.2927      2.00000
     35       0.4371      2.00000
     36       0.5351      2.00000
     37       0.5762      2.00000
     38       0.6228      2.00000
     39       0.6409      2.00000
     40       0.6581      2.00000
     41       0.6844      2.00000
     42       0.7754      2.00000
     43       0.8719      2.00000
     44       0.9813      2.00000
     45       1.1096      2.00000
     46       1.3753      2.00000
     47       1.4390      2.00000
     48       1.5700      2.00000
     49       1.7085      2.00000
     50       1.8556      2.00000
     51       2.2865      2.00000
     52       2.6809      2.00000
     53       2.8950      2.00000
     54       3.1648      2.00000
     55       4.6247      0.00000
     56       5.3717      0.00000
     57       6.1816      0.00000
     58       6.8608      0.00000
     59       7.0628      0.00000
     60       7.3827      0.00000
     61       7.7280      0.00000
     62       7.8690      0.00000
     63       8.9241      0.00000
     64       9.0543      0.00000
     65       9.4365      0.00000
     66       9.8602      0.00000
     67      10.1594      0.00000
     68      10.2605      0.00000
     69      10.6559      0.00000
     70      10.8106      0.00000
     71      11.2383      0.00000
     72      11.5830      0.00000
     73      11.9712      0.00000
     74      12.0826      0.00000
     75      12.3892      0.00000
     76      12.7903      0.00000
     77      13.2818      0.00000
     78      13.5694      0.00000
     79      13.7042      0.00000
     80      14.1632      0.00000
     81      14.3259      0.00000
     82      14.5038      0.00000
     83      14.7113      0.00000
     84      14.9198      0.00000
     85      15.0779      0.00000
     86      15.2561      0.00000
     87      15.5508      0.00000
     88      15.9727      0.00000
     89      16.1981      0.00000
     90      16.5861      0.00000
     91      16.7730      0.00000
     92      17.0171      0.00000
     93      17.4541      0.00000
     94      17.6726      0.00000
     95      17.9158      0.00000
     96      18.1391      0.00000
     97      18.3183      0.00000
     98      18.7261      0.00000
     99      19.1199      0.00000
    100      19.2910      0.00000
    101      19.6204      0.00000
    102      19.7774      0.00000
    103      19.9223      0.00000
    104      20.3118      0.00000
    105      20.5540      0.00000
    106      20.6778      0.00000
    107      20.7919      0.00000
    108      21.0720      0.00000
    109      21.1738      0.00000
    110      21.6456      0.00000
    111      21.7286      0.00000
    112      22.1110      0.00000
    113      22.3678      0.00000
    114      22.4914      0.00000
    115      22.6833      0.00000
    116      22.9111      0.00000
    117      23.0280      0.00000
    118      23.3722      0.00000
    119      23.5074      0.00000
    120      23.7665      0.00000
    121      23.8360      0.00000
    122      23.9571      0.00000
    123      24.1117      0.00000
    124      24.2978      0.00000
    125      24.4122      0.00000
    126      24.5431      0.00000
    127      24.6339      0.00000
    128      24.8370      0.00000
    129      25.1122      0.00000
    130      25.2049      0.00000
    131      25.4163      0.00000
    132      25.8769      0.00000
    133      26.0251      0.00000
    134      26.3332      0.00000
    135      26.5066      0.00000
    136      26.8447      0.00000
    137      27.1676      0.00000
    138      27.3744      0.00000
    139      27.5716      0.00000
    140      27.9708      0.00000

 k-point    30 :       0.4286    0.5000    0.1429
  band No.  band energies     occupation 
      1     -25.4533      2.00000
      2     -25.4488      2.00000
      3     -25.4388      2.00000
      4     -25.4383      2.00000
      5     -25.4091      2.00000
      6     -25.4087      2.00000
      7     -25.3866      2.00000
      8     -25.3860      2.00000
      9     -25.3812      2.00000
     10     -25.3805      2.00000
     11     -12.5689      2.00000
     12     -11.8476      2.00000
     13     -11.4206      2.00000
     14     -11.1407      2.00000
     15     -10.9760      2.00000
     16     -10.8258      2.00000
     17      -6.3933      2.00000
     18      -5.4454      2.00000
     19      -2.5978      2.00000
     20      -2.4255      2.00000
     21      -2.0720      2.00000
     22      -1.9369      2.00000
     23      -1.5180      2.00000
     24      -1.4559      2.00000
     25      -1.1724      2.00000
     26      -0.9797      2.00000
     27      -0.9476      2.00000
     28      -0.7092      2.00000
     29      -0.6192      2.00000
     30      -0.5703      2.00000
     31      -0.5429      2.00000
     32      -0.4244      2.00000
     33      -0.4204      2.00000
     34      -0.2566      2.00000
     35       0.4426      2.00000
     36       0.5208      2.00000
     37       0.5871      2.00000
     38       0.6025      2.00000
     39       0.6325      2.00000
     40       0.6557      2.00000
     41       0.6825      2.00000
     42       0.7028      2.00000
     43       0.9185      2.00000
     44       1.0063      2.00000
     45       1.1378      2.00000
     46       1.3235      2.00000
     47       1.4551      2.00000
     48       1.5248      2.00000
     49       1.7516      2.00000
     50       1.8998      2.00000
     51       2.0788      2.00000
     52       2.6275      2.00000
     53       2.8637      2.00000
     54       3.2026      2.00000
     55       4.6581      0.00000
     56       5.4942      0.00000
     57       6.0085      0.00000
     58       7.0355      0.00000
     59       7.3003      0.00000
     60       7.4292      0.00000
     61       7.8357      0.00000
     62       8.0445      0.00000
     63       9.0184      0.00000
     64       9.1493      0.00000
     65       9.3334      0.00000
     66       9.7727      0.00000
     67       9.8718      0.00000
     68      10.2114      0.00000
     69      10.5437      0.00000
     70      10.7036      0.00000
     71      10.8895      0.00000
     72      11.1041      0.00000
     73      11.4314      0.00000
     74      12.5152      0.00000
     75      12.7009      0.00000
     76      12.8995      0.00000
     77      13.1638      0.00000
     78      13.4164      0.00000
     79      13.7762      0.00000
     80      13.9933      0.00000
     81      14.4460      0.00000
     82      14.7305      0.00000
     83      15.0545      0.00000
     84      15.1007      0.00000
     85      15.3667      0.00000
     86      15.5812      0.00000
     87      15.8569      0.00000
     88      16.1209      0.00000
     89      16.5741      0.00000
     90      16.6533      0.00000
     91      16.8985      0.00000
     92      17.2664      0.00000
     93      17.4876      0.00000
     94      17.5917      0.00000
     95      17.7456      0.00000
     96      18.2865      0.00000
     97      18.3451      0.00000
     98      18.5890      0.00000
     99      18.8225      0.00000
    100      18.8983      0.00000
    101      19.1156      0.00000
    102      19.3787      0.00000
    103      19.6463      0.00000
    104      19.9455      0.00000
    105      20.1257      0.00000
    106      20.3041      0.00000
    107      20.7834      0.00000
    108      20.8755      0.00000
    109      21.0588      0.00000
    110      21.3574      0.00000
    111      21.5830      0.00000
    112      21.8232      0.00000
    113      22.1774      0.00000
    114      22.3845      0.00000
    115      22.4798      0.00000
    116      22.9051      0.00000
    117      23.0791      0.00000
    118      23.1978      0.00000
    119      23.4652      0.00000
    120      23.7402      0.00000
    121      24.1348      0.00000
    122      24.2114      0.00000
    123      24.4402      0.00000
    124      24.6887      0.00000
    125      24.7674      0.00000
    126      25.0357      0.00000
    127      25.1792      0.00000
    128      25.5324      0.00000
    129      25.6529      0.00000
    130      25.9965      0.00000
    131      26.2937      0.00000
    132      26.3542      0.00000
    133      26.6221      0.00000
    134      26.7418      0.00000
    135      26.9728      0.00000
    136      27.0664      0.00000
    137      27.2236      0.00000
    138      27.4404      0.00000
    139      27.4893      0.00000
    140      27.5795      0.00000

 k-point    31 :      -0.4286    0.5000    0.1429
  band No.  band energies     occupation 
      1     -25.4534      2.00000
      2     -25.4488      2.00000
      3     -25.4389      2.00000
      4     -25.4383      2.00000
      5     -25.4091      2.00000
      6     -25.4087      2.00000
      7     -25.3866      2.00000
      8     -25.3860      2.00000
      9     -25.3812      2.00000
     10     -25.3805      2.00000
     11     -12.5575      2.00000
     12     -11.8247      2.00000
     13     -11.4411      2.00000
     14     -11.1756      2.00000
     15     -10.9948      2.00000
     16     -10.8030      2.00000
     17      -6.3827      2.00000
     18      -5.3914      2.00000
     19      -2.5766      2.00000
     20      -2.4112      2.00000
     21      -2.0570      2.00000
     22      -1.9419      2.00000
     23      -1.4620      2.00000
     24      -1.3102      2.00000
     25      -1.2270      2.00000
     26      -1.0995      2.00000
     27      -1.0228      2.00000
     28      -0.6845      2.00000
     29      -0.6427      2.00000
     30      -0.5662      2.00000
     31      -0.5368      2.00000
     32      -0.4442      2.00000
     33      -0.4146      2.00000
     34      -0.2784      2.00000
     35       0.4892      2.00000
     36       0.5072      2.00000
     37       0.5594      2.00000
     38       0.5724      2.00000
     39       0.6232      2.00000
     40       0.6422      2.00000
     41       0.6780      2.00000
     42       0.7226      2.00000
     43       0.9768      2.00000
     44       1.0298      2.00000
     45       1.0869      2.00000
     46       1.2001      2.00000
     47       1.4381      2.00000
     48       1.4971      2.00000
     49       1.7740      2.00000
     50       1.9665      2.00000
     51       2.0460      2.00000
     52       2.5171      2.00000
     53       2.8118      2.00000
     54       2.9643      2.00000
     55       4.8458      0.00000
     56       5.6804      0.00000
     57       6.2230      0.00000
     58       7.0156      0.00000
     59       7.3742      0.00000
     60       7.4839      0.00000
     61       7.9577      0.00000
     62       8.0357      0.00000
     63       8.9425      0.00000
     64       9.2665      0.00000
     65       9.5252      0.00000
     66       9.7519      0.00000
     67       9.9347      0.00000
     68      10.3367      0.00000
     69      10.4046      0.00000
     70      10.8191      0.00000
     71      10.9373      0.00000
     72      10.9956      0.00000
     73      11.4656      0.00000
     74      12.4010      0.00000
     75      12.5105      0.00000
     76      12.8241      0.00000
     77      13.1624      0.00000
     78      13.2261      0.00000
     79      13.5719      0.00000
     80      13.8187      0.00000
     81      14.2381      0.00000
     82      14.6355      0.00000
     83      14.9311      0.00000
     84      15.1096      0.00000
     85      15.3187      0.00000
     86      15.5304      0.00000
     87      15.7147      0.00000
     88      15.9610      0.00000
     89      16.3319      0.00000
     90      16.5840      0.00000
     91      17.0056      0.00000
     92      17.3203      0.00000
     93      17.5284      0.00000
     94      18.0285      0.00000
     95      18.1922      0.00000
     96      18.3243      0.00000
     97      18.5317      0.00000
     98      18.7113      0.00000
     99      18.8994      0.00000
    100      19.0813      0.00000
    101      19.3265      0.00000
    102      19.4554      0.00000
    103      19.5674      0.00000
    104      19.9187      0.00000
    105      20.3917      0.00000
    106      20.4880      0.00000
    107      20.6174      0.00000
    108      20.8833      0.00000
    109      20.9986      0.00000
    110      21.2833      0.00000
    111      21.3527      0.00000
    112      21.4726      0.00000
    113      21.9139      0.00000
    114      22.1204      0.00000
    115      22.4157      0.00000
    116      22.6828      0.00000
    117      22.9267      0.00000
    118      23.2680      0.00000
    119      23.3637      0.00000
    120      23.6685      0.00000
    121      23.8833      0.00000
    122      24.2746      0.00000
    123      24.6947      0.00000
    124      24.8669      0.00000
    125      25.3581      0.00000
    126      25.4642      0.00000
    127      25.6742      0.00000
    128      25.7921      0.00000
    129      25.8831      0.00000
    130      26.0777      0.00000
    131      26.2033      0.00000
    132      26.5407      0.00000
    133      26.6176      0.00000
    134      26.7557      0.00000
    135      26.9507      0.00000
    136      27.0667      0.00000
    137      27.2540      0.00000
    138      27.3752      0.00000
    139      27.6294      0.00000
    140      27.7648      0.00000

 k-point    32 :      -0.2857    0.5000    0.1429
  band No.  band energies     occupation 
      1     -25.4534      2.00000
      2     -25.4488      2.00000
      3     -25.4389      2.00000
      4     -25.4383      2.00000
      5     -25.4091      2.00000
      6     -25.4087      2.00000
      7     -25.3866      2.00000
      8     -25.3859      2.00000
      9     -25.3812      2.00000
     10     -25.3804      2.00000
     11     -12.5549      2.00000
     12     -11.7460      2.00000
     13     -11.4513      2.00000
     14     -11.2485      2.00000
     15     -11.0042      2.00000
     16     -10.8274      2.00000
     17      -6.3466      2.00000
     18      -5.2966      2.00000
     19      -2.5247      2.00000
     20      -2.4143      2.00000
     21      -2.1142      2.00000
     22      -1.8088      2.00000
     23      -1.5154      2.00000
     24      -1.4705      2.00000
     25      -1.3208      2.00000
     26      -1.0114      2.00000
     27      -0.9395      2.00000
     28      -0.6922      2.00000
     29      -0.6578      2.00000
     30      -0.5942      2.00000
     31      -0.5253      2.00000
     32      -0.5050      2.00000
     33      -0.4141      2.00000
     34      -0.3307      2.00000
     35       0.4865      2.00000
     36       0.5364      2.00000
     37       0.5728      2.00000
     38       0.5978      2.00000
     39       0.6343      2.00000
     40       0.6508      2.00000
     41       0.6770      2.00000
     42       0.7174      2.00000
     43       0.9044      2.00000
     44       0.9739      2.00000
     45       1.0600      2.00000
     46       1.2592      2.00000
     47       1.3238      2.00000
     48       1.5251      2.00000
     49       1.7444      2.00000
     50       2.0210      2.00000
     51       2.2595      2.00000
     52       2.3452      2.00000
     53       2.6327      2.00000
     54       2.9219      2.00000
     55       5.0108      0.00000
     56       5.6405      0.00000
     57       6.6265      0.00000
     58       6.8404      0.00000
     59       7.1687      0.00000
     60       7.6712      0.00000
     61       7.8433      0.00000
     62       7.9959      0.00000
     63       8.9786      0.00000
     64       9.2507      0.00000
     65       9.7133      0.00000
     66      10.0534      0.00000
     67      10.2949      0.00000
     68      10.5948      0.00000
     69      10.7304      0.00000
     70      10.9218      0.00000
     71      11.1505      0.00000
     72      11.2873      0.00000
     73      11.6169      0.00000
     74      11.8341      0.00000
     75      12.3409      0.00000
     76      12.4875      0.00000
     77      12.8123      0.00000
     78      13.2337      0.00000
     79      13.3769      0.00000
     80      13.6144      0.00000
     81      13.8750      0.00000
     82      14.1497      0.00000
     83      14.4034      0.00000
     84      14.7178      0.00000
     85      14.8698      0.00000
     86      15.3903      0.00000
     87      15.5318      0.00000
     88      15.9387      0.00000
     89      16.3890      0.00000
     90      16.9768      0.00000
     91      17.1164      0.00000
     92      17.2655      0.00000
     93      17.7391      0.00000
     94      18.0469      0.00000
     95      18.3134      0.00000
     96      18.5120      0.00000
     97      18.6613      0.00000
     98      18.8436      0.00000
     99      19.0246      0.00000
    100      19.3050      0.00000
    101      19.5580      0.00000
    102      19.6477      0.00000
    103      19.8861      0.00000
    104      20.0248      0.00000
    105      20.2676      0.00000
    106      20.5110      0.00000
    107      20.8085      0.00000
    108      21.2473      0.00000
    109      21.3566      0.00000
    110      21.4640      0.00000
    111      21.7498      0.00000
    112      22.0546      0.00000
    113      22.3506      0.00000
    114      22.4848      0.00000
    115      22.6306      0.00000
    116      22.8443      0.00000
    117      22.9520      0.00000
    118      23.0211      0.00000
    119      23.2821      0.00000
    120      23.3954      0.00000
    121      23.6051      0.00000
    122      23.7588      0.00000
    123      24.0052      0.00000
    124      24.3977      0.00000
    125      24.7463      0.00000
    126      24.9516      0.00000
    127      25.2119      0.00000
    128      25.3462      0.00000
    129      25.5999      0.00000
    130      25.8610      0.00000
    131      26.0405      0.00000
    132      26.1752      0.00000
    133      26.5168      0.00000
    134      26.6292      0.00000
    135      26.9673      0.00000
    136      27.0268      0.00000
    137      27.1443      0.00000
    138      27.5675      0.00000
    139      27.8504      0.00000
    140      28.0680      0.00000

 k-point    33 :      -0.1429    0.5000    0.1429
  band No.  band energies     occupation 
      1     -25.4534      2.00000
      2     -25.4488      2.00000
      3     -25.4389      2.00000
      4     -25.4383      2.00000
      5     -25.4090      2.00000
      6     -25.4086      2.00000
      7     -25.3865      2.00000
      8     -25.3859      2.00000
      9     -25.3811      2.00000
     10     -25.3804      2.00000
     11     -12.5563      2.00000
     12     -11.7026      2.00000
     13     -11.4455      2.00000
     14     -11.2517      2.00000
     15     -11.0157      2.00000
     16     -10.8842      2.00000
     17      -6.3150      2.00000
     18      -5.2615      2.00000
     19      -2.5755      2.00000
     20      -2.3801      2.00000
     21      -2.0648      2.00000
     22      -1.8197      2.00000
     23      -1.4855      2.00000
     24      -1.3698      2.00000
     25      -1.3031      2.00000
     26      -1.0712      2.00000
     27      -0.9651      2.00000
     28      -0.7218      2.00000
     29      -0.6906      2.00000
     30      -0.6159      2.00000
     31      -0.5466      2.00000
     32      -0.5161      2.00000
     33      -0.4229      2.00000
     34      -0.3675      2.00000
     35       0.4834      2.00000
     36       0.5362      2.00000
     37       0.5734      2.00000
     38       0.6054      2.00000
     39       0.6362      2.00000
     40       0.6538      2.00000
     41       0.6887      2.00000
     42       0.7676      2.00000
     43       0.8350      2.00000
     44       0.9613      2.00000
     45       1.0567      2.00000
     46       1.2860      2.00000
     47       1.4234      2.00000
     48       1.5504      2.00000
     49       1.7313      2.00000
     50       1.8100      2.00000
     51       2.2010      2.00000
     52       2.3036      2.00000
     53       2.4899      2.00000
     54       3.0733      2.00000
     55       5.1380      0.00000
     56       5.6663      0.00000
     57       6.5737      0.00000
     58       6.8911      0.00000
     59       7.4485      0.00000
     60       7.5490      0.00000
     61       8.1011      0.00000
     62       8.3304      0.00000
     63       9.0549      0.00000
     64       9.1675      0.00000
     65       9.7109      0.00000
     66      10.0222      0.00000
     67      10.1165      0.00000
     68      10.3314      0.00000
     69      10.5725      0.00000
     70      10.9160      0.00000
     71      11.0829      0.00000
     72      11.4356      0.00000
     73      11.6457      0.00000
     74      11.8791      0.00000
     75      12.1879      0.00000
     76      12.3148      0.00000
     77      12.6533      0.00000
     78      12.9144      0.00000
     79      13.2305      0.00000
     80      13.3996      0.00000
     81      13.7240      0.00000
     82      14.3749      0.00000
     83      14.4497      0.00000
     84      14.9251      0.00000
     85      15.0933      0.00000
     86      15.5020      0.00000
     87      15.9106      0.00000
     88      16.1410      0.00000
     89      16.4537      0.00000
     90      16.9888      0.00000
     91      17.3101      0.00000
     92      17.4757      0.00000
     93      17.6206      0.00000
     94      17.8649      0.00000
     95      18.1406      0.00000
     96      18.2669      0.00000
     97      18.6091      0.00000
     98      18.7611      0.00000
     99      18.9068      0.00000
    100      19.1677      0.00000
    101      19.3085      0.00000
    102      19.5460      0.00000
    103      19.7397      0.00000
    104      19.9431      0.00000
    105      20.4367      0.00000
    106      20.6547      0.00000
    107      20.8873      0.00000
    108      21.0173      0.00000
    109      21.3527      0.00000
    110      21.5170      0.00000
    111      21.6501      0.00000
    112      22.1701      0.00000
    113      22.3525      0.00000
    114      22.5678      0.00000
    115      22.8106      0.00000
    116      23.0884      0.00000
    117      23.1925      0.00000
    118      23.4681      0.00000
    119      23.6280      0.00000
    120      23.8046      0.00000
    121      23.9967      0.00000
    122      24.1153      0.00000
    123      24.2505      0.00000
    124      24.3775      0.00000
    125      24.6118      0.00000
    126      24.8794      0.00000
    127      25.0565      0.00000
    128      25.1885      0.00000
    129      25.5705      0.00000
    130      25.7449      0.00000
    131      25.9037      0.00000
    132      26.1432      0.00000
    133      26.2203      0.00000
    134      26.3538      0.00000
    135      26.8071      0.00000
    136      26.8647      0.00000
    137      27.2545      0.00000
    138      27.3569      0.00000
    139      27.5049      0.00000
    140      27.7512      0.00000

 k-point    34 :       0.0000    0.0000    0.2857
  band No.  band energies     occupation 
      1     -25.4528      2.00000
      2     -25.4497      2.00000
      3     -25.4387      2.00000
      4     -25.4383      2.00000
      5     -25.4090      2.00000
      6     -25.4088      2.00000
      7     -25.3865      2.00000
      8     -25.3861      2.00000
      9     -25.3811      2.00000
     10     -25.3806      2.00000
     11     -12.6858      2.00000
     12     -11.9392      2.00000
     13     -11.2351      2.00000
     14     -11.1480      2.00000
     15     -10.8291      2.00000
     16     -10.8258      2.00000
     17      -6.2168      2.00000
     18      -5.6899      2.00000
     19      -2.5695      2.00000
     20      -2.4890      2.00000
     21      -2.1687      2.00000
     22      -1.8815      2.00000
     23      -1.6555      2.00000
     24      -1.4837      2.00000
     25      -1.4147      2.00000
     26      -1.2158      2.00000
     27      -0.8292      2.00000
     28      -0.7058      2.00000
     29      -0.6282      2.00000
     30      -0.6203      2.00000
     31      -0.5469      2.00000
     32      -0.5373      2.00000
     33      -0.4223      2.00000
     34      -0.4201      2.00000
     35       0.5253      2.00000
     36       0.5796      2.00000
     37       0.5884      2.00000
     38       0.5894      2.00000
     39       0.6494      2.00000
     40       0.6509      2.00000
     41       0.6915      2.00000
     42       0.7411      2.00000
     43       0.8346      2.00000
     44       0.8915      2.00000
     45       0.9731      2.00000
     46       1.1396      2.00000
     47       1.2594      2.00000
     48       1.8373      2.00000
     49       1.9380      2.00000
     50       2.2711      2.00000
     51       2.5539      2.00000
     52       2.5564      2.00000
     53       3.1086      2.00000
     54       3.1495      2.00000
     55       4.9092      0.00000
     56       5.0695      0.00000
     57       6.5483      0.00000
     58       6.6360      0.00000
     59       7.4902      0.00000
     60       7.8201      0.00000
     61       8.5379      0.00000
     62       8.6111      0.00000
     63       9.0433      0.00000
     64       9.4239      0.00000
     65       9.5637      0.00000
     66       9.6036      0.00000
     67       9.9205      0.00000
     68      10.2733      0.00000
     69      10.3466      0.00000
     70      10.9248      0.00000
     71      11.4309      0.00000
     72      11.7153      0.00000
     73      11.9504      0.00000
     74      12.1953      0.00000
     75      12.3431      0.00000
     76      12.5825      0.00000
     77      12.9830      0.00000
     78      12.9897      0.00000
     79      13.4010      0.00000
     80      13.4731      0.00000
     81      13.8030      0.00000
     82      13.9223      0.00000
     83      14.2295      0.00000
     84      14.4857      0.00000
     85      14.6544      0.00000
     86      14.9097      0.00000
     87      15.1000      0.00000
     88      15.2633      0.00000
     89      15.5454      0.00000
     90      15.6530      0.00000
     91      16.2758      0.00000
     92      16.8225      0.00000
     93      17.0201      0.00000
     94      17.8889      0.00000
     95      18.3244      0.00000
     96      18.4634      0.00000
     97      18.6465      0.00000
     98      18.8105      0.00000
     99      19.4239      0.00000
    100      19.5751      0.00000
    101      19.7479      0.00000
    102      20.1305      0.00000
    103      20.2246      0.00000
    104      20.6903      0.00000
    105      20.9549      0.00000
    106      21.0289      0.00000
    107      21.3697      0.00000
    108      21.4055      0.00000
    109      21.6105      0.00000
    110      21.8354      0.00000
    111      22.0097      0.00000
    112      22.1494      0.00000
    113      22.2638      0.00000
    114      22.4613      0.00000
    115      22.5043      0.00000
    116      22.7854      0.00000
    117      22.8233      0.00000
    118      23.1279      0.00000
    119      23.3555      0.00000
    120      23.3797      0.00000
    121      23.8366      0.00000
    122      23.8512      0.00000
    123      24.1626      0.00000
    124      24.4949      0.00000
    125      24.9510      0.00000
    126      25.0304      0.00000
    127      25.7101      0.00000
    128      25.8528      0.00000
    129      26.2894      0.00000
    130      26.6326      0.00000
    131      26.8322      0.00000
    132      26.9213      0.00000
    133      26.9773      0.00000
    134      27.1345      0.00000
    135      27.2705      0.00000
    136      27.4020      0.00000
    137      27.5260      0.00000
    138      27.7102      0.00000
    139      27.8665      0.00000
    140      27.9847      0.00000

 k-point    35 :       0.1429    0.0000    0.2857
  band No.  band energies     occupation 
      1     -25.4527      2.00000
      2     -25.4496      2.00000
      3     -25.4386      2.00000
      4     -25.4382      2.00000
      5     -25.4089      2.00000
      6     -25.4087      2.00000
      7     -25.3864      2.00000
      8     -25.3860      2.00000
      9     -25.3810      2.00000
     10     -25.3805      2.00000
     11     -12.6144      2.00000
     12     -11.9715      2.00000
     13     -11.2530      2.00000
     14     -11.1863      2.00000
     15     -10.8842      2.00000
     16     -10.8117      2.00000
     17      -6.1949      2.00000
     18      -5.5985      2.00000
     19      -2.4905      2.00000
     20      -2.3754      2.00000
     21      -2.1005      2.00000
     22      -1.9191      2.00000
     23      -1.7539      2.00000
     24      -1.4603      2.00000
     25      -1.2917      2.00000
     26      -1.1709      2.00000
     27      -0.9981      2.00000
     28      -0.7637      2.00000
     29      -0.6392      2.00000
     30      -0.6086      2.00000
     31      -0.5526      2.00000
     32      -0.5281      2.00000
     33      -0.4520      2.00000
     34      -0.4014      2.00000
     35       0.5321      2.00000
     36       0.5640      2.00000
     37       0.5665      2.00000
     38       0.6014      2.00000
     39       0.6228      2.00000
     40       0.6754      2.00000
     41       0.6962      2.00000
     42       0.7358      2.00000
     43       0.8289      2.00000
     44       0.9348      2.00000
     45       1.0581      2.00000
     46       1.1063      2.00000
     47       1.2685      2.00000
     48       1.7345      2.00000
     49       1.9485      2.00000
     50       2.1251      2.00000
     51       2.2426      2.00000
     52       2.5710      2.00000
     53       2.8192      2.00000
     54       3.0776      2.00000
     55       5.1170      0.00000
     56       5.3541      0.00000
     57       6.7784      0.00000
     58       6.8318      0.00000
     59       7.7814      0.00000
     60       8.1089      0.00000
     61       8.4118      0.00000
     62       8.6035      0.00000
     63       8.9989      0.00000
     64       9.2577      0.00000
     65       9.5786      0.00000
     66       9.8403      0.00000
     67      10.1703      0.00000
     68      10.4229      0.00000
     69      10.6352      0.00000
     70      10.7012      0.00000
     71      11.1037      0.00000
     72      11.1991      0.00000
     73      11.3373      0.00000
     74      11.7064      0.00000
     75      11.8533      0.00000
     76      12.1259      0.00000
     77      12.5045      0.00000
     78      13.0618      0.00000
     79      13.2459      0.00000
     80      13.6394      0.00000
     81      13.8375      0.00000
     82      14.1265      0.00000
     83      14.1928      0.00000
     84      14.7304      0.00000
     85      15.0207      0.00000
     86      15.2112      0.00000
     87      15.3682      0.00000
     88      15.5138      0.00000
     89      16.0038      0.00000
     90      16.2403      0.00000
     91      16.8074      0.00000
     92      17.1768      0.00000
     93      17.4840      0.00000
     94      17.7899      0.00000
     95      18.1635      0.00000
     96      18.4365      0.00000
     97      18.6793      0.00000
     98      18.8740      0.00000
     99      19.1060      0.00000
    100      19.4155      0.00000
    101      19.7656      0.00000
    102      19.8567      0.00000
    103      20.1566      0.00000
    104      20.3112      0.00000
    105      20.4699      0.00000
    106      20.7922      0.00000
    107      21.1476      0.00000
    108      21.3988      0.00000
    109      21.5577      0.00000
    110      21.8073      0.00000
    111      21.9848      0.00000
    112      22.0986      0.00000
    113      22.2551      0.00000
    114      22.5548      0.00000
    115      22.8744      0.00000
    116      22.9622      0.00000
    117      23.0952      0.00000
    118      23.2409      0.00000
    119      23.5048      0.00000
    120      23.6984      0.00000
    121      23.9578      0.00000
    122      24.0752      0.00000
    123      24.4637      0.00000
    124      24.7114      0.00000
    125      24.9131      0.00000
    126      25.1847      0.00000
    127      25.3745      0.00000
    128      25.6270      0.00000
    129      25.7556      0.00000
    130      25.9653      0.00000
    131      26.0440      0.00000
    132      26.4619      0.00000
    133      26.6692      0.00000
    134      26.9342      0.00000
    135      27.0063      0.00000
    136      27.3051      0.00000
    137      27.3592      0.00000
    138      27.4394      0.00000
    139      27.5974      0.00000
    140      27.8537      0.00000

 k-point    36 :       0.2857    0.0000    0.2857
  band No.  band energies     occupation 
      1     -25.4527      2.00000
      2     -25.4495      2.00000
      3     -25.4386      2.00000
      4     -25.4381      2.00000
      5     -25.4089      2.00000
      6     -25.4086      2.00000
      7     -25.3864      2.00000
      8     -25.3859      2.00000
      9     -25.3810      2.00000
     10     -25.3804      2.00000
     11     -12.5074      2.00000
     12     -11.9593      2.00000
     13     -11.3537      2.00000
     14     -11.1983      2.00000
     15     -10.9619      2.00000
     16     -10.8333      2.00000
     17      -6.1746      2.00000
     18      -5.4988      2.00000
     19      -2.5120      2.00000
     20      -2.2981      2.00000
     21      -2.0392      2.00000
     22      -1.9607      2.00000
     23      -1.6286      2.00000
     24      -1.4191      2.00000
     25      -1.2676      2.00000
     26      -1.0778      2.00000
     27      -0.9060      2.00000
     28      -0.8369      2.00000
     29      -0.6710      2.00000
     30      -0.6288      2.00000
     31      -0.5379      2.00000
     32      -0.5180      2.00000
     33      -0.4702      2.00000
     34      -0.3854      2.00000
     35       0.5269      2.00000
     36       0.5376      2.00000
     37       0.5661      2.00000
     38       0.6088      2.00000
     39       0.6198      2.00000
     40       0.6404      2.00000
     41       0.6831      2.00000
     42       0.7403      2.00000
     43       0.9120      2.00000
     44       1.0435      2.00000
     45       1.1509      2.00000
     46       1.2377      2.00000
     47       1.4489      2.00000
     48       1.6031      2.00000
     49       1.6888      2.00000
     50       1.7424      2.00000
     51       2.1729      2.00000
     52       2.4287      2.00000
     53       2.6564      2.00000
     54       2.9339      2.00000
     55       5.2399      0.00000
     56       5.6057      0.00000
     57       6.7895      0.00000
     58       6.9975      0.00000
     59       7.6412      0.00000
     60       7.9550      0.00000
     61       8.2917      0.00000
     62       8.5106      0.00000
     63       9.0358      0.00000
     64       9.2441      0.00000
     65       9.3954      0.00000
     66       9.8068      0.00000
     67      10.0891      0.00000
     68      10.3138      0.00000
     69      10.4499      0.00000
     70      10.5423      0.00000
     71      10.9311      0.00000
     72      11.1795      0.00000
     73      11.2789      0.00000
     74      11.6547      0.00000
     75      11.8889      0.00000
     76      12.1455      0.00000
     77      12.2308      0.00000
     78      12.9268      0.00000
     79      13.3807      0.00000
     80      13.6484      0.00000
     81      13.8152      0.00000
     82      14.2816      0.00000
     83      14.6858      0.00000
     84      15.3681      0.00000
     85      15.6451      0.00000
     86      15.9140      0.00000
     87      16.1459      0.00000
     88      16.3668      0.00000
     89      16.5065      0.00000
     90      16.6469      0.00000
     91      17.1840      0.00000
     92      17.3247      0.00000
     93      17.6334      0.00000
     94      17.7917      0.00000
     95      18.0360      0.00000
     96      18.1530      0.00000
     97      18.4344      0.00000
     98      18.5367      0.00000
     99      18.8794      0.00000
    100      19.1113      0.00000
    101      19.1735      0.00000
    102      19.4745      0.00000
    103      19.5269      0.00000
    104      19.7370      0.00000
    105      20.3679      0.00000
    106      20.5935      0.00000
    107      20.8829      0.00000
    108      21.0311      0.00000
    109      21.4034      0.00000
    110      21.7383      0.00000
    111      21.9748      0.00000
    112      22.1463      0.00000
    113      22.2837      0.00000
    114      22.6377      0.00000
    115      22.8476      0.00000
    116      23.0000      0.00000
    117      23.3136      0.00000
    118      23.4823      0.00000
    119      23.7028      0.00000
    120      23.9188      0.00000
    121      24.0410      0.00000
    122      24.1768      0.00000
    123      24.2978      0.00000
    124      24.6217      0.00000
    125      24.8467      0.00000
    126      25.0703      0.00000
    127      25.3000      0.00000
    128      25.5582      0.00000
    129      25.7431      0.00000
    130      25.9586      0.00000
    131      26.0402      0.00000
    132      26.1334      0.00000
    133      26.2659      0.00000
    134      26.5099      0.00000
    135      26.5559      0.00000
    136      26.9067      0.00000
    137      27.1240      0.00000
    138      27.3264      0.00000
    139      27.4723      0.00000
    140      27.7557      0.00000

 k-point    37 :       0.4286    0.0000    0.2857
  band No.  band energies     occupation 
      1     -25.4527      2.00000
      2     -25.4496      2.00000
      3     -25.4386      2.00000
      4     -25.4382      2.00000
      5     -25.4089      2.00000
      6     -25.4086      2.00000
      7     -25.3863      2.00000
      8     -25.3859      2.00000
      9     -25.3809      2.00000
     10     -25.3804      2.00000
     11     -12.4506      2.00000
     12     -11.9114      2.00000
     13     -11.4017      2.00000
     14     -11.1994      2.00000
     15     -11.0264      2.00000
     16     -10.8848      2.00000
     17      -6.1653      2.00000
     18      -5.4654      2.00000
     19      -2.6394      2.00000
     20      -2.2312      2.00000
     21      -2.0621      2.00000
     22      -1.9142      2.00000
     23      -1.6485      2.00000
     24      -1.2751      2.00000
     25      -1.2067      2.00000
     26      -1.0431      2.00000
     27      -0.8758      2.00000
     28      -0.7436      2.00000
     29      -0.7025      2.00000
     30      -0.5758      2.00000
     31      -0.5278      2.00000
     32      -0.5067      2.00000
     33      -0.4581      2.00000
     34      -0.3897      2.00000
     35       0.4876      2.00000
     36       0.5161      2.00000
     37       0.5538      2.00000
     38       0.6062      2.00000
     39       0.6309      2.00000
     40       0.6486      2.00000
     41       0.6656      2.00000
     42       0.7489      2.00000
     43       0.9791      2.00000
     44       1.1264      2.00000
     45       1.1848      2.00000
     46       1.2907      2.00000
     47       1.3877      2.00000
     48       1.5409      2.00000
     49       1.6757      2.00000
     50       1.8183      2.00000
     51       2.1472      2.00000
     52       2.2660      2.00000
     53       2.6567      2.00000
     54       2.9836      2.00000
     55       5.1310      0.00000
     56       5.4963      0.00000
     57       6.3583      0.00000
     58       6.9423      0.00000
     59       7.4311      0.00000
     60       7.7419      0.00000
     61       8.0916      0.00000
     62       8.2989      0.00000
     63       8.8676      0.00000
     64       9.1132      0.00000
     65       9.5885      0.00000
     66       9.6273      0.00000
     67       9.9104      0.00000
     68      10.0906      0.00000
     69      10.3359      0.00000
     70      10.6247      0.00000
     71      10.8904      0.00000
     72      11.0055      0.00000
     73      11.7941      0.00000
     74      12.0001      0.00000
     75      12.3252      0.00000
     76      12.6088      0.00000
     77      12.9557      0.00000
     78      13.2004      0.00000
     79      13.4379      0.00000
     80      13.6770      0.00000
     81      14.1822      0.00000
     82      14.6465      0.00000
     83      14.9252      0.00000
     84      15.2623      0.00000
     85      15.4288      0.00000
     86      15.8523      0.00000
     87      16.1908      0.00000
     88      16.3599      0.00000
     89      16.8021      0.00000
     90      16.9746      0.00000
     91      17.1612      0.00000
     92      17.3039      0.00000
     93      17.5218      0.00000
     94      17.7983      0.00000
     95      17.9650      0.00000
     96      18.2743      0.00000
     97      18.3869      0.00000
     98      18.6307      0.00000
     99      18.8553      0.00000
    100      19.0255      0.00000
    101      19.1959      0.00000
    102      19.3499      0.00000
    103      19.7225      0.00000
    104      20.1367      0.00000
    105      20.2819      0.00000
    106      20.4827      0.00000
    107      20.7657      0.00000
    108      20.9200      0.00000
    109      21.1533      0.00000
    110      21.2542      0.00000
    111      21.5485      0.00000
    112      21.8226      0.00000
    113      22.2168      0.00000
    114      22.4054      0.00000
    115      22.5544      0.00000
    116      22.8034      0.00000
    117      22.9913      0.00000
    118      23.2920      0.00000
    119      23.5740      0.00000
    120      23.7101      0.00000
    121      23.9296      0.00000
    122      24.0528      0.00000
    123      24.1313      0.00000
    124      24.4959      0.00000
    125      24.8720      0.00000
    126      25.0651      0.00000
    127      25.1996      0.00000
    128      25.3633      0.00000
    129      25.5932      0.00000
    130      25.8732      0.00000
    131      26.1240      0.00000
    132      26.3132      0.00000
    133      26.4439      0.00000
    134      26.5984      0.00000
    135      26.7232      0.00000
    136      26.9855      0.00000
    137      27.1667      0.00000
    138      27.2548      0.00000
    139      27.6860      0.00000
    140      27.7663      0.00000

 k-point    38 :      -0.4286    0.0000    0.2857
  band No.  band energies     occupation 
      1     -25.4528      2.00000
      2     -25.4497      2.00000
      3     -25.4387      2.00000
      4     -25.4383      2.00000
      5     -25.4089      2.00000
      6     -25.4087      2.00000
      7     -25.3864      2.00000
      8     -25.3860      2.00000
      9     -25.3810      2.00000
     10     -25.3805      2.00000
     11     -12.5074      2.00000
     12     -11.8494      2.00000
     13     -11.3612      2.00000
     14     -11.1645      2.00000
     15     -11.0700      2.00000
     16     -10.9037      2.00000
     17      -6.1779      2.00000
     18      -5.5303      2.00000
     19      -2.7644      2.00000
     20      -2.3535      2.00000
     21      -2.2164      2.00000
     22      -1.6764      2.00000
     23      -1.4675      2.00000
     24      -1.3103      2.00000
     25      -1.1505      2.00000
     26      -1.0076      2.00000
     27      -0.8436      2.00000
     28      -0.7056      2.00000
     29      -0.6909      2.00000
     30      -0.5781      2.00000
     31      -0.5584      2.00000
     32      -0.5139      2.00000
     33      -0.4441      2.00000
     34      -0.3909      2.00000
     35       0.4317      2.00000
     36       0.5057      2.00000
     37       0.5881      2.00000
     38       0.5974      2.00000
     39       0.6167      2.00000
     40       0.6533      2.00000
     41       0.6880      2.00000
     42       0.7122      2.00000
     43       0.9891      2.00000
     44       1.0341      2.00000
     45       1.2731      2.00000
     46       1.3483      2.00000
     47       1.4353      2.00000
     48       1.5752      2.00000
     49       1.7407      2.00000
     50       1.8466      2.00000
     51       2.1973      2.00000
     52       2.3138      2.00000
     53       2.6985      2.00000
     54       3.0355      2.00000
     55       5.0052      0.00000
     56       5.3543      0.00000
     57       6.3084      0.00000
     58       6.7817      0.00000
     59       7.1926      0.00000
     60       7.5031      0.00000
     61       7.8874      0.00000
     62       8.2533      0.00000
     63       8.7119      0.00000
     64       8.9996      0.00000
     65       9.3972      0.00000
     66       9.7151      0.00000
     67      10.0325      0.00000
     68      10.1994      0.00000
     69      10.3110      0.00000
     70      10.5960      0.00000
     71      10.8955      0.00000
     72      11.1119      0.00000
     73      11.8400      0.00000
     74      12.3289      0.00000
     75      12.5395      0.00000
     76      12.7203      0.00000
     77      13.0591      0.00000
     78      13.5017      0.00000
     79      13.9490      0.00000
     80      14.1443      0.00000
     81      14.4402      0.00000
     82      14.7412      0.00000
     83      14.9457      0.00000
     84      15.2309      0.00000
     85      15.4196      0.00000
     86      15.9368      0.00000
     87      16.0287      0.00000
     88      16.3573      0.00000
     89      16.5688      0.00000
     90      16.8611      0.00000
     91      17.2008      0.00000
     92      17.3198      0.00000
     93      17.5485      0.00000
     94      17.6000      0.00000
     95      18.0012      0.00000
     96      18.0928      0.00000
     97      18.3786      0.00000
     98      18.6038      0.00000
     99      18.7293      0.00000
    100      18.7822      0.00000
    101      19.0730      0.00000
    102      19.1309      0.00000
    103      19.2275      0.00000
    104      19.5261      0.00000
    105      20.1474      0.00000
    106      20.4976      0.00000
    107      20.7652      0.00000
    108      20.9645      0.00000
    109      21.0650      0.00000
    110      21.2382      0.00000
    111      21.5280      0.00000
    112      21.6624      0.00000
    113      22.1395      0.00000
    114      22.2520      0.00000
    115      22.4541      0.00000
    116      22.6897      0.00000
    117      23.2947      0.00000
    118      23.3148      0.00000
    119      23.6554      0.00000
    120      23.9788      0.00000
    121      24.1540      0.00000
    122      24.2206      0.00000
    123      24.3573      0.00000
    124      24.6887      0.00000
    125      24.8615      0.00000
    126      25.1631      0.00000
    127      25.2285      0.00000
    128      25.4648      0.00000
    129      25.6764      0.00000
    130      25.8232      0.00000
    131      26.0272      0.00000
    132      26.1725      0.00000
    133      26.3095      0.00000
    134      26.6353      0.00000
    135      26.7957      0.00000
    136      26.9818      0.00000
    137      27.1844      0.00000
    138      27.3513      0.00000
    139      27.5832      0.00000
    140      27.6848      0.00000

 k-point    39 :      -0.2857    0.0000    0.2857
  band No.  band energies     occupation 
      1     -25.4529      2.00000
      2     -25.4497      2.00000
      3     -25.4388      2.00000
      4     -25.4383      2.00000
      5     -25.4090      2.00000
      6     -25.4088      2.00000
      7     -25.3865      2.00000
      8     -25.3861      2.00000
      9     -25.3811      2.00000
     10     -25.3806      2.00000
     11     -12.6132      2.00000
     12     -11.8285      2.00000
     13     -11.3279      2.00000
     14     -11.1375      2.00000
     15     -10.9954      2.00000
     16     -10.8684      2.00000
     17      -6.2065      2.00000
     18      -5.6423      2.00000
     19      -2.7841      2.00000
     20      -2.5478      2.00000
     21      -2.2327      2.00000
     22      -1.6868      2.00000
     23      -1.3470      2.00000
     24      -1.2433      2.00000
     25      -1.1914      2.00000
     26      -1.0077      2.00000
     27      -0.8711      2.00000
     28      -0.7507      2.00000
     29      -0.6464      2.00000
     30      -0.6112      2.00000
     31      -0.5986      2.00000
     32      -0.5334      2.00000
     33      -0.4387      2.00000
     34      -0.3951      2.00000
     35       0.4803      2.00000
     36       0.5098      2.00000
     37       0.5883      2.00000
     38       0.6005      2.00000
     39       0.6062      2.00000
     40       0.6325      2.00000
     41       0.6549      2.00000
     42       0.7313      2.00000
     43       0.8987      2.00000
     44       1.0999      2.00000
     45       1.1439      2.00000
     46       1.3682      2.00000
     47       1.4721      2.00000
     48       1.7146      2.00000
     49       1.8492      2.00000
     50       1.9696      2.00000
     51       2.2055      2.00000
     52       2.3817      2.00000
     53       2.8823      2.00000
     54       2.9539      2.00000
     55       5.0112      0.00000
     56       5.2947      0.00000
     57       6.5698      0.00000
     58       6.7449      0.00000
     59       6.9982      0.00000
     60       7.3200      0.00000
     61       8.0537      0.00000
     62       8.3610      0.00000
     63       8.7656      0.00000
     64       9.0419      0.00000
     65       9.3722      0.00000
     66       9.7065      0.00000
     67       9.8194      0.00000
     68      10.0886      0.00000
     69      10.2817      0.00000
     70      10.7033      0.00000
     71      11.2293      0.00000
     72      11.4826      0.00000
     73      11.9153      0.00000
     74      12.0184      0.00000
     75      12.2199      0.00000
     76      12.6888      0.00000
     77      12.9786      0.00000
     78      13.2306      0.00000
     79      14.0894      0.00000
     80      14.4538      0.00000
     81      14.7350      0.00000
     82      14.8448      0.00000
     83      15.0192      0.00000
     84      15.2135      0.00000
     85      15.5157      0.00000
     86      15.6836      0.00000
     87      15.8096      0.00000
     88      16.1564      0.00000
     89      16.5790      0.00000
     90      16.6157      0.00000
     91      16.9704      0.00000
     92      17.0908      0.00000
     93      17.4539      0.00000
     94      17.6730      0.00000
     95      17.7898      0.00000
     96      18.0646      0.00000
     97      18.2240      0.00000
     98      18.4266      0.00000
     99      18.5494      0.00000
    100      18.7422      0.00000
    101      18.9520      0.00000
    102      19.0939      0.00000
    103      19.2246      0.00000
    104      19.3561      0.00000
    105      19.5240      0.00000
    106      19.8651      0.00000
    107      20.1422      0.00000
    108      20.6441      0.00000
    109      20.7943      0.00000
    110      21.2838      0.00000
    111      22.0823      0.00000
    112      22.3034      0.00000
    113      22.8369      0.00000
    114      23.0058      0.00000
    115      23.1634      0.00000
    116      23.2697      0.00000
    117      23.5475      0.00000
    118      23.6301      0.00000
    119      23.7446      0.00000
    120      23.9128      0.00000
    121      24.1005      0.00000
    122      24.2138      0.00000
    123      24.4286      0.00000
    124      24.7455      0.00000
    125      24.8435      0.00000
    126      25.3940      0.00000
    127      25.6702      0.00000
    128      25.8212      0.00000
    129      26.0096      0.00000
    130      26.1660      0.00000
    131      26.3003      0.00000
    132      26.4653      0.00000
    133      26.6271      0.00000
    134      26.7396      0.00000
    135      26.8351      0.00000
    136      26.8970      0.00000
    137      27.0819      0.00000
    138      27.1884      0.00000
    139      27.3505      0.00000
    140      27.6086      0.00000

 k-point    40 :      -0.1429    0.0000    0.2857
  band No.  band energies     occupation 
      1     -25.4529      2.00000
      2     -25.4497      2.00000
      3     -25.4388      2.00000
      4     -25.4383      2.00000
      5     -25.4091      2.00000
      6     -25.4088      2.00000
      7     -25.3866      2.00000
      8     -25.3861      2.00000
      9     -25.3812      2.00000
     10     -25.3807      2.00000
     11     -12.6850      2.00000
     12     -11.8751      2.00000
     13     -11.2875      2.00000
     14     -11.1242      2.00000
     15     -10.8873      2.00000
     16     -10.8250      2.00000
     17      -6.2246      2.00000
     18      -5.7113      2.00000
     19      -2.6899      2.00000
     20      -2.5851      2.00000
     21      -2.1732      2.00000
     22      -1.8956      2.00000
     23      -1.5266      2.00000
     24      -1.3571      2.00000
     25      -1.2300      2.00000
     26      -1.0894      2.00000
     27      -0.8268      2.00000
     28      -0.7277      2.00000
     29      -0.6420      2.00000
     30      -0.6121      2.00000
     31      -0.5750      2.00000
     32      -0.5327      2.00000
     33      -0.4280      2.00000
     34      -0.4134      2.00000
     35       0.5255      2.00000
     36       0.5504      2.00000
     37       0.5800      2.00000
     38       0.6023      2.00000
     39       0.6145      2.00000
     40       0.6290      2.00000
     41       0.6645      2.00000
     42       0.7615      2.00000
     43       0.8569      2.00000
     44       0.9434      2.00000
     45       1.0585      2.00000
     46       1.2847      2.00000
     47       1.3874      2.00000
     48       1.7553      2.00000
     49       1.9482      2.00000
     50       2.2611      2.00000
     51       2.3998      2.00000
     52       2.4926      2.00000
     53       2.8903      2.00000
     54       3.1246      2.00000
     55       4.9983      0.00000
     56       5.2039      0.00000
     57       6.4972      0.00000
     58       6.6084      0.00000
     59       7.1694      0.00000
     60       7.4255      0.00000
     61       8.3807      0.00000
     62       8.6471      0.00000
     63       8.8361      0.00000
     64       9.3204      0.00000
     65       9.3957      0.00000
     66       9.5657      0.00000
     67       9.7387      0.00000
     68      10.1693      0.00000
     69      10.3694      0.00000
     70      10.7366      0.00000
     71      11.4426      0.00000
     72      11.8877      0.00000
     73      11.9722      0.00000
     74      12.2201      0.00000
     75      12.3392      0.00000
     76      12.6186      0.00000
     77      12.7817      0.00000
     78      13.4572      0.00000
     79      13.5513      0.00000
     80      13.9214      0.00000
     81      14.1966      0.00000
     82      14.3291      0.00000
     83      14.4555      0.00000
     84      14.8010      0.00000
     85      14.9885      0.00000
     86      15.3050      0.00000
     87      15.4124      0.00000
     88      15.9407      0.00000
     89      16.1411      0.00000
     90      16.3254      0.00000
     91      16.5477      0.00000
     92      16.8755      0.00000
     93      17.0539      0.00000
     94      17.2666      0.00000
     95      17.6932      0.00000
     96      18.0664      0.00000
     97      18.2830      0.00000
     98      18.5006      0.00000
     99      18.8720      0.00000
    100      19.1867      0.00000
    101      19.2357      0.00000
    102      19.4094      0.00000
    103      19.8944      0.00000
    104      20.1657      0.00000
    105      20.3924      0.00000
    106      20.6842      0.00000
    107      20.8082      0.00000
    108      21.1631      0.00000
    109      21.3335      0.00000
    110      21.8374      0.00000
    111      21.9192      0.00000
    112      22.1100      0.00000
    113      22.4407      0.00000
    114      22.6296      0.00000
    115      22.8503      0.00000
    116      23.0586      0.00000
    117      23.2327      0.00000
    118      23.5036      0.00000
    119      23.6280      0.00000
    120      23.9036      0.00000
    121      24.0953      0.00000
    122      24.1865      0.00000
    123      24.5198      0.00000
    124      24.9937      0.00000
    125      25.1041      0.00000
    126      25.2466      0.00000
    127      25.5912      0.00000
    128      25.7881      0.00000
    129      25.8821      0.00000
    130      26.1834      0.00000
    131      26.3333      0.00000
    132      26.5344      0.00000
    133      26.7449      0.00000
    134      26.9499      0.00000
    135      27.0601      0.00000
    136      27.3285      0.00000
    137      27.5490      0.00000
    138      27.7408      0.00000
    139      28.0261      0.00000
    140      28.0818      0.00000

 k-point    41 :       0.0000    0.2500    0.2857
  band No.  band energies     occupation 
      1     -25.4529      2.00000
      2     -25.4498      2.00000
      3     -25.4388      2.00000
      4     -25.4383      2.00000
      5     -25.4091      2.00000
      6     -25.4088      2.00000
      7     -25.3865      2.00000
      8     -25.3861      2.00000
      9     -25.3811      2.00000
     10     -25.3806      2.00000
     11     -12.6365      2.00000
     12     -11.8348      2.00000
     13     -11.3209      2.00000
     14     -11.1324      2.00000
     15     -10.9656      2.00000
     16     -10.8560      2.00000
     17      -6.2131      2.00000
     18      -5.6667      2.00000
     19      -2.7683      2.00000
     20      -2.5749      2.00000
     21      -2.2193      2.00000
     22      -1.7479      2.00000
     23      -1.3821      2.00000
     24      -1.2474      2.00000
     25      -1.1765      2.00000
     26      -1.0077      2.00000
     27      -0.8773      2.00000
     28      -0.7593      2.00000
     29      -0.6496      2.00000
     30      -0.6092      2.00000
     31      -0.5906      2.00000
     32      -0.5357      2.00000
     33      -0.4380      2.00000
     34      -0.3990      2.00000
     35       0.4972      2.00000
     36       0.5161      2.00000
     37       0.5834      2.00000
     38       0.5995      2.00000
     39       0.6060      2.00000
     40       0.6334      2.00000
     41       0.6545      2.00000
     42       0.7394      2.00000
     43       0.8811      2.00000
     44       1.0601      2.00000
     45       1.1320      2.00000
     46       1.3547      2.00000
     47       1.4928      2.00000
     48       1.7028      2.00000
     49       1.8787      2.00000
     50       2.0305      2.00000
     51       2.2489      2.00000
     52       2.4009      2.00000
     53       2.9210      2.00000
     54       2.9510      2.00000
     55       5.0191      0.00000
     56       5.2841      0.00000
     57       6.5478      0.00000
     58       6.7643      0.00000
     59       7.0014      0.00000
     60       7.3109      0.00000
     61       8.1158      0.00000
     62       8.4427      0.00000
     63       8.8044      0.00000
     64       9.0761      0.00000
     65       9.3828      0.00000
     66       9.6788      0.00000
     67       9.7787      0.00000
     68      10.0828      0.00000
     69      10.2429      0.00000
     70      10.7423      0.00000
     71      11.3272      0.00000
     72      11.5792      0.00000
     73      11.8924      0.00000
     74      12.0828      0.00000
     75      12.1992      0.00000
     76      12.6517      0.00000
     77      12.8991      0.00000
     78      13.2634      0.00000
     79      13.9494      0.00000
     80      14.4225      0.00000
     81      14.6767      0.00000
     82      14.7699      0.00000
     83      14.9348      0.00000
     84      15.0456      0.00000
     85      15.4732      0.00000
     86      15.6684      0.00000
     87      15.7722      0.00000
     88      16.1374      0.00000
     89      16.4294      0.00000
     90      16.5699      0.00000
     91      16.8805      0.00000
     92      17.0346      0.00000
     93      17.3278      0.00000
     94      17.6433      0.00000
     95      17.7845      0.00000
     96      18.0244      0.00000
     97      18.2034      0.00000
     98      18.4780      0.00000
     99      18.5671      0.00000
    100      18.7084      0.00000
    101      19.0034      0.00000
    102      19.1128      0.00000
    103      19.2155      0.00000
    104      19.3896      0.00000
    105      19.7272      0.00000
    106      19.8648      0.00000
    107      20.2134      0.00000
    108      20.7468      0.00000
    109      21.0905      0.00000
    110      21.3478      0.00000
    111      22.0628      0.00000
    112      22.3844      0.00000
    113      22.7570      0.00000
    114      22.9347      0.00000
    115      23.2347      0.00000
    116      23.3240      0.00000
    117      23.5748      0.00000
    118      23.8036      0.00000
    119      23.8807      0.00000
    120      23.9939      0.00000
    121      24.0763      0.00000
    122      24.1909      0.00000
    123      24.3255      0.00000
    124      24.6303      0.00000
    125      24.7568      0.00000
    126      25.5470      0.00000
    127      25.6795      0.00000
    128      25.7681      0.00000
    129      25.9789      0.00000
    130      26.2263      0.00000
    131      26.3200      0.00000
    132      26.4981      0.00000
    133      26.6034      0.00000
    134      26.7004      0.00000
    135      26.8002      0.00000
    136      26.9638      0.00000
    137      27.1727      0.00000
    138      27.3072      0.00000
    139      27.6104      0.00000
    140      27.8594      0.00000

 k-point    42 :       0.1429    0.2500    0.2857
  band No.  band energies     occupation 
      1     -25.4528      2.00000
      2     -25.4497      2.00000
      3     -25.4387      2.00000
      4     -25.4383      2.00000
      5     -25.4091      2.00000
      6     -25.4088      2.00000
      7     -25.3865      2.00000
      8     -25.3861      2.00000
      9     -25.3811      2.00000
     10     -25.3806      2.00000
     11     -12.6318      2.00000
     12     -11.8753      2.00000
     13     -11.3569      2.00000
     14     -11.1184      2.00000
     15     -10.9195      2.00000
     16     -10.8284      2.00000
     17      -6.2077      2.00000
     18      -5.6623      2.00000
     19      -2.7070      2.00000
     20      -2.5278      2.00000
     21      -2.0650      2.00000
     22      -1.9494      2.00000
     23      -1.4984      2.00000
     24      -1.3465      2.00000
     25      -1.1647      2.00000
     26      -1.0547      2.00000
     27      -0.9089      2.00000
     28      -0.7791      2.00000
     29      -0.6182      2.00000
     30      -0.5910      2.00000
     31      -0.5756      2.00000
     32      -0.5237      2.00000
     33      -0.4173      2.00000
     34      -0.3975      2.00000
     35       0.5029      2.00000
     36       0.5315      2.00000
     37       0.5724      2.00000
     38       0.6004      2.00000
     39       0.6230      2.00000
     40       0.6364      2.00000
     41       0.6608      2.00000
     42       0.7803      2.00000
     43       0.8974      2.00000
     44       0.9962      2.00000
     45       1.0894      2.00000
     46       1.2469      2.00000
     47       1.5178      2.00000
     48       1.6603      2.00000
     49       1.8391      2.00000
     50       2.0823      2.00000
     51       2.2048      2.00000
     52       2.4113      2.00000
     53       2.8157      2.00000
     54       3.1671      2.00000
     55       4.9920      0.00000
     56       5.3507      0.00000
     57       6.6190      0.00000
     58       6.8386      0.00000
     59       7.1501      0.00000
     60       7.6079      0.00000
     61       8.0387      0.00000
     62       8.5681      0.00000
     63       8.9672      0.00000
     64       9.1496      0.00000
     65       9.4252      0.00000
     66       9.6148      0.00000
     67       9.7501      0.00000
     68      10.1050      0.00000
     69      10.2683      0.00000
     70      10.8432      0.00000
     71      11.2629      0.00000
     72      11.4639      0.00000
     73      11.6737      0.00000
     74      12.1988      0.00000
     75      12.3296      0.00000
     76      12.5029      0.00000
     77      12.9001      0.00000
     78      13.3846      0.00000
     79      13.5721      0.00000
     80      14.1471      0.00000
     81      14.3586      0.00000
     82      14.4703      0.00000
     83      14.6943      0.00000
     84      14.7833      0.00000
     85      15.1709      0.00000
     86      15.6255      0.00000
     87      15.8314      0.00000
     88      16.1412      0.00000
     89      16.2145      0.00000
     90      16.5268      0.00000
     91      16.6022      0.00000
     92      17.0298      0.00000
     93      17.2672      0.00000
     94      17.4843      0.00000
     95      17.6833      0.00000
     96      17.8977      0.00000
     97      18.3468      0.00000
     98      18.6853      0.00000
     99      18.7816      0.00000
    100      18.8872      0.00000
    101      19.1660      0.00000
    102      19.6016      0.00000
    103      19.7810      0.00000
    104      19.8714      0.00000
    105      20.0924      0.00000
    106      20.4240      0.00000
    107      20.5760      0.00000
    108      21.0181      0.00000
    109      21.2228      0.00000
    110      21.7290      0.00000
    111      22.0627      0.00000
    112      22.2945      0.00000
    113      22.4841      0.00000
    114      22.5898      0.00000
    115      22.8707      0.00000
    116      23.0726      0.00000
    117      23.2089      0.00000
    118      23.3322      0.00000
    119      23.6224      0.00000
    120      23.7387      0.00000
    121      23.9736      0.00000
    122      24.0251      0.00000
    123      24.7086      0.00000
    124      24.8541      0.00000
    125      24.9696      0.00000
    126      25.2682      0.00000
    127      25.3556      0.00000
    128      25.6709      0.00000
    129      25.7693      0.00000
    130      26.0111      0.00000
    131      26.2069      0.00000
    132      26.4897      0.00000
    133      26.7716      0.00000
    134      26.9558      0.00000
    135      27.0582      0.00000
    136      27.4945      0.00000
    137      27.6290      0.00000
    138      27.7418      0.00000
    139      27.8365      0.00000
    140      28.0848      0.00000

 k-point    43 :       0.2857    0.2500    0.2857
  band No.  band energies     occupation 
      1     -25.4528      2.00000
      2     -25.4497      2.00000
      3     -25.4387      2.00000
      4     -25.4383      2.00000
      5     -25.4091      2.00000
      6     -25.4088      2.00000
      7     -25.3865      2.00000
      8     -25.3861      2.00000
      9     -25.3811      2.00000
     10     -25.3806      2.00000
     11     -12.5616      2.00000
     12     -11.9019      2.00000
     13     -11.3934      2.00000
     14     -11.1556      2.00000
     15     -10.9513      2.00000
     16     -10.8195      2.00000
     17      -6.1879      2.00000
     18      -5.5657      2.00000
     19      -2.6322      2.00000
     20      -2.3969      2.00000
     21      -2.2087      2.00000
     22      -1.6872      2.00000
     23      -1.5719      2.00000
     24      -1.3580      2.00000
     25      -1.2098      2.00000
     26      -1.1069      2.00000
     27      -0.9134      2.00000
     28      -0.8597      2.00000
     29      -0.6266      2.00000
     30      -0.5994      2.00000
     31      -0.5579      2.00000
     32      -0.5034      2.00000
     33      -0.4419      2.00000
     34      -0.3793      2.00000
     35       0.5035      2.00000
     36       0.5297      2.00000
     37       0.5624      2.00000
     38       0.5973      2.00000
     39       0.6267      2.00000
     40       0.6388      2.00000
     41       0.6642      2.00000
     42       0.7282      2.00000
     43       0.9537      2.00000
     44       1.0550      2.00000
     45       1.1504      2.00000
     46       1.2164      2.00000
     47       1.4183      2.00000
     48       1.5963      2.00000
     49       1.7145      2.00000
     50       1.8828      2.00000
     51       2.3424      2.00000
     52       2.4232      2.00000
     53       2.5916      2.00000
     54       2.8450      2.00000
     55       5.2232      0.00000
     56       5.5627      0.00000
     57       6.8556      0.00000
     58       6.9221      0.00000
     59       7.2984      0.00000
     60       7.8860      0.00000
     61       8.1086      0.00000
     62       8.4670      0.00000
     63       8.9068      0.00000
     64       9.1227      0.00000
     65       9.4626      0.00000
     66       9.8368      0.00000
     67      10.0275      0.00000
     68      10.1006      0.00000
     69      10.3135      0.00000
     70      10.7040      0.00000
     71      11.0723      0.00000
     72      11.4052      0.00000
     73      11.5286      0.00000
     74      11.7363      0.00000
     75      11.9634      0.00000
     76      12.3418      0.00000
     77      12.7266      0.00000
     78      13.2284      0.00000
     79      13.4980      0.00000
     80      13.8540      0.00000
     81      14.0826      0.00000
     82      14.4923      0.00000
     83      14.6669      0.00000
     84      15.0644      0.00000
     85      15.2971      0.00000
     86      15.5822      0.00000
     87      16.1007      0.00000
     88      16.2261      0.00000
     89      16.7388      0.00000
     90      16.8349      0.00000
     91      17.0561      0.00000
     92      17.2855      0.00000
     93      17.4240      0.00000
     94      17.7257      0.00000
     95      17.8854      0.00000
     96      18.0303      0.00000
     97      18.1612      0.00000
     98      18.4941      0.00000
     99      18.7001      0.00000
    100      18.7881      0.00000
    101      19.1117      0.00000
    102      19.2832      0.00000
    103      19.4749      0.00000
    104      20.0067      0.00000
    105      20.3412      0.00000
    106      20.6278      0.00000
    107      20.8190      0.00000
    108      21.0295      0.00000
    109      21.2368      0.00000
    110      21.4538      0.00000
    111      21.8336      0.00000
    112      22.1544      0.00000
    113      22.2628      0.00000
    114      22.5058      0.00000
    115      22.6265      0.00000
    116      22.9005      0.00000
    117      23.3506      0.00000
    118      23.5196      0.00000
    119      23.6248      0.00000
    120      23.7687      0.00000
    121      24.1833      0.00000
    122      24.3566      0.00000
    123      24.5053      0.00000
    124      24.8459      0.00000
    125      25.0828      0.00000
    126      25.2127      0.00000
    127      25.4622      0.00000
    128      25.5523      0.00000
    129      25.8026      0.00000
    130      25.9496      0.00000
    131      26.1112      0.00000
    132      26.4258      0.00000
    133      26.5148      0.00000
    134      26.8804      0.00000
    135      26.9527      0.00000
    136      27.2848      0.00000
    137      27.4754      0.00000
    138      27.7645      0.00000
    139      27.8890      0.00000
    140      27.9630      0.00000

 k-point    44 :       0.4286    0.2500    0.2857
  band No.  band energies     occupation 
      1     -25.4528      2.00000
      2     -25.4497      2.00000
      3     -25.4387      2.00000
      4     -25.4383      2.00000
      5     -25.4090      2.00000
      6     -25.4088      2.00000
      7     -25.3865      2.00000
      8     -25.3861      2.00000
      9     -25.3811      2.00000
     10     -25.3806      2.00000
     11     -12.4659      2.00000
     12     -11.8975      2.00000
     13     -11.4133      2.00000
     14     -11.2237      2.00000
     15     -11.0338      2.00000
     16     -10.8318      2.00000
     17      -6.1641      2.00000
     18      -5.4367      2.00000
     19      -2.5574      2.00000
     20      -2.3487      2.00000
     21      -2.1332      2.00000
     22      -1.7743      2.00000
     23      -1.5177      2.00000
     24      -1.3548      2.00000
     25      -1.2286      2.00000
     26      -1.1505      2.00000
     27      -0.9775      2.00000
     28      -0.7412      2.00000
     29      -0.6546      2.00000
     30      -0.6106      2.00000
     31      -0.5392      2.00000
     32      -0.4814      2.00000
     33      -0.4360      2.00000
     34      -0.3846      2.00000
     35       0.5074      2.00000
     36       0.5187      2.00000
     37       0.5791      2.00000
     38       0.6030      2.00000
     39       0.6380      2.00000
     40       0.6632      2.00000
     41       0.6718      2.00000
     42       0.7299      2.00000
     43       0.9506      2.00000
     44       1.0270      2.00000
     45       1.0865      2.00000
     46       1.2838      2.00000
     47       1.4193      2.00000
     48       1.5578      2.00000
     49       1.6849      2.00000
     50       1.8908      2.00000
     51       2.1362      2.00000
     52       2.3531      2.00000
     53       2.5284      2.00000
     54       2.7227      2.00000
     55       5.2851      0.00000
     56       5.5673      0.00000
     57       6.6417      0.00000
     58       6.8428      0.00000
     59       7.3733      0.00000
     60       7.9057      0.00000
     61       8.0709      0.00000
     62       8.2928      0.00000
     63       9.0516      0.00000
     64       9.1652      0.00000
     65       9.4315      0.00000
     66       9.9658      0.00000
     67      10.1102      0.00000
     68      10.4280      0.00000
     69      10.5894      0.00000
     70      10.7903      0.00000
     71      11.0670      0.00000
     72      11.2220      0.00000
     73      11.5999      0.00000
     74      11.8779      0.00000
     75      12.1408      0.00000
     76      12.2728      0.00000
     77      12.6033      0.00000
     78      12.7858      0.00000
     79      13.1215      0.00000
     80      13.6448      0.00000
     81      14.0774      0.00000
     82      14.2798      0.00000
     83      14.5847      0.00000
     84      14.8733      0.00000
     85      15.5148      0.00000
     86      15.8042      0.00000
     87      15.9744      0.00000
     88      16.5322      0.00000
     89      16.8578      0.00000
     90      17.1273      0.00000
     91      17.3065      0.00000
     92      17.4593      0.00000
     93      17.5449      0.00000
     94      17.7845      0.00000
     95      18.1502      0.00000
     96      18.3783      0.00000
     97      18.5493      0.00000
     98      18.6574      0.00000
     99      18.9123      0.00000
    100      19.0639      0.00000
    101      19.1723      0.00000
    102      19.4044      0.00000
    103      19.4850      0.00000
    104      19.7537      0.00000
    105      20.0302      0.00000
    106      20.5165      0.00000
    107      20.6878      0.00000
    108      20.8190      0.00000
    109      20.9911      0.00000
    110      21.4509      0.00000
    111      21.7653      0.00000
    112      22.0002      0.00000
    113      22.2929      0.00000
    114      22.5964      0.00000
    115      22.9714      0.00000
    116      23.2031      0.00000
    117      23.2934      0.00000
    118      23.4828      0.00000
    119      23.5748      0.00000
    120      23.7537      0.00000
    121      24.0077      0.00000
    122      24.2344      0.00000
    123      24.2792      0.00000
    124      24.4408      0.00000
    125      24.5278      0.00000
    126      24.8479      0.00000
    127      25.0515      0.00000
    128      25.3272      0.00000
    129      25.5200      0.00000
    130      25.8723      0.00000
    131      25.9265      0.00000
    132      26.1075      0.00000
    133      26.2640      0.00000
    134      26.4213      0.00000
    135      26.5904      0.00000
    136      26.7613      0.00000
    137      27.1219      0.00000
    138      27.3040      0.00000
    139      27.6718      0.00000
    140      27.7663      0.00000

 k-point    45 :      -0.4286    0.2500    0.2857
  band No.  band energies     occupation 
      1     -25.4529      2.00000
      2     -25.4497      2.00000
      3     -25.4388      2.00000
      4     -25.4384      2.00000
      5     -25.4090      2.00000
      6     -25.4087      2.00000
      7     -25.3865      2.00000
      8     -25.3861      2.00000
      9     -25.3811      2.00000
     10     -25.3806      2.00000
     11     -12.4256      2.00000
     12     -11.8602      2.00000
     13     -11.3866      2.00000
     14     -11.2586      2.00000
     15     -11.1004      2.00000
     16     -10.8860      2.00000
     17      -6.1507      2.00000
     18      -5.3758      2.00000
     19      -2.5425      2.00000
     20      -2.2585      2.00000
     21      -2.1164      2.00000
     22      -1.9470      2.00000
     23      -1.6781      2.00000
     24      -1.3345      2.00000
     25      -1.1468      2.00000
     26      -1.0280      2.00000
     27      -0.9485      2.00000
     28      -0.6712      2.00000
     29      -0.6429      2.00000
     30      -0.5931      2.00000
     31      -0.5156      2.00000
     32      -0.4623      2.00000
     33      -0.4382      2.00000
     34      -0.4125      2.00000
     35       0.4991      2.00000
     36       0.5273      2.00000
     37       0.6069      2.00000
     38       0.6214      2.00000
     39       0.6467      2.00000
     40       0.6684      2.00000
     41       0.6779      2.00000
     42       0.7504      2.00000
     43       0.8313      2.00000
     44       0.9051      2.00000
     45       1.1656      2.00000
     46       1.3462      2.00000
     47       1.5403      2.00000
     48       1.6066      2.00000
     49       1.6649      2.00000
     50       1.6861      2.00000
     51       2.1632      2.00000
     52       2.3879      2.00000
     53       2.6455      2.00000
     54       2.7601      2.00000
     55       5.2099      0.00000
     56       5.3578      0.00000
     57       6.2747      0.00000
     58       6.5978      0.00000
     59       7.3298      0.00000
     60       7.6611      0.00000
     61       7.8425      0.00000
     62       8.1232      0.00000
     63       8.8779      0.00000
     64       8.9246      0.00000
     65       9.8965      0.00000
     66      10.1961      0.00000
     67      10.3204      0.00000
     68      10.5088      0.00000
     69      10.6348      0.00000
     70      10.9587      0.00000
     71      11.0654      0.00000
     72      11.7224      0.00000
     73      11.9695      0.00000
     74      12.2036      0.00000
     75      12.3661      0.00000
     76      12.5224      0.00000
     77      12.7707      0.00000
     78      13.0521      0.00000
     79      13.2848      0.00000
     80      13.4107      0.00000
     81      13.7632      0.00000
     82      13.9858      0.00000
     83      14.3368      0.00000
     84      14.7016      0.00000
     85      15.2798      0.00000
     86      15.4480      0.00000
     87      15.6986      0.00000
     88      16.0462      0.00000
     89      16.5276      0.00000
     90      16.7706      0.00000
     91      16.8928      0.00000
     92      17.1844      0.00000
     93      17.6039      0.00000
     94      18.1892      0.00000
     95      18.4057      0.00000
     96      18.8144      0.00000
     97      18.9259      0.00000
     98      19.1367      0.00000
     99      19.4405      0.00000
    100      19.6710      0.00000
    101      19.9609      0.00000
    102      20.0607      0.00000
    103      20.1893      0.00000
    104      20.3121      0.00000
    105      20.5988      0.00000
    106      20.7751      0.00000
    107      20.9090      0.00000
    108      21.0721      0.00000
    109      21.2095      0.00000
    110      21.4630      0.00000
    111      21.5210      0.00000
    112      21.6074      0.00000
    113      21.9475      0.00000
    114      22.0258      0.00000
    115      22.3383      0.00000
    116      22.4286      0.00000
    117      22.7166      0.00000
    118      22.8616      0.00000
    119      22.9153      0.00000
    120      23.1085      0.00000
    121      23.2842      0.00000
    122      23.4866      0.00000
    123      23.7451      0.00000
    124      24.0690      0.00000
    125      24.2212      0.00000
    126      24.4389      0.00000
    127      24.6598      0.00000
    128      24.8748      0.00000
    129      25.0043      0.00000
    130      25.7752      0.00000
    131      25.8141      0.00000
    132      26.1928      0.00000
    133      26.5534      0.00000
    134      26.7617      0.00000
    135      26.8845      0.00000
    136      27.2393      0.00000
    137      27.5673      0.00000
    138      27.7689      0.00000
    139      27.9743      0.00000
    140      28.1905      0.00000

 k-point    46 :      -0.2857    0.2500    0.2857
  band No.  band energies     occupation 
      1     -25.4529      2.00000
      2     -25.4498      2.00000
      3     -25.4388      2.00000
      4     -25.4384      2.00000
      5     -25.4090      2.00000
      6     -25.4088      2.00000
      7     -25.3865      2.00000
      8     -25.3861      2.00000
      9     -25.3811      2.00000
     10     -25.3806      2.00000
     11     -12.4817      2.00000
     12     -11.8208      2.00000
     13     -11.2955      2.00000
     14     -11.2498      2.00000
     15     -11.1064      2.00000
     16     -10.9438      2.00000
     17      -6.1641      2.00000
     18      -5.4401      2.00000
     19      -2.6152      2.00000
     20      -2.4650      2.00000
     21      -2.2000      2.00000
     22      -1.6901      2.00000
     23      -1.6106      2.00000
     24      -1.2674      2.00000
     25      -1.0644      2.00000
     26      -1.0355      2.00000
     27      -0.8855      2.00000
     28      -0.6493      2.00000
     29      -0.6243      2.00000
     30      -0.6029      2.00000
     31      -0.5552      2.00000
     32      -0.5312      2.00000
     33      -0.4356      2.00000
     34      -0.4203      2.00000
     35       0.4323      2.00000
     36       0.5604      2.00000
     37       0.6084      2.00000
     38       0.6167      2.00000
     39       0.6361      2.00000
     40       0.6538      2.00000
     41       0.6644      2.00000
     42       0.7530      2.00000
     43       0.8709      2.00000
     44       0.8830      2.00000
     45       1.2378      2.00000
     46       1.3399      2.00000
     47       1.4536      2.00000
     48       1.6110      2.00000
     49       1.7194      2.00000
     50       1.9337      2.00000
     51       2.1022      2.00000
     52       2.5280      2.00000
     53       2.6205      2.00000
     54       2.7939      2.00000
     55       5.1755      0.00000
     56       5.2669      0.00000
     57       6.2373      0.00000
     58       6.5129      0.00000
     59       7.2076      0.00000
     60       7.4870      0.00000
     61       7.8523      0.00000
     62       8.1845      0.00000
     63       8.5457      0.00000
     64       8.6661      0.00000
     65       9.6893      0.00000
     66      10.1048      0.00000
     67      10.3369      0.00000
     68      10.4150      0.00000
     69      10.5552      0.00000
     70      11.0507      0.00000
     71      11.3407      0.00000
     72      11.7712      0.00000
     73      12.0584      0.00000
     74      12.1271      0.00000
     75      12.5543      0.00000
     76      12.7201      0.00000
     77      12.9546      0.00000
     78      13.1793      0.00000
     79      13.3050      0.00000
     80      13.9506      0.00000
     81      14.1251      0.00000
     82      14.2760      0.00000
     83      14.5663      0.00000
     84      14.6495      0.00000
     85      15.1914      0.00000
     86      15.3063      0.00000
     87      15.8957      0.00000
     88      15.9629      0.00000
     89      16.5389      0.00000
     90      16.7140      0.00000
     91      17.0402      0.00000
     92      17.2415      0.00000
     93      17.3671      0.00000
     94      17.6610      0.00000
     95      17.8749      0.00000
     96      18.6171      0.00000
     97      18.7536      0.00000
     98      19.0565      0.00000
     99      19.2087      0.00000
    100      19.6652      0.00000
    101      19.8910      0.00000
    102      20.0338      0.00000
    103      20.3075      0.00000
    104      20.6251      0.00000
    105      20.7397      0.00000
    106      20.8185      0.00000
    107      21.0106      0.00000
    108      21.0874      0.00000
    109      21.1928      0.00000
    110      21.2579      0.00000
    111      21.4536      0.00000
    112      21.5569      0.00000
    113      21.7107      0.00000
    114      21.8206      0.00000
    115      22.0652      0.00000
    116      22.4180      0.00000
    117      22.6184      0.00000
    118      22.7057      0.00000
    119      22.8772      0.00000
    120      22.9989      0.00000
    121      23.2684      0.00000
    122      23.5908      0.00000
    123      23.7337      0.00000
    124      24.0384      0.00000
    125      24.2457      0.00000
    126      24.3856      0.00000
    127      24.4888      0.00000
    128      25.1498      0.00000
    129      25.4562      0.00000
    130      25.8037      0.00000
    131      25.9454      0.00000
    132      26.2709      0.00000
    133      26.9260      0.00000
    134      27.1499      0.00000
    135      27.3817      0.00000
    136      27.4629      0.00000
    137      27.6160      0.00000
    138      27.7573      0.00000
    139      28.0344      0.00000
    140      28.4976      0.00000

 k-point    47 :      -0.1429    0.2500    0.2857
  band No.  band energies     occupation 
      1     -25.4529      2.00000
      2     -25.4498      2.00000
      3     -25.4388      2.00000
      4     -25.4384      2.00000
      5     -25.4090      2.00000
      6     -25.4088      2.00000
      7     -25.3865      2.00000
      8     -25.3861      2.00000
      9     -25.3811      2.00000
     10     -25.3806      2.00000
     11     -12.5751      2.00000
     12     -11.8106      2.00000
     13     -11.2872      2.00000
     14     -11.1771      2.00000
     15     -11.0478      2.00000
     16     -10.9234      2.00000
     17      -6.1946      2.00000
     18      -5.5727      2.00000
     19      -2.7239      2.00000
     20      -2.5927      2.00000
     21      -2.2661      2.00000
     22      -1.5090      2.00000
     23      -1.3764      2.00000
     24      -1.2534      2.00000
     25      -1.1505      2.00000
     26      -1.0099      2.00000
     27      -0.8206      2.00000
     28      -0.7608      2.00000
     29      -0.6644      2.00000
     30      -0.6164      2.00000
     31      -0.5967      2.00000
     32      -0.5531      2.00000
     33      -0.4476      2.00000
     34      -0.4057      2.00000
     35       0.4403      2.00000
     36       0.5437      2.00000
     37       0.5936      2.00000
     38       0.6046      2.00000
     39       0.6055      2.00000
     40       0.6358      2.00000
     41       0.6694      2.00000
     42       0.7078      2.00000
     43       0.9190      2.00000
     44       1.0060      2.00000
     45       1.1320      2.00000
     46       1.3260      2.00000
     47       1.5977      2.00000
     48       1.7154      2.00000
     49       1.8234      2.00000
     50       1.9419      2.00000
     51       2.1921      2.00000
     52       2.4434      2.00000
     53       2.6224      2.00000
     54       2.8843      2.00000
     55       5.1305      0.00000
     56       5.2897      0.00000
     57       6.4869      0.00000
     58       6.6211      0.00000
     59       7.0514      0.00000
     60       7.3034      0.00000
     61       8.1517      0.00000
     62       8.3588      0.00000
     63       8.5785      0.00000
     64       8.7728      0.00000
     65       9.2189      0.00000
     66       9.7554      0.00000
     67      10.0882      0.00000
     68      10.2045      0.00000
     69      10.4243      0.00000
     70      10.8475      0.00000
     71      11.3685      0.00000
     72      11.6409      0.00000
     73      11.8601      0.00000
     74      12.1069      0.00000
     75      12.4060      0.00000
     76      12.5795      0.00000
     77      12.8091      0.00000
     78      13.2297      0.00000
     79      13.7371      0.00000
     80      14.4244      0.00000
     81      14.6276      0.00000
     82      14.8356      0.00000
     83      14.9939      0.00000
     84      15.2179      0.00000
     85      15.3588      0.00000
     86      15.6448      0.00000
     87      16.0295      0.00000
     88      16.2548      0.00000
     89      16.4678      0.00000
     90      16.7424      0.00000
     91      17.1946      0.00000
     92      17.2278      0.00000
     93      17.4827      0.00000
     94      17.7352      0.00000
     95      17.8467      0.00000
     96      18.1214      0.00000
     97      18.2448      0.00000
     98      18.4132      0.00000
     99      18.5883      0.00000
    100      18.7808      0.00000
    101      18.9668      0.00000
    102      19.2590      0.00000
    103      19.5582      0.00000
    104      19.6728      0.00000
    105      19.7475      0.00000
    106      19.9917      0.00000
    107      20.1639      0.00000
    108      20.6132      0.00000
    109      21.1630      0.00000
    110      21.6213      0.00000
    111      21.6747      0.00000
    112      22.0464      0.00000
    113      22.2676      0.00000
    114      22.5125      0.00000
    115      22.7130      0.00000
    116      22.7668      0.00000
    117      22.9996      0.00000
    118      23.4396      0.00000
    119      23.5884      0.00000
    120      23.6774      0.00000
    121      24.1777      0.00000
    122      24.3133      0.00000
    123      24.5433      0.00000
    124      24.7852      0.00000
    125      24.8448      0.00000
    126      25.1744      0.00000
    127      25.2574      0.00000
    128      25.5182      0.00000
    129      25.7323      0.00000
    130      25.9793      0.00000
    131      26.1535      0.00000
    132      26.3804      0.00000
    133      26.6042      0.00000
    134      26.7697      0.00000
    135      27.1261      0.00000
    136      27.3044      0.00000
    137      27.5048      0.00000
    138      27.7524      0.00000
    139      27.8934      0.00000
    140      28.0435      0.00000

 k-point    48 :       0.0000    0.5000    0.2857
  band No.  band energies     occupation 
      1     -25.4528      2.00000
      2     -25.4496      2.00000
      3     -25.4387      2.00000
      4     -25.4382      2.00000
      5     -25.4089      2.00000
      6     -25.4086      2.00000
      7     -25.3864      2.00000
      8     -25.3859      2.00000
      9     -25.3810      2.00000
     10     -25.3805      2.00000
     11     -12.4665      2.00000
     12     -11.8793      2.00000
     13     -11.3875      2.00000
     14     -11.1859      2.00000
     15     -11.0546      2.00000
     16     -10.9022      2.00000
     17      -6.1686      2.00000
     18      -5.4869      2.00000
     19      -2.7094      2.00000
     20      -2.2606      2.00000
     21      -2.1539      2.00000
     22      -1.7998      2.00000
     23      -1.5915      2.00000
     24      -1.2833      2.00000
     25      -1.1505      2.00000
     26      -1.0185      2.00000
     27      -0.8589      2.00000
     28      -0.7230      2.00000
     29      -0.6995      2.00000
     30      -0.5620      2.00000
     31      -0.5311      2.00000
     32      -0.5074      2.00000
     33      -0.4547      2.00000
     34      -0.3912      2.00000
     35       0.4451      2.00000
     36       0.5099      2.00000
     37       0.5707      2.00000
     38       0.6016      2.00000
     39       0.6234      2.00000
     40       0.6525      2.00000
     41       0.6765      2.00000
     42       0.7596      2.00000
     43       0.9544      2.00000
     44       1.0737      2.00000
     45       1.2602      2.00000
     46       1.3161      2.00000
     47       1.4078      2.00000
     48       1.5614      2.00000
     49       1.6980      2.00000
     50       1.8161      2.00000
     51       2.1697      2.00000
     52       2.2860      2.00000
     53       2.6751      2.00000
     54       3.0244      2.00000
     55       5.0525      0.00000
     56       5.4137      0.00000
     57       6.2534      0.00000
     58       6.8675      0.00000
     59       7.3114      0.00000
     60       7.6150      0.00000
     61       7.9445      0.00000
     62       8.2724      0.00000
     63       8.7741      0.00000
     64       9.0443      0.00000
     65       9.4702      0.00000
     66       9.7401      0.00000
     67       9.9125      0.00000
     68      10.1832      0.00000
     69      10.2934      0.00000
     70      10.6434      0.00000
     71      10.8313      0.00000
     72      11.0134      0.00000
     73      11.8287      0.00000
     74      12.2644      0.00000
     75      12.5446      0.00000
     76      12.8251      0.00000
     77      13.0640      0.00000
     78      13.4150      0.00000
     79      13.6920      0.00000
     80      13.9835      0.00000
     81      14.0864      0.00000
     82      14.5477      0.00000
     83      15.0101      0.00000
     84      15.0708      0.00000
     85      15.4221      0.00000
     86      15.9850      0.00000
     87      16.1681      0.00000
     88      16.3654      0.00000
     89      16.7230      0.00000
     90      16.9202      0.00000
     91      17.0876      0.00000
     92      17.3582      0.00000
     93      17.4742      0.00000
     94      17.8108      0.00000
     95      18.0111      0.00000
     96      18.0605      0.00000
     97      18.4515      0.00000
     98      18.6291      0.00000
     99      18.8542      0.00000
    100      18.9648      0.00000
    101      19.0716      0.00000
    102      19.4004      0.00000
    103      19.6981      0.00000
    104      19.8080      0.00000
    105      20.0057      0.00000
    106      20.5010      0.00000
    107      20.6406      0.00000
    108      20.8296      0.00000
    109      21.3951      0.00000
    110      21.4687      0.00000
    111      21.7117      0.00000
    112      22.0037      0.00000
    113      22.2004      0.00000
    114      22.3138      0.00000
    115      22.4026      0.00000
    116      22.5311      0.00000
    117      22.8177      0.00000
    118      23.1004      0.00000
    119      23.3485      0.00000
    120      23.4698      0.00000
    121      23.9150      0.00000
    122      24.2122      0.00000
    123      24.4326      0.00000
    124      24.5821      0.00000
    125      24.6393      0.00000
    126      25.0708      0.00000
    127      25.3467      0.00000
    128      25.4577      0.00000
    129      25.5910      0.00000
    130      25.8257      0.00000
    131      25.9648      0.00000
    132      26.2787      0.00000
    133      26.3997      0.00000
    134      26.6436      0.00000
    135      26.8338      0.00000
    136      26.9708      0.00000
    137      27.3021      0.00000
    138      27.4058      0.00000
    139      27.6658      0.00000
    140      27.8395      0.00000

 k-point    49 :       0.1429    0.5000    0.2857
  band No.  band energies     occupation 
      1     -25.4527      2.00000
      2     -25.4496      2.00000
      3     -25.4386      2.00000
      4     -25.4382      2.00000
      5     -25.4089      2.00000
      6     -25.4087      2.00000
      7     -25.3864      2.00000
      8     -25.3859      2.00000
      9     -25.3810      2.00000
     10     -25.3805      2.00000
     11     -12.4867      2.00000
     12     -11.8756      2.00000
     13     -11.3800      2.00000
     14     -11.1850      2.00000
     15     -11.0401      2.00000
     16     -10.8897      2.00000
     17      -6.1731      2.00000
     18      -5.5382      2.00000
     19      -2.7270      2.00000
     20      -2.3286      2.00000
     21      -2.1368      2.00000
     22      -1.8865      2.00000
     23      -1.5250      2.00000
     24      -1.4159      2.00000
     25      -1.1551      2.00000
     26      -1.0174      2.00000
     27      -0.7556      2.00000
     28      -0.6846      2.00000
     29      -0.6513      2.00000
     30      -0.5760      2.00000
     31      -0.5461      2.00000
     32      -0.5027      2.00000
     33      -0.4091      2.00000
     34      -0.3766      2.00000
     35       0.4251      2.00000
     36       0.5273      2.00000
     37       0.5904      2.00000
     38       0.6113      2.00000
     39       0.6192      2.00000
     40       0.6579      2.00000
     41       0.6983      2.00000
     42       0.7219      2.00000
     43       0.9132      2.00000
     44       1.1311      2.00000
     45       1.1665      2.00000
     46       1.3403      2.00000
     47       1.4423      2.00000
     48       1.5954      2.00000
     49       1.7025      2.00000
     50       1.8488      2.00000
     51       2.2469      2.00000
     52       2.5335      2.00000
     53       2.9125      2.00000
     54       3.0511      2.00000
     55       4.7370      0.00000
     56       5.2399      0.00000
     57       6.3152      0.00000
     58       6.6324      0.00000
     59       6.9979      0.00000
     60       7.4951      0.00000
     61       7.7605      0.00000
     62       8.0805      0.00000
     63       8.5543      0.00000
     64       9.0954      0.00000
     65       9.4366      0.00000
     66       9.6658      0.00000
     67      10.0868      0.00000
     68      10.3292      0.00000
     69      10.5540      0.00000
     70      10.7027      0.00000
     71      11.0378      0.00000
     72      11.4705      0.00000
     73      11.8468      0.00000
     74      12.2928      0.00000
     75      12.5283      0.00000
     76      12.8052      0.00000
     77      13.2136      0.00000
     78      13.7336      0.00000
     79      14.0163      0.00000
     80      14.0727      0.00000
     81      14.4267      0.00000
     82      14.5332      0.00000
     83      14.8454      0.00000
     84      14.9570      0.00000
     85      15.2490      0.00000
     86      15.4503      0.00000
     87      15.6273      0.00000
     88      16.3174      0.00000
     89      16.6481      0.00000
     90      16.8207      0.00000
     91      17.0350      0.00000
     92      17.1947      0.00000
     93      17.4616      0.00000
     94      17.6134      0.00000
     95      17.8122      0.00000
     96      18.1786      0.00000
     97      18.4026      0.00000
     98      18.7984      0.00000
     99      18.9979      0.00000
    100      19.1766      0.00000
    101      19.3045      0.00000
    102      19.5076      0.00000
    103      19.9460      0.00000
    104      20.0009      0.00000
    105      20.1947      0.00000
    106      20.5730      0.00000
    107      20.7059      0.00000
    108      20.9998      0.00000
    109      21.2717      0.00000
    110      21.3980      0.00000
    111      21.7150      0.00000
    112      21.9443      0.00000
    113      22.0910      0.00000
    114      22.3709      0.00000
    115      22.7214      0.00000
    116      23.0056      0.00000
    117      23.1105      0.00000
    118      23.2426      0.00000
    119      23.4905      0.00000
    120      23.6846      0.00000
    121      23.8662      0.00000
    122      23.9995      0.00000
    123      24.2247      0.00000
    124      24.3929      0.00000
    125      24.6088      0.00000
    126      24.6944      0.00000
    127      24.7716      0.00000
    128      24.9420      0.00000
    129      25.1232      0.00000
    130      25.3717      0.00000
    131      25.6799      0.00000
    132      25.7974      0.00000
    133      25.9325      0.00000
    134      26.1317      0.00000
    135      26.2519      0.00000
    136      26.5150      0.00000
    137      26.8830      0.00000
    138      27.0104      0.00000
    139      27.4448      0.00000
    140      27.7171      0.00000

 k-point    50 :       0.2857    0.5000    0.2857
  band No.  band energies     occupation 
      1     -25.4527      2.00000
      2     -25.4496      2.00000
      3     -25.4386      2.00000
      4     -25.4382      2.00000
      5     -25.4090      2.00000
      6     -25.4087      2.00000
      7     -25.3864      2.00000
      8     -25.3860      2.00000
      9     -25.3811      2.00000
     10     -25.3805      2.00000
     11     -12.4823      2.00000
     12     -11.8910      2.00000
     13     -11.4236      2.00000
     14     -11.1407      2.00000
     15     -11.0020      2.00000
     16     -10.9104      2.00000
     17      -6.1694      2.00000
     18      -5.5568      2.00000
     19      -2.6858      2.00000
     20      -2.3431      2.00000
     21      -2.1416      2.00000
     22      -1.8805      2.00000
     23      -1.5851      2.00000
     24      -1.4617      2.00000
     25      -1.1162      2.00000
     26      -0.9990      2.00000
     27      -0.7925      2.00000
     28      -0.7587      2.00000
     29      -0.6009      2.00000
     30      -0.5748      2.00000
     31      -0.5405      2.00000
     32      -0.4650      2.00000
     33      -0.4094      2.00000
     34      -0.3352      2.00000
     35       0.4108      2.00000
     36       0.5674      2.00000
     37       0.5874      2.00000
     38       0.6102      2.00000
     39       0.6291      2.00000
     40       0.6646      2.00000
     41       0.6823      2.00000
     42       0.7539      2.00000
     43       0.8483      2.00000
     44       1.0151      2.00000
     45       1.2464      2.00000
     46       1.3508      2.00000
     47       1.4304      2.00000
     48       1.6001      2.00000
     49       1.6849      2.00000
     50       1.8881      2.00000
     51       2.2863      2.00000
     52       2.6098      2.00000
     53       2.9111      2.00000
     54       3.0371      2.00000
     55       4.6409      0.00000
     56       5.2427      0.00000
     57       6.2560      0.00000
     58       6.8046      0.00000
     59       6.8658      0.00000
     60       7.3756      0.00000
     61       7.7702      0.00000
     62       8.0306      0.00000
     63       8.5707      0.00000
     64       9.2318      0.00000
     65       9.3043      0.00000
     66       9.6331      0.00000
     67      10.0777      0.00000
     68      10.2323      0.00000
     69      10.5385      0.00000
     70      10.9246      0.00000
     71      11.3878      0.00000
     72      11.5815      0.00000
     73      12.0232      0.00000
     74      12.2805      0.00000
     75      12.4580      0.00000
     76      12.8703      0.00000
     77      13.3338      0.00000
     78      13.6080      0.00000
     79      13.8923      0.00000
     80      14.0837      0.00000
     81      14.4289      0.00000
     82      14.6343      0.00000
     83      14.7762      0.00000
     84      14.8238      0.00000
     85      14.9482      0.00000
     86      15.3383      0.00000
     87      15.5477      0.00000
     88      16.0336      0.00000
     89      16.3496      0.00000
     90      16.7241      0.00000
     91      17.0009      0.00000
     92      17.1281      0.00000
     93      17.3571      0.00000
     94      17.6388      0.00000
     95      17.9313      0.00000
     96      18.2709      0.00000
     97      18.7048      0.00000
     98      18.8572      0.00000
     99      19.1444      0.00000
    100      19.3338      0.00000
    101      19.5051      0.00000
    102      19.6986      0.00000
    103      20.1177      0.00000
    104      20.2166      0.00000
    105      20.4502      0.00000
    106      20.7896      0.00000
    107      21.0066      0.00000
    108      21.0538      0.00000
    109      21.1786      0.00000
    110      21.3844      0.00000
    111      21.7663      0.00000
    112      21.9002      0.00000
    113      22.0952      0.00000
    114      22.3414      0.00000
    115      22.6010      0.00000
    116      22.7942      0.00000
    117      22.9365      0.00000
    118      23.0764      0.00000
    119      23.3660      0.00000
    120      23.5302      0.00000
    121      23.6453      0.00000
    122      23.9341      0.00000
    123      24.0312      0.00000
    124      24.1294      0.00000
    125      24.3040      0.00000
    126      24.4960      0.00000
    127      24.5473      0.00000
    128      24.7441      0.00000
    129      24.8706      0.00000
    130      25.1849      0.00000
    131      25.3641      0.00000
    132      25.6830      0.00000
    133      25.9887      0.00000
    134      26.3798      0.00000
    135      26.5028      0.00000
    136      26.7834      0.00000
    137      26.9609      0.00000
    138      27.1614      0.00000
    139      27.4664      0.00000
    140      27.5946      0.00000

 k-point    51 :       0.4286    0.5000    0.2857
  band No.  band energies     occupation 
      1     -25.4528      2.00000
      2     -25.4497      2.00000
      3     -25.4387      2.00000
      4     -25.4383      2.00000
      5     -25.4091      2.00000
      6     -25.4088      2.00000
      7     -25.3865      2.00000
      8     -25.3861      2.00000
      9     -25.3811      2.00000
     10     -25.3806      2.00000
     11     -12.4578      2.00000
     12     -11.9051      2.00000
     13     -11.4622      2.00000
     14     -11.1498      2.00000
     15     -11.0039      2.00000
     16     -10.8798      2.00000
     17      -6.1655      2.00000
     18      -5.5314      2.00000
     19      -2.6682      2.00000
     20      -2.3337      2.00000
     21      -2.0468      2.00000
     22      -1.8801      2.00000
     23      -1.5131      2.00000
     24      -1.3690      2.00000
     25      -1.1109      2.00000
     26      -1.0459      2.00000
     27      -0.9521      2.00000
     28      -0.8230      2.00000
     29      -0.6126      2.00000
     30      -0.5711      2.00000
     31      -0.5106      2.00000
     32      -0.4563      2.00000
     33      -0.4389      2.00000
     34      -0.3208      2.00000
     35       0.4349      2.00000
     36       0.5323      2.00000
     37       0.5689      2.00000
     38       0.5947      2.00000
     39       0.6483      2.00000
     40       0.6602      2.00000
     41       0.6851      2.00000
     42       0.6977      2.00000
     43       0.8731      2.00000
     44       1.0230      2.00000
     45       1.2711      2.00000
     46       1.3426      2.00000
     47       1.4455      2.00000
     48       1.5000      2.00000
     49       1.7647      2.00000
     50       1.9653      2.00000
     51       2.0620      2.00000
     52       2.5275      2.00000
     53       2.6309      2.00000
     54       2.7979      2.00000
     55       4.9597      0.00000
     56       5.5233      0.00000
     57       6.3377      0.00000
     58       7.0757      0.00000
     59       7.1156      0.00000
     60       7.3341      0.00000
     61       7.9955      0.00000
     62       8.1632      0.00000
     63       8.9160      0.00000
     64       9.1157      0.00000
     65       9.4511      0.00000
     66       9.5674      0.00000
     67       9.8636      0.00000
     68      10.1958      0.00000
     69      10.4692      0.00000
     70      10.5746      0.00000
     71      11.0116      0.00000
     72      11.2006      0.00000
     73      11.5201      0.00000
     74      12.5027      0.00000
     75      12.6807      0.00000
     76      12.9202      0.00000
     77      13.0964      0.00000
     78      13.5721      0.00000
     79      13.8806      0.00000
     80      13.9851      0.00000
     81      14.1726      0.00000
     82      14.4909      0.00000
     83      15.1408      0.00000
     84      15.2716      0.00000
     85      15.3213      0.00000
     86      15.5392      0.00000
     87      15.6644      0.00000
     88      15.9398      0.00000
     89      16.3126      0.00000
     90      16.4939      0.00000
     91      16.9642      0.00000
     92      17.1003      0.00000
     93      17.7285      0.00000
     94      17.8172      0.00000
     95      18.0123      0.00000
     96      18.4505      0.00000
     97      18.7021      0.00000
     98      18.8287      0.00000
     99      18.9498      0.00000
    100      19.1411      0.00000
    101      19.4927      0.00000
    102      19.6382      0.00000
    103      19.9912      0.00000
    104      20.2805      0.00000
    105      20.3600      0.00000
    106      20.4585      0.00000
    107      20.6950      0.00000
    108      20.9415      0.00000
    109      21.2122      0.00000
    110      21.2640      0.00000
    111      21.4844      0.00000
    112      21.6348      0.00000
    113      21.9461      0.00000
    114      22.1301      0.00000
    115      22.2773      0.00000
    116      22.4682      0.00000
    117      22.6638      0.00000
    118      22.9887      0.00000
    119      23.0912      0.00000
    120      23.4529      0.00000
    121      23.5831      0.00000
    122      23.8508      0.00000
    123      24.1647      0.00000
    124      24.3688      0.00000
    125      24.7618      0.00000
    126      25.0711      0.00000
    127      25.3160      0.00000
    128      25.5934      0.00000
    129      25.8203      0.00000
    130      25.9637      0.00000
    131      26.1347      0.00000
    132      26.3341      0.00000
    133      26.4633      0.00000
    134      26.6220      0.00000
    135      26.8271      0.00000
    136      26.9028      0.00000
    137      27.0437      0.00000
    138      27.1881      0.00000
    139      27.4071      0.00000
    140      27.5082      0.00000

 k-point    52 :      -0.4286    0.5000    0.2857
  band No.  band energies     occupation 
      1     -25.4528      2.00000
      2     -25.4497      2.00000
      3     -25.4387      2.00000
      4     -25.4383      2.00000
      5     -25.4091      2.00000
      6     -25.4088      2.00000
      7     -25.3866      2.00000
      8     -25.3861      2.00000
      9     -25.3811      2.00000
     10     -25.3806      2.00000
     11     -12.4376      2.00000
     12     -11.8918      2.00000
     13     -11.4659      2.00000
     14     -11.2100      2.00000
     15     -11.0360      2.00000
     16     -10.8383      2.00000
     17      -6.1607      2.00000
     18      -5.4558      2.00000
     19      -2.6149      2.00000
     20      -2.3545      2.00000
     21      -1.9991      2.00000
     22      -1.8329      2.00000
     23      -1.4537      2.00000
     24      -1.3715      2.00000
     25      -1.1810      2.00000
     26      -1.1043      2.00000
     27      -1.0449      2.00000
     28      -0.7760      2.00000
     29      -0.6324      2.00000
     30      -0.5974      2.00000
     31      -0.4957      2.00000
     32      -0.4549      2.00000
     33      -0.4417      2.00000
     34      -0.3538      2.00000
     35       0.4951      2.00000
     36       0.5234      2.00000
     37       0.5562      2.00000
     38       0.5818      2.00000
     39       0.6438      2.00000
     40       0.6626      2.00000
     41       0.6644      2.00000
     42       0.7103      2.00000
     43       0.9347      2.00000
     44       0.9858      2.00000
     45       1.1380      2.00000
     46       1.3415      2.00000
     47       1.4627      2.00000
     48       1.5116      2.00000
     49       1.6891      2.00000
     50       2.0518      2.00000
     51       2.1774      2.00000
     52       2.3506      2.00000
     53       2.4790      2.00000
     54       2.5200      2.00000
     55       5.2123      0.00000
     56       5.6201      0.00000
     57       6.6992      0.00000
     58       6.8141      0.00000
     59       7.1213      0.00000
     60       7.6265      0.00000
     61       8.1809      0.00000
     62       8.2415      0.00000
     63       9.1300      0.00000
     64       9.2188      0.00000
     65       9.3267      0.00000
     66       9.7593      0.00000
     67       9.9991      0.00000
     68      10.1007      0.00000
     69      10.5262      0.00000
     70      10.6394      0.00000
     71      11.0354      0.00000
     72      11.1844      0.00000
     73      11.5815      0.00000
     74      11.9800      0.00000
     75      12.3974      0.00000
     76      12.7752      0.00000
     77      12.9508      0.00000
     78      13.2312      0.00000
     79      13.5507      0.00000
     80      13.8086      0.00000
     81      14.0392      0.00000
     82      14.2601      0.00000
     83      14.8682      0.00000
     84      14.9922      0.00000
     85      15.3359      0.00000
     86      15.6409      0.00000
     87      16.1189      0.00000
     88      16.2536      0.00000
     89      16.5486      0.00000
     90      17.0213      0.00000
     91      17.1079      0.00000
     92      17.3612      0.00000
     93      17.4610      0.00000
     94      18.0300      0.00000
     95      18.1800      0.00000
     96      18.3649      0.00000
     97      18.6089      0.00000
     98      18.8884      0.00000
     99      18.9850      0.00000
    100      19.2200      0.00000
    101      19.3270      0.00000
    102      19.6309      0.00000
    103      19.7095      0.00000
    104      19.8136      0.00000
    105      20.0187      0.00000
    106      20.3046      0.00000
    107      20.5709      0.00000
    108      20.8719      0.00000
    109      21.2191      0.00000
    110      21.4710      0.00000
    111      21.6018      0.00000
    112      21.9571      0.00000
    113      22.0714      0.00000
    114      22.1424      0.00000
    115      22.4204      0.00000
    116      22.5621      0.00000
    117      22.7843      0.00000
    118      22.9092      0.00000
    119      23.3506      0.00000
    120      23.5378      0.00000
    121      23.5878      0.00000
    122      24.0206      0.00000
    123      24.1000      0.00000
    124      24.4554      0.00000
    125      24.7098      0.00000
    126      24.9894      0.00000
    127      25.4533      0.00000
    128      25.6619      0.00000
    129      25.8871      0.00000
    130      26.2042      0.00000
    131      26.3266      0.00000
    132      26.5284      0.00000
    133      26.7482      0.00000
    134      26.8483      0.00000
    135      26.9761      0.00000
    136      27.0489      0.00000
    137      27.2285      0.00000
    138      27.4756      0.00000
    139      27.5950      0.00000
    140      27.7430      0.00000

 k-point    53 :      -0.2857    0.5000    0.2857
  band No.  band energies     occupation 
      1     -25.4528      2.00000
      2     -25.4497      2.00000
      3     -25.4387      2.00000
      4     -25.4383      2.00000
      5     -25.4090      2.00000
      6     -25.4088      2.00000
      7     -25.3865      2.00000
      8     -25.3861      2.00000
      9     -25.3811      2.00000
     10     -25.3806      2.00000
     11     -12.4327      2.00000
     12     -11.8814      2.00000
     13     -11.4188      2.00000
     14     -11.2508      2.00000
     15     -11.0688      2.00000
     16     -10.8450      2.00000
     17      -6.1551      2.00000
     18      -5.3946      2.00000
     19      -2.5373      2.00000
     20      -2.3219      2.00000
     21      -2.0846      2.00000
     22      -1.8687      2.00000
     23      -1.5737      2.00000
     24      -1.3692      2.00000
     25      -1.2083      2.00000
     26      -1.0981      2.00000
     27      -0.9708      2.00000
     28      -0.7092      2.00000
     29      -0.6506      2.00000
     30      -0.6065      2.00000
     31      -0.5165      2.00000
     32      -0.4672      2.00000
     33      -0.4279      2.00000
     34      -0.3928      2.00000
     35       0.5105      2.00000
     36       0.5263      2.00000
     37       0.5903      2.00000
     38       0.6128      2.00000
     39       0.6414      2.00000
     40       0.6632      2.00000
     41       0.6788      2.00000
     42       0.7255      2.00000
     43       0.8996      2.00000
     44       0.9621      2.00000
     45       1.0902      2.00000
     46       1.3046      2.00000
     47       1.4811      2.00000
     48       1.5875      2.00000
     49       1.6613      2.00000
     50       1.8607      2.00000
     51       2.1798      2.00000
     52       2.3185      2.00000
     53       2.5461      2.00000
     54       2.6847      2.00000
     55       5.2561      0.00000
     56       5.4889      0.00000
     57       6.4850      0.00000
     58       6.7721      0.00000
     59       7.2571      0.00000
     60       7.8301      0.00000
     61       7.9207      0.00000
     62       8.1934      0.00000
     63       9.0388      0.00000
     64       9.1471      0.00000
     65       9.6006      0.00000
     66      10.1481      0.00000
     67      10.2295      0.00000
     68      10.4327      0.00000
     69      10.6755      0.00000
     70      10.8930      0.00000
     71      11.0341      0.00000
     72      11.3408      0.00000
     73      11.7091      0.00000
     74      12.0751      0.00000
     75      12.2994      0.00000
     76      12.4153      0.00000
     77      12.5726      0.00000
     78      12.8234      0.00000
     79      13.1884      0.00000
     80      13.5862      0.00000
     81      14.0187      0.00000
     82      14.2056      0.00000
     83      14.4764      0.00000
     84      14.6564      0.00000
     85      15.2481      0.00000
     86      15.5321      0.00000
     87      15.8894      0.00000
     88      16.4624      0.00000
     89      16.7292      0.00000
     90      16.9838      0.00000
     91      17.1812      0.00000
     92      17.3048      0.00000
     93      17.6758      0.00000
     94      17.8350      0.00000
     95      18.2825      0.00000
     96      18.5793      0.00000
     97      18.7390      0.00000
     98      19.0159      0.00000
     99      19.2041      0.00000
    100      19.3756      0.00000
    101      19.5140      0.00000
    102      19.7431      0.00000
    103      19.8356      0.00000
    104      20.0412      0.00000
    105      20.2927      0.00000
    106      20.5485      0.00000
    107      20.6860      0.00000
    108      20.8814      0.00000
    109      21.0716      0.00000
    110      21.4086      0.00000
    111      21.5914      0.00000
    112      21.7983      0.00000
    113      21.9871      0.00000
    114      22.1410      0.00000
    115      22.6053      0.00000
    116      22.9300      0.00000
    117      23.0310      0.00000
    118      23.3050      0.00000
    119      23.4461      0.00000
    120      23.6159      0.00000
    121      23.7121      0.00000
    122      23.8132      0.00000
    123      24.0965      0.00000
    124      24.2547      0.00000
    125      24.5129      0.00000
    126      24.6927      0.00000
    127      25.0057      0.00000
    128      25.2527      0.00000
    129      25.4464      0.00000
    130      25.6261      0.00000
    131      25.7458      0.00000
    132      25.9185      0.00000
    133      26.3260      0.00000
    134      26.5170      0.00000
    135      26.6659      0.00000
    136      26.7574      0.00000
    137      27.1050      0.00000
    138      27.5697      0.00000
    139      27.8012      0.00000
    140      28.1234      0.00000

 k-point    54 :      -0.1429    0.5000    0.2857
  band No.  band energies     occupation 
      1     -25.4528      2.00000
      2     -25.4497      2.00000
      3     -25.4387      2.00000
      4     -25.4383      2.00000
      5     -25.4089      2.00000
      6     -25.4087      2.00000
      7     -25.3864      2.00000
      8     -25.3860      2.00000
      9     -25.3810      2.00000
     10     -25.3805      2.00000
     11     -12.4426      2.00000
     12     -11.8845      2.00000
     13     -11.4011      2.00000
     14     -11.2063      2.00000
     15     -11.0707      2.00000
     16     -10.8901      2.00000
     17      -6.1584      2.00000
     18      -5.4167      2.00000
     19      -2.6058      2.00000
     20      -2.2430      2.00000
     21      -2.0699      2.00000
     22      -1.9588      2.00000
     23      -1.5856      2.00000
     24      -1.3341      2.00000
     25      -1.1755      2.00000
     26      -1.0021      2.00000
     27      -0.9574      2.00000
     28      -0.7152      2.00000
     29      -0.6758      2.00000
     30      -0.5891      2.00000
     31      -0.5301      2.00000
     32      -0.4770      2.00000
     33      -0.4485      2.00000
     34      -0.4065      2.00000
     35       0.4860      2.00000
     36       0.5186      2.00000
     37       0.5759      2.00000
     38       0.6151      2.00000
     39       0.6392      2.00000
     40       0.6557      2.00000
     41       0.6764      2.00000
     42       0.7682      2.00000
     43       0.8911      2.00000
     44       1.0191      2.00000
     45       1.1713      2.00000
     46       1.3449      2.00000
     47       1.4586      2.00000
     48       1.5591      2.00000
     49       1.6859      2.00000
     50       1.7243      2.00000
     51       2.0903      2.00000
     52       2.3339      2.00000
     53       2.6095      2.00000
     54       2.8826      2.00000
     55       5.2242      0.00000
     56       5.4526      0.00000
     57       6.3412      0.00000
     58       6.6935      0.00000
     59       7.5232      0.00000
     60       7.7396      0.00000
     61       8.0171      0.00000
     62       8.3120      0.00000
     63       8.8564      0.00000
     64       8.9360      0.00000
     65       9.5735      0.00000
     66       9.9791      0.00000
     67      10.0366      0.00000
     68      10.3955      0.00000
     69      10.5454      0.00000
     70      10.7493      0.00000
     71      10.9834      0.00000
     72      11.5525      0.00000
     73      11.7000      0.00000
     74      11.9488      0.00000
     75      12.3606      0.00000
     76      12.4998      0.00000
     77      12.7625      0.00000
     78      13.1457      0.00000
     79      13.3024      0.00000
     80      13.4408      0.00000
     81      13.8993      0.00000
     82      14.3717      0.00000
     83      14.6973      0.00000
     84      15.1023      0.00000
     85      15.4898      0.00000
     86      15.7121      0.00000
     87      15.8913      0.00000
     88      16.2468      0.00000
     89      16.6887      0.00000
     90      16.7990      0.00000
     91      17.1711      0.00000
     92      17.4101      0.00000
     93      17.7038      0.00000
     94      18.0530      0.00000
     95      18.1222      0.00000
     96      18.2963      0.00000
     97      18.5341      0.00000
     98      18.5928      0.00000
     99      19.0219      0.00000
    100      19.4672      0.00000
    101      19.6347      0.00000
    102      19.6699      0.00000
    103      19.8270      0.00000
    104      20.1524      0.00000
    105      20.4718      0.00000
    106      20.5249      0.00000
    107      20.7363      0.00000
    108      20.9009      0.00000
    109      21.2072      0.00000
    110      21.3455      0.00000
    111      21.5017      0.00000
    112      21.5883      0.00000
    113      21.9603      0.00000
    114      22.1622      0.00000
    115      22.5859      0.00000
    116      22.7436      0.00000
    117      22.9593      0.00000
    118      23.0351      0.00000
    119      23.3767      0.00000
    120      23.5776      0.00000
    121      23.7403      0.00000
    122      23.8086      0.00000
    123      23.9814      0.00000
    124      24.4898      0.00000
    125      24.7232      0.00000
    126      24.8163      0.00000
    127      25.1553      0.00000
    128      25.3626      0.00000
    129      25.5289      0.00000
    130      25.9072      0.00000
    131      25.9933      0.00000
    132      26.1564      0.00000
    133      26.3244      0.00000
    134      26.5051      0.00000
    135      26.7708      0.00000
    136      27.0020      0.00000
    137      27.1510      0.00000
    138      27.5249      0.00000
    139      27.7506      0.00000
    140      27.8115      0.00000

 k-point    55 :       0.0000    0.0000    0.4286
  band No.  band energies     occupation 
      1     -25.4518      2.00000
      2     -25.4507      2.00000
      3     -25.4384      2.00000
      4     -25.4382      2.00000
      5     -25.4089      2.00000
      6     -25.4088      2.00000
      7     -25.3863      2.00000
      8     -25.3861      2.00000
      9     -25.3809      2.00000
     10     -25.3807      2.00000
     11     -12.4784      2.00000
     12     -12.2181      2.00000
     13     -11.1903      2.00000
     14     -11.1635      2.00000
     15     -10.8283      2.00000
     16     -10.8271      2.00000
     17      -6.0118      2.00000
     18      -5.8281      2.00000
     19      -2.4039      2.00000
     20      -2.2695      2.00000
     21      -2.1796      2.00000
     22      -1.8933      2.00000
     23      -1.7397      2.00000
     24      -1.5958      2.00000
     25      -1.3938      2.00000
     26      -1.3593      2.00000
     27      -0.8202      2.00000
     28      -0.7440      2.00000
     29      -0.6283      2.00000
     30      -0.6174      2.00000
     31      -0.5303      2.00000
     32      -0.5130      2.00000
     33      -0.4497      2.00000
     34      -0.4416      2.00000
     35       0.5377      2.00000
     36       0.5598      2.00000
     37       0.5842      2.00000
     38       0.5862      2.00000
     39       0.6526      2.00000
     40       0.6528      2.00000
     41       0.7011      2.00000
     42       0.7438      2.00000
     43       0.8759      2.00000
     44       0.8809      2.00000
     45       0.9739      2.00000
     46       1.0175      2.00000
     47       1.4656      2.00000
     48       1.7218      2.00000
     49       1.9204      2.00000
     50       1.9338      2.00000
     51       2.7166      2.00000
     52       2.7426      2.00000
     53       2.9586      2.00000
     54       2.9610      2.00000
     55       5.0259      0.00000
     56       5.0664      0.00000
     57       6.5309      0.00000
     58       6.5564      0.00000
     59       7.9300      0.00000
     60       7.9979      0.00000
     61       8.5095      0.00000
     62       8.6222      0.00000
     63       9.3351      0.00000
     64       9.3616      0.00000
     65       9.6501      0.00000
     66       9.6598      0.00000
     67       9.9721      0.00000
     68      10.1944      0.00000
     69      10.5740      0.00000
     70      10.8153      0.00000
     71      11.2260      0.00000
     72      11.2873      0.00000
     73      11.7256      0.00000
     74      12.0143      0.00000
     75      12.4422      0.00000
     76      12.5715      0.00000
     77      12.9970      0.00000
     78      13.0242      0.00000
     79      13.4136      0.00000
     80      13.6563      0.00000
     81      13.8772      0.00000
     82      14.0014      0.00000
     83      14.2088      0.00000
     84      14.2876      0.00000
     85      14.4894      0.00000
     86      14.5422      0.00000
     87      14.7845      0.00000
     88      15.0218      0.00000
     89      15.2936      0.00000
     90      15.5015      0.00000
     91      16.2377      0.00000
     92      16.6427      0.00000
     93      17.3447      0.00000
     94      18.0737      0.00000
     95      18.6722      0.00000
     96      18.8071      0.00000
     97      19.0687      0.00000
     98      19.3759      0.00000
     99      19.6051      0.00000
    100      19.8006      0.00000
    101      20.0001      0.00000
    102      20.1264      0.00000
    103      20.5139      0.00000
    104      20.5501      0.00000
    105      21.2616      0.00000
    106      21.2657      0.00000
    107      21.3595      0.00000
    108      21.5044      0.00000
    109      21.9304      0.00000
    110      21.9850      0.00000
    111      22.0134      0.00000
    112      22.1370      0.00000
    113      22.4566      0.00000
    114      22.6257      0.00000
    115      22.7143      0.00000
    116      22.8120      0.00000
    117      23.1011      0.00000
    118      23.1347      0.00000
    119      23.4526      0.00000
    120      23.4544      0.00000
    121      23.6233      0.00000
    122      23.6714      0.00000
    123      24.3700      0.00000
    124      24.5559      0.00000
    125      24.8953      0.00000
    126      25.1021      0.00000
    127      25.2756      0.00000
    128      25.3555      0.00000
    129      25.4267      0.00000
    130      25.5360      0.00000
    131      25.8776      0.00000
    132      25.9425      0.00000
    133      26.5447      0.00000
    134      26.7316      0.00000
    135      27.0712      0.00000
    136      27.1345      0.00000
    137      27.2597      0.00000
    138      27.3671      0.00000
    139      27.6995      0.00000
    140      27.7559      0.00000

 k-point    56 :       0.1429    0.0000    0.4286
  band No.  band energies     occupation 
      1     -25.4517      2.00000
      2     -25.4506      2.00000
      3     -25.4384      2.00000
      4     -25.4382      2.00000
      5     -25.4088      2.00000
      6     -25.4087      2.00000
      7     -25.3863      2.00000
      8     -25.3861      2.00000
      9     -25.3809      2.00000
     10     -25.3807      2.00000
     11     -12.4004      2.00000
     12     -12.2464      2.00000
     13     -11.2391      2.00000
     14     -11.1665      2.00000
     15     -10.8834      2.00000
     16     -10.8126      2.00000
     17      -6.0146      2.00000
     18      -5.7721      2.00000
     19      -2.4118      2.00000
     20      -2.2608      2.00000
     21      -2.1037      2.00000
     22      -1.9685      2.00000
     23      -1.7351      2.00000
     24      -1.5754      2.00000
     25      -1.3359      2.00000
     26      -1.1354      2.00000
     27      -0.9597      2.00000
     28      -0.7070      2.00000
     29      -0.6679      2.00000
     30      -0.6094      2.00000
     31      -0.5459      2.00000
     32      -0.5160      2.00000
     33      -0.4571      2.00000
     34      -0.4284      2.00000
     35       0.5424      2.00000
     36       0.5588      2.00000
     37       0.5720      2.00000
     38       0.5805      2.00000
     39       0.6258      2.00000
     40       0.6589      2.00000
     41       0.6761      2.00000
     42       0.7893      2.00000
     43       0.8619      2.00000
     44       0.9436      2.00000
     45       1.0065      2.00000
     46       1.1154      2.00000
     47       1.4987      2.00000
     48       1.5690      2.00000
     49       1.8829      2.00000
     50       2.0740      2.00000
     51       2.3931      2.00000
     52       2.5715      2.00000
     53       2.7954      2.00000
     54       2.9350      2.00000
     55       5.1632      0.00000
     56       5.2907      0.00000
     57       6.6355      0.00000
     58       6.7264      0.00000
     59       7.8090      0.00000
     60       8.0243      0.00000
     61       8.4666      0.00000
     62       8.5814      0.00000
     63       9.0736      0.00000
     64       9.3346      0.00000
     65       9.5696      0.00000
     66       9.8560      0.00000
     67      10.1194      0.00000
     68      10.1779      0.00000
     69      10.4342      0.00000
     70      10.5622      0.00000
     71      10.9712      0.00000
     72      11.2937      0.00000
     73      11.5525      0.00000
     74      11.8488      0.00000
     75      12.2533      0.00000
     76      12.3789      0.00000
     77      12.4721      0.00000
     78      13.1284      0.00000
     79      13.4245      0.00000
     80      13.5860      0.00000
     81      13.8505      0.00000
     82      14.2058      0.00000
     83      14.3665      0.00000
     84      14.5756      0.00000
     85      14.9055      0.00000
     86      15.2363      0.00000
     87      15.3417      0.00000
     88      15.5762      0.00000
     89      15.7268      0.00000
     90      15.9661      0.00000
     91      16.5691      0.00000
     92      16.9265      0.00000
     93      17.1922      0.00000
     94      17.9869      0.00000
     95      18.2849      0.00000
     96      18.5119      0.00000
     97      18.9027      0.00000
     98      19.0573      0.00000
     99      19.4149      0.00000
    100      19.6036      0.00000
    101      20.0031      0.00000
    102      20.1435      0.00000
    103      20.2848      0.00000
    104      20.4707      0.00000
    105      20.7764      0.00000
    106      20.9770      0.00000
    107      21.0687      0.00000
    108      21.4133      0.00000
    109      21.5149      0.00000
    110      21.7439      0.00000
    111      21.9446      0.00000
    112      22.2207      0.00000
    113      22.2856      0.00000
    114      22.6487      0.00000
    115      22.7780      0.00000
    116      22.8897      0.00000
    117      22.9786      0.00000
    118      23.2006      0.00000
    119      23.4510      0.00000
    120      23.6649      0.00000
    121      23.9543      0.00000
    122      24.2397      0.00000
    123      24.4723      0.00000
    124      24.7423      0.00000
    125      24.8999      0.00000
    126      25.0043      0.00000
    127      25.2500      0.00000
    128      25.4285      0.00000
    129      25.5427      0.00000
    130      25.6400      0.00000
    131      25.8733      0.00000
    132      26.1315      0.00000
    133      26.2425      0.00000
    134      26.5149      0.00000
    135      26.6511      0.00000
    136      26.8088      0.00000
    137      27.1075      0.00000
    138      27.5258      0.00000
    139      27.6116      0.00000
    140      27.7731      0.00000

 k-point    57 :       0.2857    0.0000    0.4286
  band No.  band energies     occupation 
      1     -25.4518      2.00000
      2     -25.4507      2.00000
      3     -25.4384      2.00000
      4     -25.4382      2.00000
      5     -25.4088      2.00000
      6     -25.4087      2.00000
      7     -25.3862      2.00000
      8     -25.3861      2.00000
      9     -25.3808      2.00000
     10     -25.3806      2.00000
     11     -12.3083      2.00000
     12     -12.2127      2.00000
     13     -11.3133      2.00000
     14     -11.1916      2.00000
     15     -10.9611      2.00000
     16     -10.8426      2.00000
     17      -6.0012      2.00000
     18      -5.7179      2.00000
     19      -2.6010      2.00000
     20      -2.1797      2.00000
     21      -2.0885      2.00000
     22      -1.9922      2.00000
     23      -1.6052      2.00000
     24      -1.3935      2.00000
     25      -1.2777      2.00000
     26      -1.0109      2.00000
     27      -0.8441      2.00000
     28      -0.7938      2.00000
     29      -0.6698      2.00000
     30      -0.6191      2.00000
     31      -0.5459      2.00000
     32      -0.5149      2.00000
     33      -0.4625      2.00000
     34      -0.4021      2.00000
     35       0.5231      2.00000
     36       0.5349      2.00000
     37       0.5684      2.00000
     38       0.5889      2.00000
     39       0.6055      2.00000
     40       0.6424      2.00000
     41       0.6657      2.00000
     42       0.7484      2.00000
     43       0.9610      2.00000
     44       1.0488      2.00000
     45       1.2198      2.00000
     46       1.2683      2.00000
     47       1.4486      2.00000
     48       1.6314      2.00000
     49       1.6529      2.00000
     50       1.9842      2.00000
     51       2.2354      2.00000
     52       2.3942      2.00000
     53       2.6698      2.00000
     54       2.7890      2.00000
     55       5.1801      0.00000
     56       5.3970      0.00000
     57       6.5932      0.00000
     58       6.9002      0.00000
     59       7.4168      0.00000
     60       7.8116      0.00000
     61       8.2202      0.00000
     62       8.4788      0.00000
     63       8.9345      0.00000
     64       9.1700      0.00000
     65       9.4402      0.00000
     66       9.6746      0.00000
     67       9.8817      0.00000
     68      10.0396      0.00000
     69      10.2872      0.00000
     70      10.4932      0.00000
     71      10.9762      0.00000
     72      11.0866      0.00000
     73      11.4821      0.00000
     74      11.8404      0.00000
     75      12.3897      0.00000
     76      12.5474      0.00000
     77      12.9145      0.00000
     78      13.2514      0.00000
     79      13.4343      0.00000
     80      13.8620      0.00000
     81      14.0058      0.00000
     82      14.6675      0.00000
     83      14.8875      0.00000
     84      15.2126      0.00000
     85      15.4964      0.00000
     86      15.7297      0.00000
     87      15.9097      0.00000
     88      16.1268      0.00000
     89      16.4601      0.00000
     90      16.8079      0.00000
     91      17.0622      0.00000
     92      17.4844      0.00000
     93      17.5449      0.00000
     94      17.6540      0.00000
     95      17.9824      0.00000
     96      18.0781      0.00000
     97      18.2741      0.00000
     98      18.6435      0.00000
     99      18.7502      0.00000
    100      19.1178      0.00000
    101      19.4171      0.00000
    102      19.5670      0.00000
    103      20.0180      0.00000
    104      20.1357      0.00000
    105      20.3136      0.00000
    106      20.4924      0.00000
    107      20.8709      0.00000
    108      21.0895      0.00000
    109      21.2618      0.00000
    110      21.4146      0.00000
    111      21.7826      0.00000
    112      21.9264      0.00000
    113      22.1053      0.00000
    114      22.4439      0.00000
    115      22.5568      0.00000
    116      22.7791      0.00000
    117      23.0603      0.00000
    118      23.3724      0.00000
    119      23.4338      0.00000
    120      23.7611      0.00000
    121      23.8554      0.00000
    122      24.0861      0.00000
    123      24.4426      0.00000
    124      24.5706      0.00000
    125      24.7016      0.00000
    126      24.9906      0.00000
    127      25.3363      0.00000
    128      25.6315      0.00000
    129      25.9333      0.00000
    130      26.1676      0.00000
    131      26.2661      0.00000
    132      26.3494      0.00000
    133      26.5280      0.00000
    134      26.6186      0.00000
    135      26.7945      0.00000
    136      26.9948      0.00000
    137      27.0855      0.00000
    138      27.2580      0.00000
    139      27.4540      0.00000
    140      27.8287      0.00000

 k-point    58 :       0.4286    0.0000    0.4286
  band No.  band energies     occupation 
      1     -25.4518      2.00000
      2     -25.4507      2.00000
      3     -25.4384      2.00000
      4     -25.4383      2.00000
      5     -25.4088      2.00000
      6     -25.4087      2.00000
      7     -25.3862      2.00000
      8     -25.3861      2.00000
      9     -25.3808      2.00000
     10     -25.3806      2.00000
     11     -12.2866      2.00000
     12     -12.1315      2.00000
     13     -11.3171      2.00000
     14     -11.2155      2.00000
     15     -11.0527      2.00000
     16     -10.8863      2.00000
     17      -5.9743      2.00000
     18      -5.7073      2.00000
     19      -2.7383      2.00000
     20      -2.1600      2.00000
     21      -2.1032      2.00000
     22      -1.8794      2.00000
     23      -1.6373      2.00000
     24      -1.2912      2.00000
     25      -1.1250      2.00000
     26      -1.0201      2.00000
     27      -0.8775      2.00000
     28      -0.7202      2.00000
     29      -0.6790      2.00000
     30      -0.5673      2.00000
     31      -0.5196      2.00000
     32      -0.5030      2.00000
     33      -0.4558      2.00000
     34      -0.3796      2.00000
     35       0.4485      2.00000
     36       0.5051      2.00000
     37       0.5770      2.00000
     38       0.5971      2.00000
     39       0.6140      2.00000
     40       0.6513      2.00000
     41       0.6905      2.00000
     42       0.7355      2.00000
     43       0.9604      2.00000
     44       1.1271      2.00000
     45       1.2216      2.00000
     46       1.3319      2.00000
     47       1.4056      2.00000
     48       1.6206      2.00000
     49       1.7887      2.00000
     50       1.9532      2.00000
     51       2.2590      2.00000
     52       2.4178      2.00000
     53       2.6402      2.00000
     54       2.7708      2.00000
     55       4.8959      0.00000
     56       5.2999      0.00000
     57       6.1554      0.00000
     58       6.8672      0.00000
     59       7.2808      0.00000
     60       7.5674      0.00000
     61       8.0058      0.00000
     62       8.1610      0.00000
     63       8.7448      0.00000
     64       9.0841      0.00000
     65       9.4894      0.00000
     66       9.7373      0.00000
     67       9.7980      0.00000
     68      10.0760      0.00000
     69      10.3612      0.00000
     70      10.4956      0.00000
     71      10.6023      0.00000
     72      11.0959      0.00000
     73      11.6522      0.00000
     74      12.1022      0.00000
     75      12.6526      0.00000
     76      12.9643      0.00000
     77      13.3158      0.00000
     78      13.5555      0.00000
     79      13.7932      0.00000
     80      14.0919      0.00000
     81      14.5358      0.00000
     82      14.8036      0.00000
     83      15.0240      0.00000
     84      15.3108      0.00000
     85      15.6800      0.00000
     86      15.9352      0.00000
     87      16.0909      0.00000
     88      16.3567      0.00000
     89      16.6703      0.00000
     90      16.7760      0.00000
     91      17.1613      0.00000
     92      17.4653      0.00000
     93      17.6333      0.00000
     94      17.8824      0.00000
     95      18.0312      0.00000
     96      18.2937      0.00000
     97      18.3782      0.00000
     98      18.6360      0.00000
     99      18.9048      0.00000
    100      18.9798      0.00000
    101      19.1078      0.00000
    102      19.4218      0.00000
    103      19.5273      0.00000
    104      19.7782      0.00000
    105      19.9959      0.00000
    106      20.2088      0.00000
    107      20.4306      0.00000
    108      20.7971      0.00000
    109      20.9797      0.00000
    110      21.1876      0.00000
    111      21.3611      0.00000
    112      21.6356      0.00000
    113      21.9874      0.00000
    114      22.1931      0.00000
    115      22.4875      0.00000
    116      22.8036      0.00000
    117      22.8889      0.00000
    118      23.1404      0.00000
    119      23.3706      0.00000
    120      23.5130      0.00000
    121      23.6828      0.00000
    122      23.8523      0.00000
    123      24.5671      0.00000
    124      24.6997      0.00000
    125      24.8764      0.00000
    126      25.1231      0.00000
    127      25.2865      0.00000
    128      25.4917      0.00000
    129      25.7552      0.00000
    130      26.0770      0.00000
    131      26.2777      0.00000
    132      26.4580      0.00000
    133      26.5679      0.00000
    134      26.6747      0.00000
    135      26.7915      0.00000
    136      26.9882      0.00000
    137      27.1730      0.00000
    138      27.3453      0.00000
    139      27.6354      0.00000
    140      27.8469      0.00000

 k-point    59 :      -0.4286    0.0000    0.4286
  band No.  band energies     occupation 
      1     -25.4519      2.00000
      2     -25.4508      2.00000
      3     -25.4385      2.00000
      4     -25.4383      2.00000
      5     -25.4089      2.00000
      6     -25.4087      2.00000
      7     -25.3863      2.00000
      8     -25.3861      2.00000
      9     -25.3809      2.00000
     10     -25.3807      2.00000
     11     -12.3534      2.00000
     12     -12.0635      2.00000
     13     -11.2905      2.00000
     14     -11.1912      2.00000
     15     -11.0933      2.00000
     16     -10.8901      2.00000
     17      -5.9592      2.00000
     18      -5.7555      2.00000
     19      -2.7925      2.00000
     20      -2.2509      2.00000
     21      -2.1706      2.00000
     22      -1.7583      2.00000
     23      -1.4398      2.00000
     24      -1.3572      2.00000
     25      -1.1615      2.00000
     26      -1.0127      2.00000
     27      -0.8632      2.00000
     28      -0.7024      2.00000
     29      -0.6692      2.00000
     30      -0.5784      2.00000
     31      -0.5370      2.00000
     32      -0.5007      2.00000
     33      -0.4400      2.00000
     34      -0.3738      2.00000
     35       0.4392      2.00000
     36       0.4890      2.00000
     37       0.5797      2.00000
     38       0.5990      2.00000
     39       0.6356      2.00000
     40       0.6511      2.00000
     41       0.6889      2.00000
     42       0.7044      2.00000
     43       0.9509      2.00000
     44       1.0932      2.00000
     45       1.2602      2.00000
     46       1.2982      2.00000
     47       1.4557      2.00000
     48       1.6615      2.00000
     49       1.8715      2.00000
     50       2.0484      2.00000
     51       2.2080      2.00000
     52       2.4607      2.00000
     53       2.6191      2.00000
     54       2.7828      2.00000
     55       4.8167      0.00000
     56       5.2455      0.00000
     57       6.1411      0.00000
     58       6.7808      0.00000
     59       7.1838      0.00000
     60       7.4181      0.00000
     61       7.9107      0.00000
     62       8.1564      0.00000
     63       8.7350      0.00000
     64       8.9895      0.00000
     65       9.4428      0.00000
     66       9.7600      0.00000
     67       9.9992      0.00000
     68      10.1616      0.00000
     69      10.3657      0.00000
     70      10.4914      0.00000
     71      10.5972      0.00000
     72      10.9509      0.00000
     73      11.7920      0.00000
     74      12.2204      0.00000
     75      12.5810      0.00000
     76      12.8499      0.00000
     77      13.2250      0.00000
     78      13.9014      0.00000
     79      14.2229      0.00000
     80      14.3252      0.00000
     81      14.5710      0.00000
     82      14.9130      0.00000
     83      15.0986      0.00000
     84      15.2491      0.00000
     85      15.6712      0.00000
     86      15.8124      0.00000
     87      16.0661      0.00000
     88      16.4514      0.00000
     89      16.7375      0.00000
     90      16.8787      0.00000
     91      17.2694      0.00000
     92      17.4035      0.00000
     93      17.5744      0.00000
     94      17.7749      0.00000
     95      17.9899      0.00000
     96      18.1206      0.00000
     97      18.3078      0.00000
     98      18.6147      0.00000
     99      18.8318      0.00000
    100      18.8865      0.00000
    101      19.0413      0.00000
    102      19.1010      0.00000
    103      19.3570      0.00000
    104      19.6678      0.00000
    105      19.7148      0.00000
    106      20.1557      0.00000
    107      20.4349      0.00000
    108      20.7369      0.00000
    109      20.9103      0.00000
    110      21.1259      0.00000
    111      21.3542      0.00000
    112      21.6714      0.00000
    113      21.7547      0.00000
    114      21.9821      0.00000
    115      22.3395      0.00000
    116      23.1463      0.00000
    117      23.2309      0.00000
    118      23.4657      0.00000
    119      23.6380      0.00000
    120      23.6870      0.00000
    121      23.8220      0.00000
    122      24.2096      0.00000
    123      24.4660      0.00000
    124      24.7949      0.00000
    125      24.9215      0.00000
    126      25.1294      0.00000
    127      25.3151      0.00000
    128      25.5668      0.00000
    129      25.6946      0.00000
    130      25.8619      0.00000
    131      26.0962      0.00000
    132      26.3803      0.00000
    133      26.5207      0.00000
    134      26.7011      0.00000
    135      26.8340      0.00000
    136      26.9170      0.00000
    137      27.1147      0.00000
    138      27.3881      0.00000
    139      27.4076      0.00000
    140      27.5087      0.00000

 k-point    60 :      -0.2857    0.0000    0.4286
  band No.  band energies     occupation 
      1     -25.4519      2.00000
      2     -25.4508      2.00000
      3     -25.4385      2.00000
      4     -25.4383      2.00000
      5     -25.4089      2.00000
      6     -25.4088      2.00000
      7     -25.3863      2.00000
      8     -25.3861      2.00000
      9     -25.3809      2.00000
     10     -25.3807      2.00000
     11     -12.4440      2.00000
     12     -12.0679      2.00000
     13     -11.2962      2.00000
     14     -11.1654      2.00000
     15     -10.9825      2.00000
     16     -10.8549      2.00000
     17      -5.9720      2.00000
     18      -5.8227      2.00000
     19      -2.7299      2.00000
     20      -2.3844      2.00000
     21      -2.1615      2.00000
     22      -1.7692      2.00000
     23      -1.4714      2.00000
     24      -1.3353      2.00000
     25      -1.2107      2.00000
     26      -1.0070      2.00000
     27      -0.8756      2.00000
     28      -0.7456      2.00000
     29      -0.6510      2.00000
     30      -0.6035      2.00000
     31      -0.5748      2.00000
     32      -0.5365      2.00000
     33      -0.4437      2.00000
     34      -0.3914      2.00000
     35       0.4968      2.00000
     36       0.5083      2.00000
     37       0.5726      2.00000
     38       0.5939      2.00000
     39       0.6209      2.00000
     40       0.6335      2.00000
     41       0.6792      2.00000
     42       0.7002      2.00000
     43       0.9832      2.00000
     44       1.0910      2.00000
     45       1.1196      2.00000
     46       1.3423      2.00000
     47       1.5023      2.00000
     48       1.7161      2.00000
     49       1.8028      2.00000
     50       2.0910      2.00000
     51       2.2304      2.00000
     52       2.4348      2.00000
     53       2.5853      2.00000
     54       2.8266      2.00000
     55       5.0834      0.00000
     56       5.2754      0.00000
     57       6.5397      0.00000
     58       6.7579      0.00000
     59       7.1390      0.00000
     60       7.4426      0.00000
     61       8.0451      0.00000
     62       8.5207      0.00000
     63       8.8211      0.00000
     64       9.0671      0.00000
     65       9.5188      0.00000
     66       9.6153      0.00000
     67       9.8624      0.00000
     68      10.1178      0.00000
     69      10.1892      0.00000
     70      10.4765      0.00000
     71      11.0120      0.00000
     72      11.2282      0.00000
     73      11.6293      0.00000
     74      11.9846      0.00000
     75      12.5037      0.00000
     76      12.6494      0.00000
     77      13.1680      0.00000
     78      13.7109      0.00000
     79      14.0435      0.00000
     80      14.1373      0.00000
     81      14.4082      0.00000
     82      14.6368      0.00000
     83      14.9341      0.00000
     84      15.0868      0.00000
     85      15.3528      0.00000
     86      15.5213      0.00000
     87      16.1144      0.00000
     88      16.2606      0.00000
     89      16.6087      0.00000
     90      16.8268      0.00000
     91      17.0713      0.00000
     92      17.2021      0.00000
     93      17.3893      0.00000
     94      17.6942      0.00000
     95      17.8692      0.00000
     96      18.0674      0.00000
     97      18.2020      0.00000
     98      18.3265      0.00000
     99      18.6457      0.00000
    100      18.8634      0.00000
    101      19.1282      0.00000
    102      19.2625      0.00000
    103      19.5746      0.00000
    104      19.8282      0.00000
    105      20.1268      0.00000
    106      20.4535      0.00000
    107      20.5659      0.00000
    108      20.7992      0.00000
    109      20.9791      0.00000
    110      21.1211      0.00000
    111      21.7733      0.00000
    112      21.9894      0.00000
    113      22.4587      0.00000
    114      22.6021      0.00000
    115      22.6887      0.00000
    116      22.8347      0.00000
    117      23.1979      0.00000
    118      23.5284      0.00000
    119      23.6742      0.00000
    120      23.9220      0.00000
    121      24.2912      0.00000
    122      24.3825      0.00000
    123      24.5661      0.00000
    124      24.7942      0.00000
    125      25.0625      0.00000
    126      25.1686      0.00000
    127      25.3857      0.00000
    128      25.5511      0.00000
    129      25.7244      0.00000
    130      25.8520      0.00000
    131      26.1305      0.00000
    132      26.3311      0.00000
    133      26.4427      0.00000
    134      26.6511      0.00000
    135      26.7564      0.00000
    136      26.8613      0.00000
    137      27.1320      0.00000
    138      27.5287      0.00000
    139      27.6267      0.00000
    140      27.7655      0.00000

 k-point    61 :      -0.1429    0.0000    0.4286
  band No.  band energies     occupation 
      1     -25.4518      2.00000
      2     -25.4507      2.00000
      3     -25.4384      2.00000
      4     -25.4383      2.00000
      5     -25.4089      2.00000
      6     -25.4088      2.00000
      7     -25.3863      2.00000
      8     -25.3862      2.00000
      9     -25.3809      2.00000
     10     -25.3807      2.00000
     11     -12.4948      2.00000
     12     -12.1423      2.00000
     13     -11.2528      2.00000
     14     -11.1391      2.00000
     15     -10.8848      2.00000
     16     -10.8186      2.00000
     17      -5.9964      2.00000
     18      -5.8523      2.00000
     19      -2.5555      2.00000
     20      -2.3729      2.00000
     21      -2.1070      2.00000
     22      -1.9669      2.00000
     23      -1.6497      2.00000
     24      -1.4255      2.00000
     25      -1.3096      2.00000
     26      -1.1414      2.00000
     27      -0.8609      2.00000
     28      -0.7353      2.00000
     29      -0.6365      2.00000
     30      -0.5967      2.00000
     31      -0.5554      2.00000
     32      -0.5474      2.00000
     33      -0.4422      2.00000
     34      -0.4255      2.00000
     35       0.5311      2.00000
     36       0.5509      2.00000
     37       0.5757      2.00000
     38       0.5960      2.00000
     39       0.6111      2.00000
     40       0.6432      2.00000
     41       0.6975      2.00000
     42       0.7201      2.00000
     43       0.9035      2.00000
     44       0.9499      2.00000
     45       1.0473      2.00000
     46       1.2569      2.00000
     47       1.3506      2.00000
     48       1.8271      2.00000
     49       1.8653      2.00000
     50       2.0762      2.00000
     51       2.3449      2.00000
     52       2.6305      2.00000
     53       2.7183      2.00000
     54       2.9953      2.00000
     55       5.1594      0.00000
     56       5.2103      0.00000
     57       6.5630      0.00000
     58       6.6174      0.00000
     59       7.5348      0.00000
     60       7.6899      0.00000
     61       8.3399      0.00000
     62       8.6382      0.00000
     63       9.0863      0.00000
     64       9.3160      0.00000
     65       9.4928      0.00000
     66       9.6857      0.00000
     67       9.9180      0.00000
     68      10.0772      0.00000
     69      10.2889      0.00000
     70      10.5805      0.00000
     71      11.1426      0.00000
     72      11.4299      0.00000
     73      11.9078      0.00000
     74      12.1595      0.00000
     75      12.4368      0.00000
     76      12.7198      0.00000
     77      13.0417      0.00000
     78      13.2635      0.00000
     79      13.5015      0.00000
     80      13.8408      0.00000
     81      13.9466      0.00000
     82      14.0649      0.00000
     83      14.1788      0.00000
     84      14.5147      0.00000
     85      14.8905      0.00000
     86      15.2306      0.00000
     87      15.3802      0.00000
     88      15.6083      0.00000
     89      16.0808      0.00000
     90      16.1845      0.00000
     91      16.5572      0.00000
     92      16.6725      0.00000
     93      17.0581      0.00000
     94      17.3338      0.00000
     95      18.0922      0.00000
     96      18.2747      0.00000
     97      18.7031      0.00000
     98      18.9702      0.00000
     99      19.2170      0.00000
    100      19.5282      0.00000
    101      19.6726      0.00000
    102      20.0904      0.00000
    103      20.3443      0.00000
    104      20.6971      0.00000
    105      20.8519      0.00000
    106      21.0234      0.00000
    107      21.1861      0.00000
    108      21.2856      0.00000
    109      21.5972      0.00000
    110      21.7343      0.00000
    111      21.9274      0.00000
    112      22.0940      0.00000
    113      22.2516      0.00000
    114      22.3235      0.00000
    115      22.5778      0.00000
    116      22.8548      0.00000
    117      23.1022      0.00000
    118      23.2473      0.00000
    119      23.5022      0.00000
    120      23.5679      0.00000
    121      23.8589      0.00000
    122      23.9930      0.00000
    123      24.3257      0.00000
    124      24.4903      0.00000
    125      24.7167      0.00000
    126      25.3891      0.00000
    127      25.4921      0.00000
    128      25.7357      0.00000
    129      25.8512      0.00000
    130      26.0031      0.00000
    131      26.2751      0.00000
    132      26.3709      0.00000
    133      26.5718      0.00000
    134      26.6896      0.00000
    135      26.9550      0.00000
    136      27.1896      0.00000
    137      27.3221      0.00000
    138      27.3875      0.00000
    139      27.5654      0.00000
    140      27.7676      0.00000

 k-point    62 :       0.0000    0.2500    0.4286
  band No.  band energies     occupation 
      1     -25.4519      2.00000
      2     -25.4508      2.00000
      3     -25.4385      2.00000
      4     -25.4383      2.00000
      5     -25.4089      2.00000
      6     -25.4088      2.00000
      7     -25.3863      2.00000
      8     -25.3861      2.00000
      9     -25.3809      2.00000
     10     -25.3807      2.00000
     11     -12.4621      2.00000
     12     -12.0822      2.00000
     13     -11.2908      2.00000
     14     -11.1560      2.00000
     15     -10.9544      2.00000
     16     -10.8437      2.00000
     17      -5.9780      2.00000
     18      -5.8352      2.00000
     19      -2.6943      2.00000
     20      -2.3958      2.00000
     21      -2.1442      2.00000
     22      -1.8300      2.00000
     23      -1.5159      2.00000
     24      -1.3239      2.00000
     25      -1.2297      2.00000
     26      -1.0260      2.00000
     27      -0.8745      2.00000
     28      -0.7466      2.00000
     29      -0.6574      2.00000
     30      -0.5925      2.00000
     31      -0.5789      2.00000
     32      -0.5451      2.00000
     33      -0.4431      2.00000
     34      -0.3997      2.00000
     35       0.5091      2.00000
     36       0.5218      2.00000
     37       0.5699      2.00000
     38       0.5952      2.00000
     39       0.6178      2.00000
     40       0.6296      2.00000
     41       0.6810      2.00000
     42       0.7048      2.00000
     43       0.9598      2.00000
     44       1.0514      2.00000
     45       1.1477      2.00000
     46       1.2857      2.00000
     47       1.5162      2.00000
     48       1.7067      2.00000
     49       1.8322      2.00000
     50       2.1083      2.00000
     51       2.2272      2.00000
     52       2.4330      2.00000
     53       2.6119      2.00000
     54       2.8742      2.00000
     55       5.1361      0.00000
     56       5.2795      0.00000
     57       6.5956      0.00000
     58       6.7423      0.00000
     59       7.1777      0.00000
     60       7.4820      0.00000
     61       8.1135      0.00000
     62       8.6240      0.00000
     63       8.8566      0.00000
     64       9.1285      0.00000
     65       9.5092      0.00000
     66       9.5803      0.00000
     67       9.8287      0.00000
     68      10.1112      0.00000
     69      10.2091      0.00000
     70      10.5096      0.00000
     71      11.0620      0.00000
     72      11.2411      0.00000
     73      11.6712      0.00000
     74      12.0387      0.00000
     75      12.4835      0.00000
     76      12.7092      0.00000
     77      13.0709      0.00000
     78      13.5854      0.00000
     79      13.9078      0.00000
     80      14.0418      0.00000
     81      14.2994      0.00000
     82      14.4884      0.00000
     83      14.7680      0.00000
     84      14.9628      0.00000
     85      15.2936      0.00000
     86      15.5259      0.00000
     87      15.9782      0.00000
     88      16.0872      0.00000
     89      16.4489      0.00000
     90      16.7439      0.00000
     91      16.9989      0.00000
     92      17.1597      0.00000
     93      17.3357      0.00000
     94      17.6210      0.00000
     95      17.8076      0.00000
     96      18.0619      0.00000
     97      18.1730      0.00000
     98      18.3126      0.00000
     99      18.7346      0.00000
    100      19.0439      0.00000
    101      19.1812      0.00000
    102      19.4464      0.00000
    103      19.8469      0.00000
    104      19.9633      0.00000
    105      20.2529      0.00000
    106      20.5493      0.00000
    107      20.7483      0.00000
    108      20.9851      0.00000
    109      21.1887      0.00000
    110      21.3429      0.00000
    111      21.8077      0.00000
    112      22.0012      0.00000
    113      22.3197      0.00000
    114      22.5978      0.00000
    115      22.7112      0.00000
    116      22.8899      0.00000
    117      23.0652      0.00000
    118      23.6038      0.00000
    119      23.9010      0.00000
    120      24.0237      0.00000
    121      24.1169      0.00000
    122      24.2473      0.00000
    123      24.4305      0.00000
    124      24.5962      0.00000
    125      24.9254      0.00000
    126      25.1341      0.00000
    127      25.3506      0.00000
    128      25.4886      0.00000
    129      25.7918      0.00000
    130      25.9666      0.00000
    131      26.2057      0.00000
    132      26.3966      0.00000
    133      26.5206      0.00000
    134      26.7833      0.00000
    135      26.8400      0.00000
    136      26.9719      0.00000
    137      27.2440      0.00000
    138      27.5652      0.00000
    139      27.6825      0.00000
    140      27.8232      0.00000

 k-point    63 :       0.1429    0.2500    0.4286
  band No.  band energies     occupation 
      1     -25.4518      2.00000
      2     -25.4507      2.00000
      3     -25.4385      2.00000
      4     -25.4383      2.00000
      5     -25.4089      2.00000
      6     -25.4088      2.00000
      7     -25.3863      2.00000
      8     -25.3862      2.00000
      9     -25.3809      2.00000
     10     -25.3808      2.00000
     11     -12.4419      2.00000
     12     -12.1275      2.00000
     13     -11.2927      2.00000
     14     -11.1676      2.00000
     15     -10.9028      2.00000
     16     -10.8528      2.00000
     17      -5.9633      2.00000
     18      -5.8039      2.00000
     19      -2.6047      2.00000
     20      -2.2920      2.00000
     21      -2.1542      2.00000
     22      -1.8918      2.00000
     23      -1.6129      2.00000
     24      -1.3734      2.00000
     25      -1.2812      2.00000
     26      -1.0476      2.00000
     27      -0.9372      2.00000
     28      -0.8069      2.00000
     29      -0.6464      2.00000
     30      -0.5948      2.00000
     31      -0.5511      2.00000
     32      -0.5148      2.00000
     33      -0.4377      2.00000
     34      -0.4118      2.00000
     35       0.5135      2.00000
     36       0.5356      2.00000
     37       0.5743      2.00000
     38       0.5914      2.00000
     39       0.6287      2.00000
     40       0.6591      2.00000
     41       0.6797      2.00000
     42       0.7427      2.00000
     43       0.9298      2.00000
     44       1.0206      2.00000
     45       1.0824      2.00000
     46       1.2677      2.00000
     47       1.4079      2.00000
     48       1.7289      2.00000
     49       1.8186      2.00000
     50       2.0656      2.00000
     51       2.2565      2.00000
     52       2.3715      2.00000
     53       2.4218      2.00000
     54       3.0393      2.00000
     55       5.2049      0.00000
     56       5.3488      0.00000
     57       6.6739      0.00000
     58       6.7634      0.00000
     59       7.5736      0.00000
     60       7.8252      0.00000
     61       8.1761      0.00000
     62       8.7182      0.00000
     63       9.0613      0.00000
     64       9.2398      0.00000
     65       9.5210      0.00000
     66       9.5865      0.00000
     67       9.9095      0.00000
     68      10.0825      0.00000
     69      10.3297      0.00000
     70      10.5568      0.00000
     71      10.8106      0.00000
     72      11.1258      0.00000
     73      11.4572      0.00000
     74      12.1763      0.00000
     75      12.3647      0.00000
     76      12.6566      0.00000
     77      12.9435      0.00000
     78      13.2293      0.00000
     79      13.6275      0.00000
     80      13.7804      0.00000
     81      14.0340      0.00000
     82      14.3692      0.00000
     83      14.5219      0.00000
     84      14.7906      0.00000
     85      15.0490      0.00000
     86      15.5488      0.00000
     87      15.7885      0.00000
     88      16.0020      0.00000
     89      16.4701      0.00000
     90      16.5546      0.00000
     91      16.7333      0.00000
     92      17.0600      0.00000
     93      17.1845      0.00000
     94      17.5424      0.00000
     95      17.9313      0.00000
     96      18.0611      0.00000
     97      18.6853      0.00000
     98      18.8520      0.00000
     99      19.0524      0.00000
    100      19.2727      0.00000
    101      19.3700      0.00000
    102      19.6310      0.00000
    103      19.8268      0.00000
    104      20.0585      0.00000
    105      20.3121      0.00000
    106      20.5018      0.00000
    107      21.0769      0.00000
    108      21.1683      0.00000
    109      21.6458      0.00000
    110      21.8088      0.00000
    111      22.0084      0.00000
    112      22.1447      0.00000
    113      22.2668      0.00000
    114      22.6415      0.00000
    115      22.8178      0.00000
    116      22.9198      0.00000
    117      23.0215      0.00000
    118      23.3231      0.00000
    119      23.4156      0.00000
    120      23.5618      0.00000
    121      23.9156      0.00000
    122      24.1200      0.00000
    123      24.2882      0.00000
    124      24.6814      0.00000
    125      25.0845      0.00000
    126      25.2550      0.00000
    127      25.4318      0.00000
    128      25.5142      0.00000
    129      25.7023      0.00000
    130      26.0174      0.00000
    131      26.2631      0.00000
    132      26.4492      0.00000
    133      26.6624      0.00000
    134      26.9204      0.00000
    135      27.0819      0.00000
    136      27.1247      0.00000
    137      27.3592      0.00000
    138      27.4584      0.00000
    139      27.5244      0.00000
    140      27.6726      0.00000

 k-point    64 :       0.2857    0.2500    0.4286
  band No.  band energies     occupation 
      1     -25.4519      2.00000
      2     -25.4507      2.00000
      3     -25.4385      2.00000
      4     -25.4383      2.00000
      5     -25.4090      2.00000
      6     -25.4089      2.00000
      7     -25.3864      2.00000
      8     -25.3862      2.00000
      9     -25.3810      2.00000
     10     -25.3808      2.00000
     11     -12.3648      2.00000
     12     -12.1466      2.00000
     13     -11.3046      2.00000
     14     -11.2268      2.00000
     15     -10.9278      2.00000
     16     -10.8647      2.00000
     17      -5.9504      2.00000
     18      -5.7180      2.00000
     19      -2.5166      2.00000
     20      -2.3924      2.00000
     21      -2.0838      2.00000
     22      -1.7917      2.00000
     23      -1.5552      2.00000
     24      -1.4399      2.00000
     25      -1.2055      2.00000
     26      -1.1624      2.00000
     27      -0.9002      2.00000
     28      -0.8758      2.00000
     29      -0.6549      2.00000
     30      -0.6273      2.00000
     31      -0.5222      2.00000
     32      -0.4814      2.00000
     33      -0.4457      2.00000
     34      -0.4164      2.00000
     35       0.5256      2.00000
     36       0.5475      2.00000
     37       0.5507      2.00000
     38       0.5753      2.00000
     39       0.6411      2.00000
     40       0.6468      2.00000
     41       0.6829      2.00000
     42       0.7370      2.00000
     43       1.0026      2.00000
     44       1.0400      2.00000
     45       1.1599      2.00000
     46       1.2384      2.00000
     47       1.4414      2.00000
     48       1.6090      2.00000
     49       1.7924      2.00000
     50       1.9715      2.00000
     51       2.0154      2.00000
     52       2.2964      2.00000
     53       2.6194      2.00000
     54       2.6540      2.00000
     55       5.3695      0.00000
     56       5.4518      0.00000
     57       6.8117      0.00000
     58       6.8384      0.00000
     59       7.7262      0.00000
     60       7.9348      0.00000
     61       8.2532      0.00000
     62       8.4429      0.00000
     63       9.1225      0.00000
     64       9.2551      0.00000
     65       9.6469      0.00000
     66       9.8155      0.00000
     67       9.9872      0.00000
     68      10.0995      0.00000
     69      10.2290      0.00000
     70      10.4407      0.00000
     71      10.8488      0.00000
     72      11.0549      0.00000
     73      11.5830      0.00000
     74      11.6579      0.00000
     75      11.9520      0.00000
     76      12.1769      0.00000
     77      12.7634      0.00000
     78      13.3194      0.00000
     79      13.4340      0.00000
     80      13.6269      0.00000
     81      14.1187      0.00000
     82      14.3249      0.00000
     83      14.8665      0.00000
     84      15.1610      0.00000
     85      15.3682      0.00000
     86      15.6849      0.00000
     87      16.0324      0.00000
     88      16.2969      0.00000
     89      16.6651      0.00000
     90      16.9911      0.00000
     91      17.0555      0.00000
     92      17.3319      0.00000
     93      17.6008      0.00000
     94      17.7261      0.00000
     95      18.0355      0.00000
     96      18.1468      0.00000
     97      18.3291      0.00000
     98      18.4642      0.00000
     99      18.7866      0.00000
    100      18.9508      0.00000
    101      19.1762      0.00000
    102      19.3854      0.00000
    103      19.6128      0.00000
    104      19.7421      0.00000
    105      20.0844      0.00000
    106      20.5998      0.00000
    107      20.8978      0.00000
    108      21.0150      0.00000
    109      21.1351      0.00000
    110      21.3661      0.00000
    111      21.9259      0.00000
    112      22.0422      0.00000
    113      22.4373      0.00000
    114      22.7399      0.00000
    115      22.9830      0.00000
    116      23.1624      0.00000
    117      23.3931      0.00000
    118      23.5833      0.00000
    119      23.7178      0.00000
    120      23.8272      0.00000
    121      24.0407      0.00000
    122      24.4251      0.00000
    123      24.5740      0.00000
    124      24.8058      0.00000
    125      24.9866      0.00000
    126      25.3407      0.00000
    127      25.4554      0.00000
    128      25.6315      0.00000
    129      25.8179      0.00000
    130      25.9529      0.00000
    131      26.1366      0.00000
    132      26.2312      0.00000
    133      26.3163      0.00000
    134      26.5566      0.00000
    135      26.6915      0.00000
    136      26.7301      0.00000
    137      27.0736      0.00000
    138      27.2104      0.00000
    139      27.3725      0.00000
    140      27.5110      0.00000

 k-point    65 :       0.4286    0.2500    0.4286
  band No.  band energies     occupation 
      1     -25.4519      2.00000
      2     -25.4508      2.00000
      3     -25.4385      2.00000
      4     -25.4384      2.00000
      5     -25.4089      2.00000
      6     -25.4089      2.00000
      7     -25.3864      2.00000
      8     -25.3862      2.00000
      9     -25.3810      2.00000
     10     -25.3808      2.00000
     11     -12.2811      2.00000
     12     -12.1251      2.00000
     13     -11.3304      2.00000
     14     -11.2670      2.00000
     15     -11.0213      2.00000
     16     -10.8782      2.00000
     17      -5.9431      2.00000
     18      -5.6338      2.00000
     19      -2.5506      2.00000
     20      -2.3329      2.00000
     21      -2.0062      2.00000
     22      -1.8848      2.00000
     23      -1.6393      2.00000
     24      -1.3859      2.00000
     25      -1.2023      2.00000
     26      -1.0429      2.00000
     27      -0.9080      2.00000
     28      -0.8036      2.00000
     29      -0.6519      2.00000
     30      -0.6017      2.00000
     31      -0.5257      2.00000
     32      -0.4536      2.00000
     33      -0.4375      2.00000
     34      -0.4147      2.00000
     35       0.4947      2.00000
     36       0.5323      2.00000
     37       0.5766      2.00000
     38       0.5974      2.00000
     39       0.6413      2.00000
     40       0.6559      2.00000
     41       0.6901      2.00000
     42       0.7443      2.00000
     43       0.9757      2.00000
     44       1.0490      2.00000
     45       1.2186      2.00000
     46       1.3450      2.00000
     47       1.4936      2.00000
     48       1.5690      2.00000
     49       1.7408      2.00000
     50       1.8705      2.00000
     51       1.9781      2.00000
     52       2.2338      2.00000
     53       2.4500      2.00000
     54       2.7576      2.00000
     55       5.3029      0.00000
     56       5.3870      0.00000
     57       6.5464      0.00000
     58       6.7456      0.00000
     59       7.5923      0.00000
     60       7.6840      0.00000
     61       8.0304      0.00000
     62       8.4517      0.00000
     63       8.9393      0.00000
     64       9.1605      0.00000
     65       9.4786      0.00000
     66       9.8312      0.00000
     67       9.9387      0.00000
     68      10.2337      0.00000
     69      10.5433      0.00000
     70      10.6942      0.00000
     71      10.9799      0.00000
     72      11.2447      0.00000
     73      11.7534      0.00000
     74      11.7787      0.00000
     75      12.0529      0.00000
     76      12.5856      0.00000
     77      12.8179      0.00000
     78      13.0644      0.00000
     79      13.4058      0.00000
     80      13.5750      0.00000
     81      14.0548      0.00000
     82      14.3683      0.00000
     83      14.8670      0.00000
     84      14.9868      0.00000
     85      15.7623      0.00000
     86      15.9924      0.00000
     87      16.1703      0.00000
     88      16.3962      0.00000
     89      16.6915      0.00000
     90      16.9987      0.00000
     91      17.1651      0.00000
     92      17.4189      0.00000
     93      17.5448      0.00000
     94      17.7786      0.00000
     95      18.0389      0.00000
     96      18.3154      0.00000
     97      18.4685      0.00000
     98      18.6110      0.00000
     99      18.9320      0.00000
    100      19.1542      0.00000
    101      19.3241      0.00000
    102      19.5831      0.00000
    103      19.7391      0.00000
    104      20.0782      0.00000
    105      20.1313      0.00000
    106      20.2389      0.00000
    107      20.6855      0.00000
    108      21.0133      0.00000
    109      21.4413      0.00000
    110      21.5480      0.00000
    111      21.6610      0.00000
    112      22.0287      0.00000
    113      22.2532      0.00000
    114      22.3616      0.00000
    115      22.4803      0.00000
    116      22.6015      0.00000
    117      22.8075      0.00000
    118      23.0264      0.00000
    119      23.2500      0.00000
    120      23.8138      0.00000
    121      23.8511      0.00000
    122      24.0777      0.00000
    123      24.3762      0.00000
    124      24.4556      0.00000
    125      24.6495      0.00000
    126      24.7878      0.00000
    127      25.0306      0.00000
    128      25.1155      0.00000
    129      25.4028      0.00000
    130      25.7241      0.00000
    131      25.9676      0.00000
    132      26.1200      0.00000
    133      26.4102      0.00000
    134      26.5610      0.00000
    135      26.8463      0.00000
    136      26.9312      0.00000
    137      27.0430      0.00000
    138      27.3329      0.00000
    139      27.4456      0.00000
    140      27.8122      0.00000

 k-point    66 :      -0.4286    0.2500    0.4286
  band No.  band energies     occupation 
      1     -25.4519      2.00000
      2     -25.4508      2.00000
      3     -25.4385      2.00000
      4     -25.4384      2.00000
      5     -25.4089      2.00000
      6     -25.4088      2.00000
      7     -25.3863      2.00000
      8     -25.3862      2.00000
      9     -25.3809      2.00000
     10     -25.3807      2.00000
     11     -12.2671      2.00000
     12     -12.0789      2.00000
     13     -11.3080      2.00000
     14     -11.2474      2.00000
     15     -11.1044      2.00000
     16     -10.9343      2.00000
     17      -5.9391      2.00000
     18      -5.6182      2.00000
     19      -2.5840      2.00000
     20      -2.2980      2.00000
     21      -2.0808      2.00000
     22      -1.9208      2.00000
     23      -1.7535      2.00000
     24      -1.3322      2.00000
     25      -1.1085      2.00000
     26      -0.9631      2.00000
     27      -0.8700      2.00000
     28      -0.7339      2.00000
     29      -0.6213      2.00000
     30      -0.5668      2.00000
     31      -0.5206      2.00000
     32      -0.4670      2.00000
     33      -0.4346      2.00000
     34      -0.3885      2.00000
     35       0.4207      2.00000
     36       0.5601      2.00000
     37       0.6042      2.00000
     38       0.6172      2.00000
     39       0.6488      2.00000
     40       0.6641      2.00000
     41       0.7041      2.00000
     42       0.7477      2.00000
     43       0.8883      2.00000
     44       0.9494      2.00000
     45       1.2453      2.00000
     46       1.3752      2.00000
     47       1.5164      2.00000
     48       1.6361      2.00000
     49       1.7153      2.00000
     50       1.9788      2.00000
     51       2.1097      2.00000
     52       2.3331      2.00000
     53       2.5085      2.00000
     54       2.8800      2.00000
     55       5.0027      0.00000
     56       5.2335      0.00000
     57       6.1776      0.00000
     58       6.4801      0.00000
     59       7.2941      0.00000
     60       7.3658      0.00000
     61       7.8320      0.00000
     62       8.1968      0.00000
     63       8.5979      0.00000
     64       8.7585      0.00000
     65       9.5937      0.00000
     66       9.9819      0.00000
     67      10.2293      0.00000
     68      10.4138      0.00000
     69      10.7418      0.00000
     70      10.9599      0.00000
     71      11.2879      0.00000
     72      11.6465      0.00000
     73      11.9269      0.00000
     74      12.1437      0.00000
     75      12.5493      0.00000
     76      12.9742      0.00000
     77      13.0818      0.00000
     78      13.2342      0.00000
     79      13.4782      0.00000
     80      13.7486      0.00000
     81      14.0659      0.00000
     82      14.2480      0.00000
     83      14.5832      0.00000
     84      14.8055      0.00000
     85      15.0295      0.00000
     86      15.5873      0.00000
     87      15.7819      0.00000
     88      16.1564      0.00000
     89      16.5576      0.00000
     90      16.7991      0.00000
     91      17.0944      0.00000
     92      17.3119      0.00000
     93      17.5542      0.00000
     94      17.9744      0.00000
     95      18.3571      0.00000
     96      18.5050      0.00000
     97      18.9288      0.00000
     98      19.0762      0.00000
     99      19.4992      0.00000
    100      19.6534      0.00000
    101      19.7892      0.00000
    102      19.9522      0.00000
    103      20.3201      0.00000
    104      20.4518      0.00000
    105      20.6320      0.00000
    106      20.7474      0.00000
    107      20.9097      0.00000
    108      21.0720      0.00000
    109      21.2015      0.00000
    110      21.4548      0.00000
    111      21.5832      0.00000
    112      21.8034      0.00000
    113      21.9286      0.00000
    114      22.0575      0.00000
    115      22.2278      0.00000
    116      22.3552      0.00000
    117      22.4067      0.00000
    118      22.6114      0.00000
    119      22.7577      0.00000
    120      23.0103      0.00000
    121      23.1550      0.00000
    122      23.3131      0.00000
    123      23.4837      0.00000
    124      23.6283      0.00000
    125      24.0078      0.00000
    126      24.2656      0.00000
    127      24.4267      0.00000
    128      24.7550      0.00000
    129      24.9931      0.00000
    130      25.1084      0.00000
    131      25.4370      0.00000
    132      25.6979      0.00000
    133      26.5448      0.00000
    134      26.7980      0.00000
    135      27.0559      0.00000
    136      27.2554      0.00000
    137      27.3767      0.00000
    138      27.9039      0.00000
    139      28.2203      0.00000
    140      28.3776      0.00000

 k-point    67 :      -0.2857    0.2500    0.4286
  band No.  band energies     occupation 
      1     -25.4520      2.00000
      2     -25.4508      2.00000
      3     -25.4385      2.00000
      4     -25.4384      2.00000
      5     -25.4089      2.00000
      6     -25.4088      2.00000
      7     -25.3863      2.00000
      8     -25.3861      2.00000
      9     -25.3809      2.00000
     10     -25.3807      2.00000
     11     -12.3330      2.00000
     12     -12.0456      2.00000
     13     -11.2335      2.00000
     14     -11.2172      2.00000
     15     -11.1266      2.00000
     16     -10.9598      2.00000
     17      -5.9508      2.00000
     18      -5.6894      2.00000
     19      -2.6329      2.00000
     20      -2.5076      2.00000
     21      -2.1153      2.00000
     22      -1.6756      2.00000
     23      -1.6616      2.00000
     24      -1.3016      2.00000
     25      -1.0765      2.00000
     26      -1.0549      2.00000
     27      -0.7645      2.00000
     28      -0.6961      2.00000
     29      -0.6224      2.00000
     30      -0.6102      2.00000
     31      -0.5498      2.00000
     32      -0.5018      2.00000
     33      -0.4327      2.00000
     34      -0.3844      2.00000
     35       0.3934      2.00000
     36       0.5765      2.00000
     37       0.5957      2.00000
     38       0.6286      2.00000
     39       0.6359      2.00000
     40       0.6777      2.00000
     41       0.6798      2.00000
     42       0.7202      2.00000
     43       0.8936      2.00000
     44       0.9388      2.00000
     45       1.0915      2.00000
     46       1.3801      2.00000
     47       1.5084      2.00000
     48       1.8455      2.00000
     49       1.8786      2.00000
     50       2.1252      2.00000
     51       2.2148      2.00000
     52       2.3715      2.00000
     53       2.4838      2.00000
     54       2.8781      2.00000
     55       4.9038      0.00000
     56       5.1314      0.00000
     57       6.1793      0.00000
     58       6.4022      0.00000
     59       7.1330      0.00000
     60       7.1496      0.00000
     61       7.7465      0.00000
     62       8.1787      0.00000
     63       8.4968      0.00000
     64       8.7208      0.00000
     65       9.3697      0.00000
     66       9.8200      0.00000
     67      10.3594      0.00000
     68      10.4269      0.00000
     69      10.9826      0.00000
     70      11.1529      0.00000
     71      11.3282      0.00000
     72      11.3743      0.00000
     73      12.0237      0.00000
     74      12.0727      0.00000
     75      12.3846      0.00000
     76      12.6810      0.00000
     77      13.1617      0.00000
     78      13.7529      0.00000
     79      13.8380      0.00000
     80      13.9770      0.00000
     81      14.3693      0.00000
     82      14.4789      0.00000
     83      14.6734      0.00000
     84      14.9298      0.00000
     85      15.2973      0.00000
     86      15.3738      0.00000
     87      15.9247      0.00000
     88      16.0071      0.00000
     89      16.5701      0.00000
     90      16.9988      0.00000
     91      17.0984      0.00000
     92      17.6245      0.00000
     93      17.6630      0.00000
     94      18.0335      0.00000
     95      18.0744      0.00000
     96      18.5305      0.00000
     97      18.5419      0.00000
     98      18.9013      0.00000
     99      19.0674      0.00000
    100      19.2229      0.00000
    101      19.5146      0.00000
    102      19.5855      0.00000
    103      19.9699      0.00000
    104      20.1401      0.00000
    105      20.2932      0.00000
    106      20.5009      0.00000
    107      20.6631      0.00000
    108      20.8425      0.00000
    109      20.9071      0.00000
    110      21.2513      0.00000
    111      21.4689      0.00000
    112      21.8384      0.00000
    113      21.9195      0.00000
    114      22.1882      0.00000
    115      22.5954      0.00000
    116      22.8118      0.00000
    117      22.8723      0.00000
    118      23.0658      0.00000
    119      23.2909      0.00000
    120      23.4170      0.00000
    121      23.5540      0.00000
    122      23.6965      0.00000
    123      23.8164      0.00000
    124      23.9738      0.00000
    125      24.1589      0.00000
    126      24.2651      0.00000
    127      24.4838      0.00000
    128      24.6797      0.00000
    129      24.8074      0.00000
    130      25.1130      0.00000
    131      25.2178      0.00000
    132      25.8267      0.00000
    133      26.0981      0.00000
    134      26.3865      0.00000
    135      26.6593      0.00000
    136      26.9353      0.00000
    137      27.3005      0.00000
    138      27.8177      0.00000
    139      28.0799      0.00000
    140      28.1771      0.00000

 k-point    68 :      -0.1429    0.2500    0.4286
  band No.  band energies     occupation 
      1     -25.4519      2.00000
      2     -25.4508      2.00000
      3     -25.4385      2.00000
      4     -25.4384      2.00000
      5     -25.4089      2.00000
      6     -25.4088      2.00000
      7     -25.3863      2.00000
      8     -25.3861      2.00000
      9     -25.3809      2.00000
     10     -25.3807      2.00000
     11     -12.4174      2.00000
     12     -12.0456      2.00000
     13     -11.2660      2.00000
     14     -11.1806      2.00000
     15     -11.0433      2.00000
     16     -10.8943      2.00000
     17      -5.9727      2.00000
     18      -5.7878      2.00000
     19      -2.7102      2.00000
     20      -2.5213      2.00000
     21      -2.1712      2.00000
     22      -1.5703      2.00000
     23      -1.4429      2.00000
     24      -1.3369      2.00000
     25      -1.1714      2.00000
     26      -1.0501      2.00000
     27      -0.8086      2.00000
     28      -0.7268      2.00000
     29      -0.6443      2.00000
     30      -0.6224      2.00000
     31      -0.5803      2.00000
     32      -0.5517      2.00000
     33      -0.4296      2.00000
     34      -0.3940      2.00000
     35       0.4431      2.00000
     36       0.5227      2.00000
     37       0.5856      2.00000
     38       0.5982      2.00000
     39       0.6217      2.00000
     40       0.6575      2.00000
     41       0.6677      2.00000
     42       0.6899      2.00000
     43       0.9694      2.00000
     44       1.0197      2.00000
     45       1.0773      2.00000
     46       1.3597      2.00000
     47       1.6499      2.00000
     48       1.7517      2.00000
     49       1.8825      2.00000
     50       2.1391      2.00000
     51       2.2333      2.00000
     52       2.4150      2.00000
     53       2.5635      2.00000
     54       2.7392      2.00000
     55       5.0146      0.00000
     56       5.1897      0.00000
     57       6.4124      0.00000
     58       6.6438      0.00000
     59       7.0677      0.00000
     60       7.1881      0.00000
     61       7.9969      0.00000
     62       8.3872      0.00000
     63       8.7060      0.00000
     64       8.8646      0.00000
     65       9.1321      0.00000
     66       9.6219      0.00000
     67      10.0466      0.00000
     68      10.2726      0.00000
     69      10.6070      0.00000
     70      10.8016      0.00000
     71      11.2408      0.00000
     72      11.4943      0.00000
     73      11.7580      0.00000
     74      11.8981      0.00000
     75      12.2413      0.00000
     76      12.4686      0.00000
     77      13.2448      0.00000
     78      13.5820      0.00000
     79      13.8490      0.00000
     80      14.1070      0.00000
     81      14.6608      0.00000
     82      14.9510      0.00000
     83      15.1098      0.00000
     84      15.2183      0.00000
     85      15.6126      0.00000
     86      15.7502      0.00000
     87      16.0084      0.00000
     88      16.3447      0.00000
     89      16.6751      0.00000
     90      16.7714      0.00000
     91      16.9931      0.00000
     92      17.5139      0.00000
     93      17.6318      0.00000
     94      17.8895      0.00000
     95      17.9999      0.00000
     96      18.2658      0.00000
     97      18.4002      0.00000
     98      18.5578      0.00000
     99      18.7227      0.00000
    100      18.7794      0.00000
    101      18.9476      0.00000
    102      19.1025      0.00000
    103      19.3320      0.00000
    104      19.4849      0.00000
    105      19.5702      0.00000
    106      19.8982      0.00000
    107      20.1684      0.00000
    108      20.7133      0.00000
    109      20.9371      0.00000
    110      21.1409      0.00000
    111      21.9164      0.00000
    112      22.0858      0.00000
    113      22.4977      0.00000
    114      22.8436      0.00000
    115      22.9711      0.00000
    116      23.0950      0.00000
    117      23.1999      0.00000
    118      23.4391      0.00000
    119      23.5767      0.00000
    120      23.8149      0.00000
    121      24.1856      0.00000
    122      24.2981      0.00000
    123      24.3747      0.00000
    124      24.5992      0.00000
    125      24.7693      0.00000
    126      24.9048      0.00000
    127      25.1091      0.00000
    128      25.2241      0.00000
    129      25.4478      0.00000
    130      25.6437      0.00000
    131      25.9198      0.00000
    132      26.0275      0.00000
    133      26.2495      0.00000
    134      26.3671      0.00000
    135      26.6241      0.00000
    136      26.9203      0.00000
    137      27.1660      0.00000
    138      27.4185      0.00000
    139      27.6124      0.00000
    140      27.7259      0.00000

 k-point    69 :       0.0000    0.5000    0.4286
  band No.  band energies     occupation 
      1     -25.4519      2.00000
      2     -25.4508      2.00000
      3     -25.4385      2.00000
      4     -25.4383      2.00000
      5     -25.4089      2.00000
      6     -25.4087      2.00000
      7     -25.3863      2.00000
      8     -25.3861      2.00000
      9     -25.3808      2.00000
     10     -25.3807      2.00000
     11     -12.3120      2.00000
     12     -12.0918      2.00000
     13     -11.2987      2.00000
     14     -11.2048      2.00000
     15     -11.0943      2.00000
     16     -10.8942      2.00000
     17      -5.9636      2.00000
     18      -5.7254      2.00000
     19      -2.7778      2.00000
     20      -2.1729      2.00000
     21      -2.1425      2.00000
     22      -1.8459      2.00000
     23      -1.5489      2.00000
     24      -1.3082      2.00000
     25      -1.1138      2.00000
     26      -1.0314      2.00000
     27      -0.8646      2.00000
     28      -0.7040      2.00000
     29      -0.6793      2.00000
     30      -0.5628      2.00000
     31      -0.5224      2.00000
     32      -0.4957      2.00000
     33      -0.4431      2.00000
     34      -0.3746      2.00000
     35       0.4309      2.00000
     36       0.4947      2.00000
     37       0.5791      2.00000
     38       0.5990      2.00000
     39       0.6254      2.00000
     40       0.6528      2.00000
     41       0.6954      2.00000
     42       0.7376      2.00000
     43       0.9120      2.00000
     44       1.1339      2.00000
     45       1.2475      2.00000
     46       1.3178      2.00000
     47       1.4029      2.00000
     48       1.6563      2.00000
     49       1.8601      2.00000
     50       2.0011      2.00000
     51       2.1976      2.00000
     52       2.4439      2.00000
     53       2.6615      2.00000
     54       2.7963      2.00000
     55       4.7928      0.00000
     56       5.2602      0.00000
     57       6.0695      0.00000
     58       6.8148      0.00000
     59       7.2264      0.00000
     60       7.4730      0.00000
     61       7.9305      0.00000
     62       8.1125      0.00000
     63       8.7373      0.00000
     64       9.0101      0.00000
     65       9.4513      0.00000
     66       9.7640      0.00000
     67       9.8922      0.00000
     68      10.2002      0.00000
     69      10.3670      0.00000
     70      10.5211      0.00000
     71      10.5671      0.00000
     72      10.9126      0.00000
     73      11.7408      0.00000
     74      12.2254      0.00000
     75      12.8074      0.00000
     76      13.0224      0.00000
     77      13.2443      0.00000
     78      13.7143      0.00000
     79      13.9825      0.00000
     80      14.1013      0.00000
     81      14.6633      0.00000
     82      14.9420      0.00000
     83      15.0634      0.00000
     84      15.3024      0.00000
     85      15.5702      0.00000
     86      15.9319      0.00000
     87      16.0749      0.00000
     88      16.4178      0.00000
     89      16.7484      0.00000
     90      16.8444      0.00000
     91      17.2004      0.00000
     92      17.4970      0.00000
     93      17.6277      0.00000
     94      17.8740      0.00000
     95      18.0957      0.00000
     96      18.2203      0.00000
     97      18.3687      0.00000
     98      18.5296      0.00000
     99      18.7174      0.00000
    100      18.9466      0.00000
    101      19.0751      0.00000
    102      19.4146      0.00000
    103      19.5246      0.00000
    104      19.6319      0.00000
    105      20.0048      0.00000
    106      20.0804      0.00000
    107      20.1577      0.00000
    108      20.5336      0.00000
    109      21.0424      0.00000
    110      21.2396      0.00000
    111      21.6159      0.00000
    112      21.7279      0.00000
    113      21.9316      0.00000
    114      22.2078      0.00000
    115      22.3474      0.00000
    116      22.6343      0.00000
    117      22.8747      0.00000
    118      23.1146      0.00000
    119      23.2969      0.00000
    120      23.5786      0.00000
    121      23.6916      0.00000
    122      24.1180      0.00000
    123      24.5350      0.00000
    124      24.7608      0.00000
    125      24.8931      0.00000
    126      25.0822      0.00000
    127      25.2407      0.00000
    128      25.3606      0.00000
    129      25.7002      0.00000
    130      26.1435      0.00000
    131      26.3132      0.00000
    132      26.4429      0.00000
    133      26.4820      0.00000
    134      26.6040      0.00000
    135      26.8950      0.00000
    136      27.0686      0.00000
    137      27.1230      0.00000
    138      27.3654      0.00000
    139      27.5248      0.00000
    140      27.7128      0.00000

 k-point    70 :       0.1429    0.5000    0.4286
  band No.  band energies     occupation 
      1     -25.4519      2.00000
      2     -25.4508      2.00000
      3     -25.4385      2.00000
      4     -25.4383      2.00000
      5     -25.4089      2.00000
      6     -25.4087      2.00000
      7     -25.3863      2.00000
      8     -25.3861      2.00000
      9     -25.3809      2.00000
     10     -25.3807      2.00000
     11     -12.3284      2.00000
     12     -12.0699      2.00000
     13     -11.3288      2.00000
     14     -11.1850      2.00000
     15     -11.0741      2.00000
     16     -10.9100      2.00000
     17      -5.9302      2.00000
     18      -5.7484      2.00000
     19      -2.7474      2.00000
     20      -2.2242      2.00000
     21      -2.1158      2.00000
     22      -1.9523      2.00000
     23      -1.4529      2.00000
     24      -1.3284      2.00000
     25      -1.2433      2.00000
     26      -1.0410      2.00000
     27      -0.7915      2.00000
     28      -0.7108      2.00000
     29      -0.6441      2.00000
     30      -0.5591      2.00000
     31      -0.5377      2.00000
     32      -0.4890      2.00000
     33      -0.4215      2.00000
     34      -0.3713      2.00000
     35       0.4139      2.00000
     36       0.5355      2.00000
     37       0.5886      2.00000
     38       0.6021      2.00000
     39       0.6361      2.00000
     40       0.6577      2.00000
     41       0.7118      2.00000
     42       0.7187      2.00000
     43       0.9056      2.00000
     44       1.1053      2.00000
     45       1.2070      2.00000
     46       1.3495      2.00000
     47       1.3963      2.00000
     48       1.6373      2.00000
     49       1.8371      2.00000
     50       2.0205      2.00000
     51       2.2225      2.00000
     52       2.5065      2.00000
     53       2.6785      2.00000
     54       2.9025      2.00000
     55       4.7357      0.00000
     56       5.1949      0.00000
     57       6.1632      0.00000
     58       6.6124      0.00000
     59       7.0636      0.00000
     60       7.4272      0.00000
     61       7.8741      0.00000
     62       8.1443      0.00000
     63       8.5728      0.00000
     64       9.1342      0.00000
     65       9.2982      0.00000
     66       9.6172      0.00000
     67      10.0408      0.00000
     68      10.3029      0.00000
     69      10.4281      0.00000
     70      10.7081      0.00000
     71      11.1003      0.00000
     72      11.2156      0.00000
     73      12.0427      0.00000
     74      12.1620      0.00000
     75      12.6190      0.00000
     76      12.7755      0.00000
     77      13.2184      0.00000
     78      13.8459      0.00000
     79      14.0847      0.00000
     80      14.1628      0.00000
     81      14.4433      0.00000
     82      14.6179      0.00000
     83      14.9547      0.00000
     84      15.0859      0.00000
     85      15.4216      0.00000
     86      15.6181      0.00000
     87      15.7122      0.00000
     88      16.4133      0.00000
     89      16.5128      0.00000
     90      16.6954      0.00000
     91      17.2123      0.00000
     92      17.4323      0.00000
     93      17.6536      0.00000
     94      17.8269      0.00000
     95      18.0498      0.00000
     96      18.2620      0.00000
     97      18.5575      0.00000
     98      18.7283      0.00000
     99      18.8703      0.00000
    100      19.0288      0.00000
    101      19.2670      0.00000
    102      19.5433      0.00000
    103      19.7261      0.00000
    104      20.0594      0.00000
    105      20.1897      0.00000
    106      20.5071      0.00000
    107      20.7344      0.00000
    108      20.9649      0.00000
    109      21.1177      0.00000
    110      21.3447      0.00000
    111      21.5620      0.00000
    112      21.7280      0.00000
    113      21.8734      0.00000
    114      22.1008      0.00000
    115      22.4028      0.00000
    116      22.5070      0.00000
    117      22.8579      0.00000
    118      23.0381      0.00000
    119      23.1645      0.00000
    120      23.3873      0.00000
    121      23.6622      0.00000
    122      23.7439      0.00000
    123      24.2555      0.00000
    124      24.5063      0.00000
    125      24.7283      0.00000
    126      24.8552      0.00000
    127      25.1194      0.00000
    128      25.2527      0.00000
    129      25.5671      0.00000
    130      25.6408      0.00000
    131      25.7500      0.00000
    132      25.9065      0.00000
    133      26.0590      0.00000
    134      26.3126      0.00000
    135      26.4874      0.00000
    136      26.6914      0.00000
    137      26.7982      0.00000
    138      27.1096      0.00000
    139      27.2597      0.00000
    140      27.7787      0.00000

 k-point    71 :       0.2857    0.5000    0.4286
  band No.  band energies     occupation 
      1     -25.4519      2.00000
      2     -25.4508      2.00000
      3     -25.4385      2.00000
      4     -25.4383      2.00000
      5     -25.4090      2.00000
      6     -25.4088      2.00000
      7     -25.3863      2.00000
      8     -25.3862      2.00000
      9     -25.3809      2.00000
     10     -25.3807      2.00000
     11     -12.3148      2.00000
     12     -12.0594      2.00000
     13     -11.3882      2.00000
     14     -11.1878      2.00000
     15     -11.0128      2.00000
     16     -10.9482      2.00000
     17      -5.8879      2.00000
     18      -5.7280      2.00000
     19      -2.6496      2.00000
     20      -2.2560      2.00000
     21      -2.1425      2.00000
     22      -1.9463      2.00000
     23      -1.4867      2.00000
     24      -1.3571      2.00000
     25      -1.2620      2.00000
     26      -0.9895      2.00000
     27      -0.8546      2.00000
     28      -0.7872      2.00000
     29      -0.6179      2.00000
     30      -0.5585      2.00000
     31      -0.5136      2.00000
     32      -0.4845      2.00000
     33      -0.4100      2.00000
     34      -0.3759      2.00000
     35       0.4242      2.00000
     36       0.5558      2.00000
     37       0.5886      2.00000
     38       0.6089      2.00000
     39       0.6351      2.00000
     40       0.6635      2.00000
     41       0.6941      2.00000
     42       0.7511      2.00000
     43       0.9123      2.00000
     44       1.0299      2.00000
     45       1.2150      2.00000
     46       1.3169      2.00000
     47       1.5104      2.00000
     48       1.6592      2.00000
     49       1.8086      2.00000
     50       1.9127      2.00000
     51       2.0788      2.00000
     52       2.4320      2.00000
     53       2.5218      2.00000
     54       2.9175      2.00000
     55       4.9018      0.00000
     56       5.2971      0.00000
     57       6.4058      0.00000
     58       6.6756      0.00000
     59       6.9718      0.00000
     60       7.4418      0.00000
     61       7.8911      0.00000
     62       8.3006      0.00000
     63       8.5371      0.00000
     64       8.9935      0.00000
     65       9.4562      0.00000
     66       9.7428      0.00000
     67       9.8820      0.00000
     68      10.2712      0.00000
     69      10.6100      0.00000
     70      11.0477      0.00000
     71      11.3887      0.00000
     72      11.6319      0.00000
     73      11.7607      0.00000
     74      12.1045      0.00000
     75      12.4019      0.00000
     76      12.5811      0.00000
     77      13.1807      0.00000
     78      13.5321      0.00000
     79      13.7838      0.00000
     80      13.9073      0.00000
     81      14.4587      0.00000
     82      14.5558      0.00000
     83      14.7187      0.00000
     84      15.0104      0.00000
     85      15.1424      0.00000
     86      15.4325      0.00000
     87      15.7510      0.00000
     88      16.0283      0.00000
     89      16.3681      0.00000
     90      16.8258      0.00000
     91      17.0444      0.00000
     92      17.3341      0.00000
     93      17.5105      0.00000
     94      17.7822      0.00000
     95      18.1094      0.00000
     96      18.4587      0.00000
     97      18.7717      0.00000
     98      19.0264      0.00000
     99      19.1584      0.00000
    100      19.5997      0.00000
    101      19.6969      0.00000
    102      19.8591      0.00000
    103      20.0259      0.00000
    104      20.2032      0.00000
    105      20.4512      0.00000
    106      20.6006      0.00000
    107      20.8310      0.00000
    108      21.0247      0.00000
    109      21.2833      0.00000
    110      21.3878      0.00000
    111      21.5630      0.00000
    112      21.8342      0.00000
    113      21.9967      0.00000
    114      22.1109      0.00000
    115      22.3559      0.00000
    116      22.5442      0.00000
    117      22.6667      0.00000
    118      22.9960      0.00000
    119      23.1219      0.00000
    120      23.2335      0.00000
    121      23.5087      0.00000
    122      23.7337      0.00000
    123      23.8686      0.00000
    124      23.9568      0.00000
    125      24.1296      0.00000
    126      24.3938      0.00000
    127      24.7722      0.00000
    128      25.0752      0.00000
    129      25.2106      0.00000
    130      25.2989      0.00000
    131      25.4589      0.00000
    132      25.6124      0.00000
    133      25.8408      0.00000
    134      26.0232      0.00000
    135      26.3673      0.00000
    136      26.7523      0.00000
    137      27.2195      0.00000
    138      27.3970      0.00000
    139      27.9183      0.00000
    140      28.3138      0.00000

 k-point    72 :       0.4286    0.5000    0.4286
  band No.  band energies     occupation 
      1     -25.4519      2.00000
      2     -25.4508      2.00000
      3     -25.4385      2.00000
      4     -25.4384      2.00000
      5     -25.4090      2.00000
      6     -25.4089      2.00000
      7     -25.3864      2.00000
      8     -25.3862      2.00000
      9     -25.3810      2.00000
     10     -25.3808      2.00000
     11     -12.2831      2.00000
     12     -12.0611      2.00000
     13     -11.4175      2.00000
     14     -11.2538      2.00000
     15     -10.9635      2.00000
     16     -10.9484      2.00000
     17      -5.8774      2.00000
     18      -5.6788      2.00000
     19      -2.6014      2.00000
     20      -2.3618      2.00000
     21      -1.9671      2.00000
     22      -1.8242      2.00000
     23      -1.5513      2.00000
     24      -1.3708      2.00000
     25      -1.1844      2.00000
     26      -1.0019      2.00000
     27      -0.9833      2.00000
     28      -0.9019      2.00000
     29      -0.6033      2.00000
     30      -0.5795      2.00000
     31      -0.4969      2.00000
     32      -0.4699      2.00000
     33      -0.4422      2.00000
     34      -0.3717      2.00000
     35       0.4775      2.00000
     36       0.5351      2.00000
     37       0.5664      2.00000
     38       0.5973      2.00000
     39       0.6327      2.00000
     40       0.6644      2.00000
     41       0.6842      2.00000
     42       0.6903      2.00000
     43       1.0162      2.00000
     44       1.0701      2.00000
     45       1.2554      2.00000
     46       1.2690      2.00000
     47       1.5285      2.00000
     48       1.5942      2.00000
     49       1.8098      2.00000
     50       1.9591      2.00000
     51       2.0250      2.00000
     52       2.2036      2.00000
     53       2.3049      2.00000
     54       2.5753      2.00000
     55       5.2549      0.00000
     56       5.5021      0.00000
     57       6.7080      0.00000
     58       6.9208      0.00000
     59       7.1082      0.00000
     60       7.4119      0.00000
     61       8.1658      0.00000
     62       8.2778      0.00000
     63       8.9025      0.00000
     64       9.2572      0.00000
     65       9.3575      0.00000
     66       9.6581      0.00000
     67       9.9621      0.00000
     68      10.2467      0.00000
     69      10.4473      0.00000
     70      10.6276      0.00000
     71      11.1779      0.00000
     72      11.3405      0.00000
     73      11.7271      0.00000
     74      11.8475      0.00000
     75      11.9672      0.00000
     76      12.5890      0.00000
     77      12.8673      0.00000
     78      13.3219      0.00000
     79      13.5536      0.00000
     80      13.9580      0.00000
     81      14.3752      0.00000
     82      14.4545      0.00000
     83      15.0255      0.00000
     84      15.2709      0.00000
     85      15.4325      0.00000
     86      15.9535      0.00000
     87      16.2746      0.00000
     88      16.3516      0.00000
     89      16.5545      0.00000
     90      16.7262      0.00000
     91      17.1692      0.00000
     92      17.4727      0.00000
     93      17.6619      0.00000
     94      17.8567      0.00000
     95      18.1443      0.00000
     96      18.2799      0.00000
     97      18.5023      0.00000
     98      18.6568      0.00000
     99      18.8439      0.00000
    100      19.1200      0.00000
    101      19.3127      0.00000
    102      19.5167      0.00000
    103      19.6909      0.00000
    104      20.0105      0.00000
    105      20.2342      0.00000
    106      20.5393      0.00000
    107      20.7067      0.00000
    108      20.9741      0.00000
    109      21.1818      0.00000
    110      21.3148      0.00000
    111      21.4092      0.00000
    112      21.8418      0.00000
    113      22.0628      0.00000
    114      22.4559      0.00000
    115      22.5650      0.00000
    116      22.7471      0.00000
    117      22.9581      0.00000
    118      23.0979      0.00000
    119      23.4835      0.00000
    120      23.5650      0.00000
    121      23.7398      0.00000
    122      23.8991      0.00000
    123      23.9908      0.00000
    124      24.1948      0.00000
    125      24.3539      0.00000
    126      24.4999      0.00000
    127      24.8059      0.00000
    128      25.0862      0.00000
    129      25.1534      0.00000
    130      25.3381      0.00000
    131      25.6007      0.00000
    132      26.1613      0.00000
    133      26.3524      0.00000
    134      26.8326      0.00000
    135      26.9350      0.00000
    136      27.1278      0.00000
    137      27.3321      0.00000
    138      27.3934      0.00000
    139      27.6397      0.00000
    140      27.8778      0.00000

 k-point    73 :      -0.4286    0.5000    0.4286
  band No.  band energies     occupation 
      1     -25.4519      2.00000
      2     -25.4508      2.00000
      3     -25.4386      2.00000
      4     -25.4384      2.00000
      5     -25.4090      2.00000
      6     -25.4089      2.00000
      7     -25.3864      2.00000
      8     -25.3862      2.00000
      9     -25.3810      2.00000
     10     -25.3808      2.00000
     11     -12.2606      2.00000
     12     -12.0740      2.00000
     13     -11.3833      2.00000
     14     -11.3097      2.00000
     15     -11.0119      2.00000
     16     -10.8971      2.00000
     17      -5.8995      2.00000
     18      -5.6209      2.00000
     19      -2.5207      2.00000
     20      -2.4414      2.00000
     21      -1.8795      2.00000
     22      -1.8034      2.00000
     23      -1.5794      2.00000
     24      -1.4578      2.00000
     25      -1.1319      2.00000
     26      -1.0589      2.00000
     27      -0.9926      2.00000
     28      -0.8883      2.00000
     29      -0.6069      2.00000
     30      -0.5908      2.00000
     31      -0.4980      2.00000
     32      -0.4853      2.00000
     33      -0.4051      2.00000
     34      -0.4025      2.00000
     35       0.5132      2.00000
     36       0.5240      2.00000
     37       0.5680      2.00000
     38       0.5941      2.00000
     39       0.6463      2.00000
     40       0.6567      2.00000
     41       0.6784      2.00000
     42       0.6952      2.00000
     43       1.0126      2.00000
     44       1.0481      2.00000
     45       1.2523      2.00000
     46       1.2927      2.00000
     47       1.5429      2.00000
     48       1.6342      2.00000
     49       1.7339      2.00000
     50       1.8703      2.00000
     51       2.0714      2.00000
     52       2.1912      2.00000
     53       2.2900      2.00000
     54       2.4296      2.00000
     55       5.4124      0.00000
     56       5.4681      0.00000
     57       6.7362      0.00000
     58       6.8573      0.00000
     59       7.2440      0.00000
     60       7.4857      0.00000
     61       8.2318      0.00000
     62       8.3106      0.00000
     63       9.1834      0.00000
     64       9.2108      0.00000
     65       9.4713      0.00000
     66       9.6407      0.00000
     67       9.9961      0.00000
     68      10.1476      0.00000
     69      10.5834      0.00000
     70      10.7346      0.00000
     71      10.9880      0.00000
     72      11.2761      0.00000
     73      11.5466      0.00000
     74      11.8667      0.00000
     75      11.8931      0.00000
     76      12.5464      0.00000
     77      12.8944      0.00000
     78      13.0606      0.00000
     79      13.3611      0.00000
     80      13.5647      0.00000
     81      14.3333      0.00000
     82      14.3842      0.00000
     83      14.9648      0.00000
     84      15.1659      0.00000
     85      15.8552      0.00000
     86      16.1130      0.00000
     87      16.2633      0.00000
     88      16.5431      0.00000
     89      16.8266      0.00000
     90      17.1641      0.00000
     91      17.3147      0.00000
     92      17.5513      0.00000
     93      17.7151      0.00000
     94      17.7771      0.00000
     95      17.9118      0.00000
     96      18.1256      0.00000
     97      18.3865      0.00000
     98      18.4907      0.00000
     99      18.6183      0.00000
    100      19.0837      0.00000
    101      19.2277      0.00000
    102      19.3841      0.00000
    103      19.7483      0.00000
    104      19.8457      0.00000
    105      20.2072      0.00000
    106      20.5483      0.00000
    107      20.7027      0.00000
    108      20.9565      0.00000
    109      21.1233      0.00000
    110      21.2539      0.00000
    111      21.6600      0.00000
    112      21.8126      0.00000
    113      22.1873      0.00000
    114      22.4985      0.00000
    115      22.6379      0.00000
    116      22.7949      0.00000
    117      23.0025      0.00000
    118      23.0675      0.00000
    119      23.3181      0.00000
    120      23.5685      0.00000
    121      23.7905      0.00000
    122      23.9512      0.00000
    123      24.2961      0.00000
    124      24.4257      0.00000
    125      24.5116      0.00000
    126      24.7029      0.00000
    127      24.9569      0.00000
    128      25.1688      0.00000
    129      25.4244      0.00000
    130      25.4851      0.00000
    131      25.7851      0.00000
    132      25.9009      0.00000
    133      26.0997      0.00000
    134      26.6244      0.00000
    135      26.9468      0.00000
    136      27.0984      0.00000
    137      27.2155      0.00000
    138      27.3137      0.00000
    139      27.5624      0.00000
    140      27.7007      0.00000

 k-point    74 :      -0.2857    0.5000    0.4286
  band No.  band energies     occupation 
      1     -25.4519      2.00000
      2     -25.4508      2.00000
      3     -25.4385      2.00000
      4     -25.4384      2.00000
      5     -25.4089      2.00000
      6     -25.4089      2.00000
      7     -25.3864      2.00000
      8     -25.3862      2.00000
      9     -25.3810      2.00000
     10     -25.3808      2.00000
     11     -12.2590      2.00000
     12     -12.0979      2.00000
     13     -11.3331      2.00000
     14     -11.2821      2.00000
     15     -11.0637      2.00000
     16     -10.8961      2.00000
     17      -5.9320      2.00000
     18      -5.6064      2.00000
     19      -2.5363      2.00000
     20      -2.3290      2.00000
     21      -2.0055      2.00000
     22      -1.9415      2.00000
     23      -1.6719      2.00000
     24      -1.3809      2.00000
     25      -1.1589      2.00000
     26      -0.9967      2.00000
     27      -0.9163      2.00000
     28      -0.7926      2.00000
     29      -0.6308      2.00000
     30      -0.5811      2.00000
     31      -0.5094      2.00000
     32      -0.4498      2.00000
     33      -0.4449      2.00000
     34      -0.3992      2.00000
     35       0.4745      2.00000
     36       0.5373      2.00000
     37       0.5958      2.00000
     38       0.6062      2.00000
     39       0.6467      2.00000
     40       0.6568      2.00000
     41       0.6875      2.00000
     42       0.7375      2.00000
     43       0.9477      2.00000
     44       0.9936      2.00000
     45       1.2700      2.00000
     46       1.3842      2.00000
     47       1.4716      2.00000
     48       1.6364      2.00000
     49       1.6883      2.00000
     50       1.8873      2.00000
     51       2.0093      2.00000
     52       2.2339      2.00000
     53       2.4495      2.00000
     54       2.7700      2.00000
     55       5.2121      0.00000
     56       5.3388      0.00000
     57       6.4051      0.00000
     58       6.6524      0.00000
     59       7.4303      0.00000
     60       7.4901      0.00000
     61       7.9856      0.00000
     62       8.3277      0.00000
     63       8.8046      0.00000
     64       8.9815      0.00000
     65       9.5607      0.00000
     66       9.9229      0.00000
     67      10.1081      0.00000
     68      10.4414      0.00000
     69      10.5775      0.00000
     70      10.8384      0.00000
     71      11.1152      0.00000
     72      11.5313      0.00000
     73      11.7436      0.00000
     74      11.9248      0.00000
     75      12.1638      0.00000
     76      12.7258      0.00000
     77      12.9133      0.00000
     78      13.0921      0.00000
     79      13.3922      0.00000
     80      13.6005      0.00000
     81      14.0674      0.00000
     82      14.4208      0.00000
     83      14.5950      0.00000
     84      14.8186      0.00000
     85      15.3634      0.00000
     86      15.9018      0.00000
     87      16.2048      0.00000
     88      16.3239      0.00000
     89      16.5847      0.00000
     90      16.9279      0.00000
     91      17.1207      0.00000
     92      17.3368      0.00000
     93      17.6445      0.00000
     94      17.7728      0.00000
     95      18.0776      0.00000
     96      18.2809      0.00000
     97      18.7628      0.00000
     98      18.9318      0.00000
     99      19.1779      0.00000
    100      19.4574      0.00000
    101      19.6679      0.00000
    102      19.8467      0.00000
    103      20.0708      0.00000
    104      20.2522      0.00000
    105      20.4048      0.00000
    106      20.5880      0.00000
    107      20.8032      0.00000
    108      20.9723      0.00000
    109      21.3479      0.00000
    110      21.5216      0.00000
    111      21.6295      0.00000
    112      21.8954      0.00000
    113      22.0136      0.00000
    114      22.1556      0.00000
    115      22.2146      0.00000
    116      22.4810      0.00000
    117      22.5406      0.00000
    118      22.6203      0.00000
    119      22.9265      0.00000
    120      23.2949      0.00000
    121      23.4237      0.00000
    122      23.8304      0.00000
    123      24.1006      0.00000
    124      24.2833      0.00000
    125      24.4606      0.00000
    126      24.6607      0.00000
    127      24.7275      0.00000
    128      24.9678      0.00000
    129      25.1842      0.00000
    130      25.3959      0.00000
    131      25.5572      0.00000
    132      25.9880      0.00000
    133      26.1315      0.00000
    134      26.5541      0.00000
    135      26.7105      0.00000
    136      27.0824      0.00000
    137      27.3164      0.00000
    138      27.4615      0.00000
    139      27.8738      0.00000
    140      28.0524      0.00000

 k-point    75 :      -0.1429    0.5000    0.4286
  band No.  band energies     occupation 
      1     -25.4519      2.00000
      2     -25.4508      2.00000
      3     -25.4385      2.00000
      4     -25.4383      2.00000
      5     -25.4089      2.00000
      6     -25.4088      2.00000
      7     -25.3863      2.00000
      8     -25.3861      2.00000
      9     -25.3809      2.00000
     10     -25.3807      2.00000
     11     -12.2804      2.00000
     12     -12.1067      2.00000
     13     -11.3175      2.00000
     14     -11.2284      2.00000
     15     -11.0626      2.00000
     16     -10.9175      2.00000
     17      -5.9601      2.00000
     18      -5.6593      2.00000
     19      -2.6826      2.00000
     20      -2.1723      2.00000
     21      -2.0945      2.00000
     22      -1.8859      2.00000
     23      -1.7510      2.00000
     24      -1.3002      2.00000
     25      -1.1364      2.00000
     26      -0.9619      2.00000
     27      -0.8654      2.00000
     28      -0.7487      2.00000
     29      -0.6528      2.00000
     30      -0.5646      2.00000
     31      -0.5308      2.00000
     32      -0.4809      2.00000
     33      -0.4407      2.00000
     34      -0.3904      2.00000
     35       0.4238      2.00000
     36       0.5390      2.00000
     37       0.5930      2.00000
     38       0.6090      2.00000
     39       0.6238      2.00000
     40       0.6546      2.00000
     41       0.7001      2.00000
     42       0.7528      2.00000
     43       0.9503      2.00000
     44       1.0736      2.00000
     45       1.1786      2.00000
     46       1.3518      2.00000
     47       1.5126      2.00000
     48       1.6068      2.00000
     49       1.7103      2.00000
     50       1.9095      2.00000
     51       2.1890      2.00000
     52       2.3761      2.00000
     53       2.5627      2.00000
     54       2.8081      2.00000
     55       5.0031      0.00000
     56       5.2804      0.00000
     57       6.1666      0.00000
     58       6.6516      0.00000
     59       7.3571      0.00000
     60       7.5686      0.00000
     61       7.9153      0.00000
     62       8.2381      0.00000
     63       8.6943      0.00000
     64       8.9863      0.00000
     65       9.3704      0.00000
     66       9.8130      0.00000
     67      10.0882      0.00000
     68      10.2733      0.00000
     69      10.4242      0.00000
     70      10.6443      0.00000
     71      10.9940      0.00000
     72      11.2861      0.00000
     73      11.7386      0.00000
     74      12.0294      0.00000
     75      12.8149      0.00000
     76      12.9910      0.00000
     77      13.1907      0.00000
     78      13.4322      0.00000
     79      13.5355      0.00000
     80      13.7418      0.00000
     81      14.2513      0.00000
     82      14.5830      0.00000
     83      14.8736      0.00000
     84      15.0761      0.00000
     85      15.3094      0.00000
     86      15.7903      0.00000
     87      16.1985      0.00000
     88      16.2713      0.00000
     89      16.6694      0.00000
     90      16.7571      0.00000
     91      17.0674      0.00000
     92      17.2952      0.00000
     93      17.7366      0.00000
     94      17.9060      0.00000
     95      18.0942      0.00000
     96      18.2799      0.00000
     97      18.5351      0.00000
     98      18.9038      0.00000
     99      19.0616      0.00000
    100      19.3687      0.00000
    101      19.5090      0.00000
    102      19.6377      0.00000
    103      19.9053      0.00000
    104      19.9913      0.00000
    105      20.3192      0.00000
    106      20.4450      0.00000
    107      20.6716      0.00000
    108      20.9567      0.00000
    109      21.0477      0.00000
    110      21.3065      0.00000
    111      21.4719      0.00000
    112      21.6695      0.00000
    113      22.0291      0.00000
    114      22.1633      0.00000
    115      22.3096      0.00000
    116      22.5405      0.00000
    117      22.6689      0.00000
    118      22.8967      0.00000
    119      23.1219      0.00000
    120      23.3279      0.00000
    121      23.4589      0.00000
    122      23.6532      0.00000
    123      23.9153      0.00000
    124      24.0494      0.00000
    125      24.2281      0.00000
    126      24.6187      0.00000
    127      24.8463      0.00000
    128      25.4999      0.00000
    129      25.6280      0.00000
    130      25.7999      0.00000
    131      25.9267      0.00000
    132      26.4428      0.00000
    133      26.5831      0.00000
    134      26.7089      0.00000
    135      27.1002      0.00000
    136      27.2331      0.00000
    137      27.4656      0.00000
    138      27.6137      0.00000
    139      27.6789      0.00000
    140      27.9397      0.00000

 k-point    76 :       0.3529   -0.0000   -0.0000
  band No.  band energies     occupation 
      1     -25.4521      2.00000
      2     -25.4470      2.00000
      3     -25.4374      2.00000
      4     -25.4368      2.00000
      5     -25.4075      2.00000
      6     -25.4071      2.00000
      7     -25.3851      2.00000
      8     -25.3844      2.00000
      9     -25.3797      2.00000
     10     -25.3789      2.00000
     11     -12.6643      2.00000
     12     -11.5733      2.00000
     13     -11.4449      2.00000
     14     -11.2335      2.00000
     15     -10.9676      2.00000
     16     -10.8971      2.00000
     17      -6.3836      2.00000
     18      -5.2947      2.00000
     19      -2.6871      2.00000
     20      -2.3799      2.00000
     21      -2.2398      2.00000
     22      -1.6905      2.00000
     23      -1.4475      2.00000
     24      -1.4073      2.00000
     25      -1.0771      2.00000
     26      -1.0401      2.00000
     27      -0.9497      2.00000
     28      -0.8568      2.00000
     29      -0.7058      2.00000
     30      -0.6227      2.00000
     31      -0.5765      2.00000
     32      -0.5530      2.00000
     33      -0.4351      2.00000
     34      -0.3697      2.00000
     35       0.4756      2.00000
     36       0.5307      2.00000
     37       0.5515      2.00000
     38       0.5846      2.00000
     39       0.6228      2.00000
     40       0.6423      2.00000
     41       0.6836      2.00000
     42       0.7028      2.00000
     43       0.9276      2.00000
     44       1.1331      2.00000
     45       1.1657      2.00000
     46       1.2352      2.00000
     47       1.3165      2.00000
     48       1.5462      2.00000
     49       1.6793      2.00000
     50       1.8954      2.00000
     51       2.1000      2.00000
     52       2.3009      2.00000
     53       2.6744      2.00000
     54       3.1968      2.00000
     55       5.0774      0.00000
     56       5.7818      0.00000
     57       6.9726      0.00000
     58       7.0434      0.00000
     59       7.4382      0.00000
     60       7.6833      0.00000
     61       8.1082      0.00000
     62       8.3704      0.00000
     63       8.8997      0.00000
     64       9.2769      0.00000
     65       9.4473      0.00000
     66       9.7808      0.00000
     67      10.0115      0.00000
     68      10.2701      0.00000
     69      10.3491      0.00000
     70      10.6072      0.00000
     71      11.0053      0.00000
     72      11.1516      0.00000
     73      11.3918      0.00000
     74      11.7907      0.00000
     75      12.1160      0.00000
     76      12.5415      0.00000
     77      12.7963      0.00000
     78      13.0914      0.00000
     79      13.5689      0.00000
     80      13.8363      0.00000
     81      14.0898      0.00000
     82      14.3092      0.00000
     83      14.6300      0.00000
     84      14.9141      0.00000
     85      15.2534      0.00000
     86      15.6691      0.00000
     87      16.1265      0.00000
     88      16.3440      0.00000
     89      16.3950      0.00000
     90      16.8009      0.00000
     91      16.9780      0.00000
     92      17.0508      0.00000
     93      17.3492      0.00000
     94      17.5898      0.00000
     95      17.8533      0.00000
     96      18.1808      0.00000
     97      18.3872      0.00000
     98      18.5150      0.00000
     99      18.7008      0.00000
    100      18.8430      0.00000
    101      19.3562      0.00000
    102      19.5379      0.00000
    103      19.8551      0.00000
    104      20.0229      0.00000
    105      20.1141      0.00000
    106      20.4179      0.00000
    107      20.6087      0.00000
    108      20.6424      0.00000
    109      21.1036      0.00000
    110      21.7281      0.00000
    111      21.9203      0.00000
    112      22.0285      0.00000
    113      22.2401      0.00000
    114      22.5217      0.00000
    115      22.7036      0.00000
    116      22.9245      0.00000
    117      23.2492      0.00000
    118      23.4732      0.00000
    119      23.7987      0.00000
    120      23.8647      0.00000
    121      24.3462      0.00000
    122      24.6919      0.00000
    123      24.8833      0.00000
    124      25.1690      0.00000
    125      25.1990      0.00000
    126      25.3576      0.00000
    127      25.4659      0.00000
    128      25.7122      0.00000
    129      25.9199      0.00000
    130      26.0063      0.00000
    131      26.2073      0.00000
    132      26.2989      0.00000
    133      26.4789      0.00000
    134      26.7832      0.00000
    135      26.9726      0.00000
    136      27.1084      0.00000
    137      27.2302      0.00000
    138      27.3246      0.00000
    139      27.6695      0.00000
    140      27.8183      0.00000

 k-point    77 :       0.3382   -0.0000   -0.0000
  band No.  band energies     occupation 
      1     -25.4524      2.00000
      2     -25.4473      2.00000
      3     -25.4377      2.00000
      4     -25.4371      2.00000
      5     -25.4078      2.00000
      6     -25.4074      2.00000
      7     -25.3854      2.00000
      8     -25.3847      2.00000
      9     -25.3800      2.00000
     10     -25.3792      2.00000
     11     -12.6760      2.00000
     12     -11.5638      2.00000
     13     -11.4482      2.00000
     14     -11.2289      2.00000
     15     -10.9640      2.00000
     16     -10.8916      2.00000
     17      -6.3878      2.00000
     18      -5.3092      2.00000
     19      -2.6994      2.00000
     20      -2.3815      2.00000
     21      -2.2497      2.00000
     22      -1.7142      2.00000
     23      -1.4367      2.00000
     24      -1.4133      2.00000
     25      -1.0651      2.00000
     26      -1.0193      2.00000
     27      -0.9523      2.00000
     28      -0.8537      2.00000
     29      -0.7112      2.00000
     30      -0.6227      2.00000
     31      -0.5785      2.00000
     32      -0.5542      2.00000
     33      -0.4373      2.00000
     34      -0.3733      2.00000
     35       0.4767      2.00000
     36       0.5320      2.00000
     37       0.5516      2.00000
     38       0.5836      2.00000
     39       0.6195      2.00000
     40       0.6406      2.00000
     41       0.6812      2.00000
     42       0.7008      2.00000
     43       0.9287      2.00000
     44       1.1136      2.00000
     45       1.1905      2.00000
     46       1.2578      2.00000
     47       1.3143      2.00000
     48       1.5326      2.00000
     49       1.6697      2.00000
     50       1.9221      2.00000
     51       2.0924      2.00000
     52       2.3007      2.00000
     53       2.7096      2.00000
     54       3.2135      2.00000
     55       5.0609      0.00000
     56       5.7687      0.00000
     57       6.9929      0.00000
     58       7.0524      0.00000
     59       7.4318      0.00000
     60       7.7107      0.00000
     61       8.0857      0.00000
     62       8.3514      0.00000
     63       8.8680      0.00000
     64       9.2879      0.00000
     65       9.4377      0.00000
     66       9.7820      0.00000
     67       9.9964      0.00000
     68      10.2440      0.00000
     69      10.3569      0.00000
     70      10.6123      0.00000
     71      11.0095      0.00000
     72      11.1559      0.00000
     73      11.3638      0.00000
     74      11.7783      0.00000
     75      12.1465      0.00000
     76      12.5765      0.00000
     77      12.8467      0.00000
     78      13.1220      0.00000
     79      13.5700      0.00000
     80      13.8543      0.00000
     81      14.1042      0.00000
     82      14.2886      0.00000
     83      14.6230      0.00000
     84      14.8867      0.00000
     85      15.2590      0.00000
     86      15.6412      0.00000
     87      16.0943      0.00000
     88      16.2907      0.00000
     89      16.4365      0.00000
     90      16.8380      0.00000
     91      16.9923      0.00000
     92      17.1016      0.00000
     93      17.2913      0.00000
     94      17.5383      0.00000
     95      17.8327      0.00000
     96      18.1532      0.00000
     97      18.4101      0.00000
     98      18.4792      0.00000
     99      18.6987      0.00000
    100      18.8429      0.00000
    101      19.2991      0.00000
    102      19.4697      0.00000
    103      19.8657      0.00000
    104      20.1099      0.00000
    105      20.1264      0.00000
    106      20.4420      0.00000
    107      20.5191      0.00000
    108      20.6342      0.00000
    109      21.1082      0.00000
    110      21.6434      0.00000
    111      21.8147      0.00000
    112      22.0801      0.00000
    113      22.2775      0.00000
    114      22.5677      0.00000
    115      22.6974      0.00000
    116      22.9175      0.00000
    117      23.1946      0.00000
    118      23.3382      0.00000
    119      23.7221      0.00000
    120      23.8315      0.00000
    121      24.3923      0.00000
    122      24.8278      0.00000
    123      24.9492      0.00000
    124      25.1875      0.00000
    125      25.2863      0.00000
    126      25.3846      0.00000
    127      25.5150      0.00000
    128      25.7532      0.00000
    129      25.9626      0.00000
    130      26.0562      0.00000
    131      26.2772      0.00000
    132      26.3331      0.00000
    133      26.5046      0.00000
    134      26.8230      0.00000
    135      27.0241      0.00000
    136      27.1479      0.00000
    137      27.2901      0.00000
    138      27.4071      0.00000
    139      27.6630      0.00000
    140      27.8189      0.00000

 k-point    78 :       0.3235    0.0000    0.0000
  band No.  band energies     occupation 
      1     -25.4527      2.00000
      2     -25.4476      2.00000
      3     -25.4381      2.00000
      4     -25.4375      2.00000
      5     -25.4082      2.00000
      6     -25.4077      2.00000
      7     -25.3857      2.00000
      8     -25.3850      2.00000
      9     -25.3803      2.00000
     10     -25.3795      2.00000
     11     -12.6881      2.00000
     12     -11.5545      2.00000
     13     -11.4515      2.00000
     14     -11.2239      2.00000
     15     -10.9601      2.00000
     16     -10.8861      2.00000
     17      -6.3923      2.00000
     18      -5.3244      2.00000
     19      -2.7121      2.00000
     20      -2.3832      2.00000
     21      -2.2572      2.00000
     22      -1.7394      2.00000
     23      -1.4531      2.00000
     24      -1.3943      2.00000
     25      -1.0566      2.00000
     26      -0.9987      2.00000
     27      -0.9540      2.00000
     28      -0.8481      2.00000
     29      -0.7169      2.00000
     30      -0.6226      2.00000
     31      -0.5804      2.00000
     32      -0.5555      2.00000
     33      -0.4394      2.00000
     34      -0.3769      2.00000
     35       0.4781      2.00000
     36       0.5336      2.00000
     37       0.5515      2.00000
     38       0.5829      2.00000
     39       0.6162      2.00000
     40       0.6394      2.00000
     41       0.6784      2.00000
     42       0.6998      2.00000
     43       0.9289      2.00000
     44       1.0933      2.00000
     45       1.2076      2.00000
     46       1.2796      2.00000
     47       1.3224      2.00000
     48       1.5161      2.00000
     49       1.6620      2.00000
     50       1.9496      2.00000
     51       2.0864      2.00000
     52       2.3041      2.00000
     53       2.7464      2.00000
     54       3.2305      2.00000
     55       5.0419      0.00000
     56       5.7514      0.00000
     57       6.9974      0.00000
     58       7.0728      0.00000
     59       7.4172      0.00000
     60       7.7496      0.00000
     61       8.0609      0.00000
     62       8.3376      0.00000
     63       8.8334      0.00000
     64       9.2949      0.00000
     65       9.4362      0.00000
     66       9.7837      0.00000
     67       9.9749      0.00000
     68      10.2155      0.00000
     69      10.3699      0.00000
     70      10.6174      0.00000
     71      11.0027      0.00000
     72      11.1688      0.00000
     73      11.3410      0.00000
     74      11.7729      0.00000
     75      12.1858      0.00000
     76      12.6116      0.00000
     77      12.8939      0.00000
     78      13.1544      0.00000
     79      13.5774      0.00000
     80      13.8531      0.00000
     81      14.1202      0.00000
     82      14.2613      0.00000
     83      14.6265      0.00000
     84      14.8696      0.00000
     85      15.2605      0.00000
     86      15.6054      0.00000
     87      16.0278      0.00000
     88      16.2588      0.00000
     89      16.4717      0.00000
     90      16.8664      0.00000
     91      16.9999      0.00000
     92      17.1537      0.00000
     93      17.2467      0.00000
     94      17.4999      0.00000
     95      17.8134      0.00000
     96      18.1064      0.00000
     97      18.4274      0.00000
     98      18.4656      0.00000
     99      18.6853      0.00000
    100      18.8503      0.00000
    101      19.2393      0.00000
    102      19.4284      0.00000
    103      19.8661      0.00000
    104      20.0898      0.00000
    105      20.1948      0.00000
    106      20.4260      0.00000
    107      20.4788      0.00000
    108      20.7018      0.00000
    109      21.1071      0.00000
    110      21.5503      0.00000
    111      21.7055      0.00000
    112      22.0887      0.00000
    113      22.2864      0.00000
    114      22.5662      0.00000
    115      22.7574      0.00000
    116      22.9325      0.00000
    117      23.1152      0.00000
    118      23.2945      0.00000
    119      23.6443      0.00000
    120      23.8065      0.00000
    121      24.4010      0.00000
    122      24.9437      0.00000
    123      24.9945      0.00000
    124      25.1885      0.00000
    125      25.3121      0.00000
    126      25.4360      0.00000
    127      25.5686      0.00000
    128      25.8540      0.00000
    129      26.0014      0.00000
    130      26.1035      0.00000
    131      26.3329      0.00000
    132      26.3830      0.00000
    133      26.5712      0.00000
    134      26.8658      0.00000
    135      27.0754      0.00000
    136      27.1997      0.00000
    137      27.3494      0.00000
    138      27.5045      0.00000
    139      27.6606      0.00000
    140      27.8173      0.00000

 k-point    79 :       0.3088   -0.0000   -0.0000
  band No.  band energies     occupation 
      1     -25.4531      2.00000
      2     -25.4480      2.00000
      3     -25.4384      2.00000
      4     -25.4378      2.00000
      5     -25.4085      2.00000
      6     -25.4081      2.00000
      7     -25.3861      2.00000
      8     -25.3853      2.00000
      9     -25.3806      2.00000
     10     -25.3798      2.00000
     11     -12.7005      2.00000
     12     -11.5457      2.00000
     13     -11.4543      2.00000
     14     -11.2187      2.00000
     15     -10.9556      2.00000
     16     -10.8806      2.00000
     17      -6.3968      2.00000
     18      -5.3403      2.00000
     19      -2.7253      2.00000
     20      -2.3849      2.00000
     21      -2.2623      2.00000
     22      -1.7656      2.00000
     23      -1.4751      2.00000
     24      -1.3723      2.00000
     25      -1.0522      2.00000
     26      -0.9802      2.00000
     27      -0.9528      2.00000
     28      -0.8397      2.00000
     29      -0.7226      2.00000
     30      -0.6227      2.00000
     31      -0.5819      2.00000
     32      -0.5568      2.00000
     33      -0.4413      2.00000
     34      -0.3806      2.00000
     35       0.4799      2.00000
     36       0.5356      2.00000
     37       0.5512      2.00000
     38       0.5825      2.00000
     39       0.6133      2.00000
     40       0.6386      2.00000
     41       0.6756      2.00000
     42       0.6995      2.00000
     43       0.9278      2.00000
     44       1.0732      2.00000
     45       1.2151      2.00000
     46       1.2970      2.00000
     47       1.3434      2.00000
     48       1.4976      2.00000
     49       1.6575      2.00000
     50       1.9764      2.00000
     51       2.0829      2.00000
     52       2.3116      2.00000
     53       2.7844      2.00000
     54       3.2477      2.00000
     55       5.0202      0.00000
     56       5.7298      0.00000
     57       6.9923      0.00000
     58       7.0958      0.00000
     59       7.3996      0.00000
     60       7.7945      0.00000
     61       8.0359      0.00000
     62       8.3286      0.00000
     63       8.7972      0.00000
     64       9.2958      0.00000
     65       9.4445      0.00000
     66       9.7850      0.00000
     67       9.9490      0.00000
     68      10.1874      0.00000
     69      10.3849      0.00000
     70      10.6216      0.00000
     71      10.9885      0.00000
     72      11.1863      0.00000
     73      11.3276      0.00000
     74      11.7761      0.00000
     75      12.2306      0.00000
     76      12.6459      0.00000
     77      12.9338      0.00000
     78      13.1906      0.00000
     79      13.5895      0.00000
     80      13.8368      0.00000
     81      14.1261      0.00000
     82      14.2437      0.00000
     83      14.6358      0.00000
     84      14.8596      0.00000
     85      15.2586      0.00000
     86      15.5640      0.00000
     87      15.9428      0.00000
     88      16.2384      0.00000
     89      16.4987      0.00000
     90      16.8738      0.00000
     91      16.9901      0.00000
     92      17.1747      0.00000
     93      17.2456      0.00000
     94      17.4957      0.00000
     95      17.7897      0.00000
     96      18.0556      0.00000
     97      18.4095      0.00000
     98      18.4834      0.00000
     99      18.6456      0.00000
    100      18.8836      0.00000
    101      19.1886      0.00000
    102      19.4238      0.00000
    103      19.8643      0.00000
    104      19.9793      0.00000
    105      20.2699      0.00000
    106      20.4135      0.00000
    107      20.5084      0.00000
    108      20.7839      0.00000
    109      21.1021      0.00000
    110      21.4538      0.00000
    111      21.6129      0.00000
    112      22.0429      0.00000
    113      22.2909      0.00000
    114      22.5202      0.00000
    115      22.7626      0.00000
    116      22.9845      0.00000
    117      23.0876      0.00000
    118      23.3234      0.00000
    119      23.5808      0.00000
    120      23.7929      0.00000
    121      24.3831      0.00000
    122      24.9761      0.00000
    123      25.0230      0.00000
    124      25.2232      0.00000
    125      25.3288      0.00000
    126      25.4887      0.00000
    127      25.5939      0.00000
    128      25.9732      0.00000
    129      26.0525      0.00000
    130      26.1842      0.00000
    131      26.3894      0.00000
    132      26.4194      0.00000
    133      26.6859      0.00000
    134      26.9070      0.00000
    135      27.1153      0.00000
    136      27.2683      0.00000
    137      27.4045      0.00000
    138      27.5874      0.00000
    139      27.6837      0.00000
    140      27.8268      0.00000

 k-point    80 :       0.2941    0.0000   -0.0000
  band No.  band energies     occupation 
      1     -25.4534      2.00000
      2     -25.4483      2.00000
      3     -25.4388      2.00000
      4     -25.4381      2.00000
      5     -25.4088      2.00000
      6     -25.4084      2.00000
      7     -25.3864      2.00000
      8     -25.3857      2.00000
      9     -25.3810      2.00000
     10     -25.3802      2.00000
     11     -12.7130      2.00000
     12     -11.5377      2.00000
     13     -11.4564      2.00000
     14     -11.2131      2.00000
     15     -10.9507      2.00000
     16     -10.8750      2.00000
     17      -6.4015      2.00000
     18      -5.3566      2.00000
     19      -2.7387      2.00000
     20      -2.3865      2.00000
     21      -2.2651      2.00000
     22      -1.7923      2.00000
     23      -1.4989      2.00000
     24      -1.3514      2.00000
     25      -1.0520      2.00000
     26      -0.9705      2.00000
     27      -0.9430      2.00000
     28      -0.8285      2.00000
     29      -0.7280      2.00000
     30      -0.6232      2.00000
     31      -0.5830      2.00000
     32      -0.5580      2.00000
     33      -0.4430      2.00000
     34      -0.3842      2.00000
     35       0.4822      2.00000
     36       0.5380      2.00000
     37       0.5507      2.00000
     38       0.5825      2.00000
     39       0.6107      2.00000
     40       0.6380      2.00000
     41       0.6730      2.00000
     42       0.6995      2.00000
     43       0.9251      2.00000
     44       1.0541      2.00000
     45       1.2162      2.00000
     46       1.3073      2.00000
     47       1.3741      2.00000
     48       1.4785      2.00000
     49       1.6573      2.00000
     50       2.0000      2.00000
     51       2.0845      2.00000
     52       2.3237      2.00000
     53       2.8232      2.00000
     54       3.2648      2.00000
     55       4.9957      0.00000
     56       5.7038      0.00000
     57       6.9825      0.00000
     58       7.1133      0.00000
     59       7.3840      0.00000
     60       7.8386      0.00000
     61       8.0145      0.00000
     62       8.3241      0.00000
     63       8.7605      0.00000
     64       9.2913      0.00000
     65       9.4613      0.00000
     66       9.7840      0.00000
     67       9.9224      0.00000
     68      10.1608      0.00000
     69      10.4002      0.00000
     70      10.6245      0.00000
     71      10.9737      0.00000
     72      11.1970      0.00000
     73      11.3330      0.00000
     74      11.7869      0.00000
     75      12.2783      0.00000
     76      12.6786      0.00000
     77      12.9625      0.00000
     78      13.2332      0.00000
     79      13.6018      0.00000
     80      13.8132      0.00000
     81      14.1075      0.00000
     82      14.2532      0.00000
     83      14.6466      0.00000
     84      14.8517      0.00000
     85      15.2540      0.00000
     86      15.5204      0.00000
     87      15.8529      0.00000
     88      16.2202      0.00000
     89      16.5159      0.00000
     90      16.8496      0.00000
     91      16.9677      0.00000
     92      17.1572      0.00000
     93      17.2811      0.00000
     94      17.5328      0.00000
     95      17.7636      0.00000
     96      18.0138      0.00000
     97      18.3691      0.00000
     98      18.4900      0.00000
     99      18.6093      0.00000
    100      18.9336      0.00000
    101      19.1705      0.00000
    102      19.4406      0.00000
    103      19.8296      0.00000
    104      19.8729      0.00000
    105      20.3059      0.00000
    106      20.4181      0.00000
    107      20.5837      0.00000
    108      20.8519      0.00000
    109      21.1012      0.00000
    110      21.3562      0.00000
    111      21.5478      0.00000
    112      21.9653      0.00000
    113      22.2885      0.00000
    114      22.4367      0.00000
    115      22.6993      0.00000
    116      23.0079      0.00000
    117      23.1698      0.00000
    118      23.3831      0.00000
    119      23.5600      0.00000
    120      23.7965      0.00000
    121      24.3463      0.00000
    122      24.9247      0.00000
    123      25.0368      0.00000
    124      25.2626      0.00000
    125      25.3667      0.00000
    126      25.5460      0.00000
    127      25.6211      0.00000
    128      26.0451      0.00000
    129      26.1199      0.00000
    130      26.2883      0.00000
    131      26.4477      0.00000
    132      26.5014      0.00000
    133      26.8168      0.00000
    134      26.9439      0.00000
    135      27.1465      0.00000
    136      27.3413      0.00000
    137      27.4437      0.00000
    138      27.6279      0.00000
    139      27.7566      0.00000
    140      27.8641      0.00000

 k-point    81 :       0.2794   -0.0000    0.0000
  band No.  band energies     occupation 
      1     -25.4538      2.00000
      2     -25.4487      2.00000
      3     -25.4391      2.00000
      4     -25.4385      2.00000
      5     -25.4092      2.00000
      6     -25.4088      2.00000
      7     -25.3868      2.00000
      8     -25.3861      2.00000
      9     -25.3813      2.00000
     10     -25.3806      2.00000
     11     -12.7255      2.00000
     12     -11.5311      2.00000
     13     -11.4575      2.00000
     14     -11.2074      2.00000
     15     -10.9455      2.00000
     16     -10.8696      2.00000
     17      -6.4063      2.00000
     18      -5.3733      2.00000
     19      -2.7523      2.00000
     20      -2.3878      2.00000
     21      -2.2656      2.00000
     22      -1.8194      2.00000
     23      -1.5238      2.00000
     24      -1.3326      2.00000
     25      -1.0553      2.00000
     26      -0.9701      2.00000
     27      -0.9245      2.00000
     28      -0.8151      2.00000
     29      -0.7326      2.00000
     30      -0.6241      2.00000
     31      -0.5836      2.00000
     32      -0.5590      2.00000
     33      -0.4444      2.00000
     34      -0.3878      2.00000
     35       0.4848      2.00000
     36       0.5408      2.00000
     37       0.5502      2.00000
     38       0.5825      2.00000
     39       0.6086      2.00000
     40       0.6378      2.00000
     41       0.6708      2.00000
     42       0.6998      2.00000
     43       0.9201      2.00000
     44       1.0367      2.00000
     45       1.2145      2.00000
     46       1.3106      2.00000
     47       1.4061      2.00000
     48       1.4628      2.00000
     49       1.6624      2.00000
     50       2.0163      2.00000
     51       2.0951      2.00000
     52       2.3408      2.00000
     53       2.8623      2.00000
     54       3.2818      2.00000
     55       4.9682      0.00000
     56       5.6737      0.00000
     57       6.9694      0.00000
     58       7.1202      0.00000
     59       7.3748      0.00000
     60       7.8707      0.00000
     61       8.0061      0.00000
     62       8.3238      0.00000
     63       8.7244      0.00000
     64       9.2838      0.00000
     65       9.4835      0.00000
     66       9.7781      0.00000
     67       9.8987      0.00000
     68      10.1369      0.00000
     69      10.4150      0.00000
     70      10.6257      0.00000
     71      10.9636      0.00000
     72      11.1951      0.00000
     73      11.3620      0.00000
     74      11.8037      0.00000
     75      12.3268      0.00000
     76      12.7094      0.00000
     77      12.9785      0.00000
     78      13.2825      0.00000
     79      13.6075      0.00000
     80      13.7913      0.00000
     81      14.0760      0.00000
     82      14.2811      0.00000
     83      14.6563      0.00000
     84      14.8404      0.00000
     85      15.2469      0.00000
     86      15.4784      0.00000
     87      15.7653      0.00000
     88      16.2006      0.00000
     89      16.5201      0.00000
     90      16.8035      0.00000
     91      16.9429      0.00000
     92      17.1254      0.00000
     93      17.3068      0.00000
     94      17.5891      0.00000
     95      17.7524      0.00000
     96      17.9901      0.00000
     97      18.3096      0.00000
     98      18.4461      0.00000
     99      18.6305      0.00000
    100      18.9870      0.00000
    101      19.1879      0.00000
    102      19.4644      0.00000
    103      19.7008      0.00000
    104      19.8560      0.00000
    105      20.2987      0.00000
    106      20.4607      0.00000
    107      20.6562      0.00000
    108      20.9017      0.00000
    109      21.0984      0.00000
    110      21.2833      0.00000
    111      21.5010      0.00000
    112      21.8825      0.00000
    113      22.2613      0.00000
    114      22.3348      0.00000
    115      22.6270      0.00000
    116      23.0298      0.00000
    117      23.2255      0.00000
    118      23.4409      0.00000
    119      23.6323      0.00000
    120      23.8239      0.00000
    121      24.2973      0.00000
    122      24.8408      0.00000
    123      25.0346      0.00000
    124      25.2751      0.00000
    125      25.4174      0.00000
    126      25.5816      0.00000
    127      25.6859      0.00000
    128      26.0938      0.00000
    129      26.1982      0.00000
    130      26.3510      0.00000
    131      26.5044      0.00000
    132      26.6640      0.00000
    133      26.9398      0.00000
    134      26.9835      0.00000
    135      27.1762      0.00000
    136      27.3938      0.00000
    137      27.4632      0.00000
    138      27.6730      0.00000
    139      27.8306      0.00000
    140      27.9475      0.00000

 k-point    82 :       0.2647   -0.0000   -0.0000
  band No.  band energies     occupation 
      1     -25.4541      2.00000
      2     -25.4491      2.00000
      3     -25.4395      2.00000
      4     -25.4389      2.00000
      5     -25.4096      2.00000
      6     -25.4092      2.00000
      7     -25.3871      2.00000
      8     -25.3864      2.00000
      9     -25.3817      2.00000
     10     -25.3809      2.00000
     11     -12.7379      2.00000
     12     -11.5261      2.00000
     13     -11.4571      2.00000
     14     -11.2016      2.00000
     15     -10.9398      2.00000
     16     -10.8643      2.00000
     17      -6.4110      2.00000
     18      -5.3901      2.00000
     19      -2.7658      2.00000
     20      -2.3886      2.00000
     21      -2.2643      2.00000
     22      -1.8465      2.00000
     23      -1.5493      2.00000
     24      -1.3167      2.00000
     25      -1.0609      2.00000
     26      -0.9732      2.00000
     27      -0.9038      2.00000
     28      -0.8004      2.00000
     29      -0.7359      2.00000
     30      -0.6256      2.00000
     31      -0.5838      2.00000
     32      -0.5598      2.00000
     33      -0.4455      2.00000
     34      -0.3913      2.00000
     35       0.4880      2.00000
     36       0.5439      2.00000
     37       0.5499      2.00000
     38       0.5825      2.00000
     39       0.6071      2.00000
     40       0.6377      2.00000
     41       0.6689      2.00000
     42       0.7004      2.00000
     43       0.9126      2.00000
     44       1.0214      2.00000
     45       1.2119      2.00000
     46       1.3076      2.00000
     47       1.4164      2.00000
     48       1.4700      2.00000
     49       1.6733      2.00000
     50       2.0240      2.00000
     51       2.1158      2.00000
     52       2.3634      2.00000
     53       2.9015      2.00000
     54       3.2985      2.00000
     55       4.9376      0.00000
     56       5.6396      0.00000
     57       6.9530      0.00000
     58       7.1146      0.00000
     59       7.3741      0.00000
     60       7.8770      0.00000
     61       8.0228      0.00000
     62       8.3279      0.00000
     63       8.6896      0.00000
     64       9.2752      0.00000
     65       9.5078      0.00000
     66       9.7656      0.00000
     67       9.8797      0.00000
     68      10.1177      0.00000
     69      10.4293      0.00000
     70      10.6258      0.00000
     71      10.9610      0.00000
     72      11.1871      0.00000
     73      11.4076      0.00000
     74      11.8246      0.00000
     75      12.3740      0.00000
     76      12.7378      0.00000
     77      12.9839      0.00000
     78      13.3343      0.00000
     79      13.6014      0.00000
     80      13.7775      0.00000
     81      14.0473      0.00000
     82      14.3153      0.00000
     83      14.6629      0.00000
     84      14.8208      0.00000
     85      15.2360      0.00000
     86      15.4410      0.00000
     87      15.6851      0.00000
     88      16.1778      0.00000
     89      16.5057      0.00000
     90      16.7603      0.00000
     91      16.9117      0.00000
     92      17.0933      0.00000
     93      17.2896      0.00000
     94      17.6398      0.00000
     95      17.7734      0.00000
     96      17.9936      0.00000
     97      18.2274      0.00000
     98      18.3999      0.00000
     99      18.6891      0.00000
    100      19.0325      0.00000
    101      19.2194      0.00000
    102      19.4823      0.00000
    103      19.5955      0.00000
    104      19.8348      0.00000
    105      20.2946      0.00000
    106      20.4857      0.00000
    107      20.7177      0.00000
    108      20.9492      0.00000
    109      21.0543      0.00000
    110      21.2791      0.00000
    111      21.4580      0.00000
    112      21.8100      0.00000
    113      22.1796      0.00000
    114      22.2583      0.00000
    115      22.5730      0.00000
    116      23.0370      0.00000
    117      23.2344      0.00000
    118      23.4890      0.00000
    119      23.7772      0.00000
    120      23.8828      0.00000
    121      24.2435      0.00000
    122      24.7489      0.00000
    123      25.0210      0.00000
    124      25.2755      0.00000
    125      25.4597      0.00000
    126      25.6070      0.00000
    127      25.7684      0.00000
    128      26.1341      0.00000
    129      26.2632      0.00000
    130      26.4234      0.00000
    131      26.5676      0.00000
    132      26.8124      0.00000
    133      27.0189      0.00000
    134      27.0653      0.00000
    135      27.2146      0.00000
    136      27.4056      0.00000
    137      27.4913      0.00000
    138      27.7328      0.00000
    139      27.9022      0.00000
    140      28.0542      0.00000

 k-point    83 :       0.2500    0.0000   -0.0000
  band No.  band energies     occupation 
      1     -25.4536      2.00000
      2     -25.4486      2.00000
      3     -25.4390      2.00000
      4     -25.4384      2.00000
      5     -25.4091      2.00000
      6     -25.4087      2.00000
      7     -25.3866      2.00000
      8     -25.3859      2.00000
      9     -25.3812      2.00000
     10     -25.3804      2.00000
     11     -12.7493      2.00000
     12     -11.5223      2.00000
     13     -11.4541      2.00000
     14     -11.1949      2.00000
     15     -10.9329      2.00000
     16     -10.8584      2.00000
     17      -6.4149      2.00000
     18      -5.4061      2.00000
     19      -2.7782      2.00000
     20      -2.3878      2.00000
     21      -2.2606      2.00000
     22      -1.8726      2.00000
     23      -1.5741      2.00000
     24      -1.3033      2.00000
     25      -1.0673      2.00000
     26      -0.9770      2.00000
     27      -0.8821      2.00000
     28      -0.7846      2.00000
     29      -0.7364      2.00000
     30      -0.6266      2.00000
     31      -0.5829      2.00000
     32      -0.5594      2.00000
     33      -0.4453      2.00000
     34      -0.3938      2.00000
     35       0.4924      2.00000
     36       0.5482      2.00000
     37       0.5507      2.00000
     38       0.5831      2.00000
     39       0.6073      2.00000
     40       0.6387      2.00000
     41       0.6681      2.00000
     42       0.7021      2.00000
     43       0.9034      2.00000
     44       1.0092      2.00000
     45       1.2101      2.00000
     46       1.3002      2.00000
     47       1.4015      2.00000
     48       1.5037      2.00000
     49       1.6905      2.00000
     50       2.0278      2.00000
     51       2.1435      2.00000
     52       2.3926      2.00000
     53       2.9411      2.00000
     54       3.3157      2.00000
     55       4.9036      0.00000
     56       5.6020      0.00000
     57       6.9333      0.00000
     58       7.0981      0.00000
     59       7.3806      0.00000
     60       7.8621      0.00000
     61       8.0582      0.00000
     62       8.3367      0.00000
     63       8.6569      0.00000
     64       9.2671      0.00000
     65       9.5305      0.00000
     66       9.7483      0.00000
     67       9.8637      0.00000
     68      10.1055      0.00000
     69      10.4439      0.00000
     70      10.6258      0.00000
     71      10.9668      0.00000
     72      11.1803      0.00000
     73      11.4620      0.00000
     74      11.8483      0.00000
     75      12.4185      0.00000
     76      12.7637      0.00000
     77      12.9820      0.00000
     78      13.3781      0.00000
     79      13.5897      0.00000
     80      13.7710      0.00000
     81      14.0289      0.00000
     82      14.3511      0.00000
     83      14.6655      0.00000
     84      14.7904      0.00000
     85      15.2202      0.00000
     86      15.4076      0.00000
     87      15.6171      0.00000
     88      16.1497      0.00000
     89      16.4713      0.00000
     90      16.7336      0.00000
     91      16.8736      0.00000
     92      17.0655      0.00000
     93      17.2290      0.00000
     94      17.6759      0.00000
     95      17.8055      0.00000
     96      18.0292      0.00000
     97      18.1370      0.00000
     98      18.3872      0.00000
     99      18.7619      0.00000
    100      19.0532      0.00000
    101      19.2302      0.00000
    102      19.4739      0.00000
    103      19.5707      0.00000
    104      19.8063      0.00000
    105      20.3005      0.00000
    106      20.4847      0.00000
    107      20.7544      0.00000
    108      20.9965      0.00000
    109      21.0129      0.00000
    110      21.2873      0.00000
    111      21.4377      0.00000
    112      21.7479      0.00000
    113      22.0730      0.00000
    114      22.2031      0.00000
    115      22.5380      0.00000
    116      23.0311      0.00000
    117      23.2191      0.00000
    118      23.5287      0.00000
    119      23.9044      0.00000
    120      23.9967      0.00000
    121      24.2015      0.00000
    122      24.6656      0.00000
    123      24.9991      0.00000
    124      25.2724      0.00000
    125      25.4893      0.00000
    126      25.6384      0.00000
    127      25.8471      0.00000
    128      26.1713      0.00000
    129      26.2940      0.00000
    130      26.5217      0.00000
    131      26.6507      0.00000
    132      26.8741      0.00000
    133      27.1010      0.00000
    134      27.1321      0.00000
    135      27.2437      0.00000
    136      27.4589      0.00000
    137      27.5179      0.00000
    138      27.7904      0.00000
    139      27.9670      0.00000
    140      28.1504      0.00000

 k-point    84 :       0.2353    0.0000   -0.0000
  band No.  band energies     occupation 
      1     -25.4549      2.00000
      2     -25.4498      2.00000
      3     -25.4402      2.00000
      4     -25.4396      2.00000
      5     -25.4103      2.00000
      6     -25.4099      2.00000
      7     -25.3879      2.00000
      8     -25.3872      2.00000
      9     -25.3825      2.00000
     10     -25.3817      2.00000
     11     -12.7622      2.00000
     12     -11.5222      2.00000
     13     -11.4512      2.00000
     14     -11.1900      2.00000
     15     -10.9274      2.00000
     16     -10.8543      2.00000
     17      -6.4205      2.00000
     18      -5.4237      2.00000
     19      -2.7920      2.00000
     20      -2.3880      2.00000
     21      -2.2574      2.00000
     22      -1.8999      2.00000
     23      -1.6004      2.00000
     24      -1.2957      2.00000
     25      -1.0766      2.00000
     26      -0.9831      2.00000
     27      -0.8629      2.00000
     28      -0.7721      2.00000
     29      -0.7355      2.00000
     30      -0.6298      2.00000
     31      -0.5838      2.00000
     32      -0.5604      2.00000
     33      -0.4465      2.00000
     34      -0.3978      2.00000
     35       0.4954      2.00000
     36       0.5492      2.00000
     37       0.5519      2.00000
     38       0.5817      2.00000
     39       0.6065      2.00000
     40       0.6381      2.00000
     41       0.6661      2.00000
     42       0.7022      2.00000
     43       0.8901      2.00000
     44       0.9975      2.00000
     45       1.2066      2.00000
     46       1.2871      2.00000
     47       1.3796      2.00000
     48       1.5389      2.00000
     49       1.7110      2.00000
     50       2.0291      2.00000
     51       2.1714      2.00000
     52       2.4263      2.00000
     53       2.9783      2.00000
     54       3.3307      2.00000
     55       4.8663      0.00000
     56       5.5612      0.00000
     57       6.9096      0.00000
     58       7.0744      0.00000
     59       7.3911      0.00000
     60       7.8391      0.00000
     61       8.0978      0.00000
     62       8.3505      0.00000
     63       8.6270      0.00000
     64       9.2603      0.00000
     65       9.5474      0.00000
     66       9.7313      0.00000
     67       9.8476      0.00000
     68      10.1013      0.00000
     69      10.4602      0.00000
     70      10.6275      0.00000
     71      10.9802      0.00000
     72      11.1786      0.00000
     73      11.5207      0.00000
     74      11.8739      0.00000
     75      12.4595      0.00000
     76      12.7863      0.00000
     77      12.9762      0.00000
     78      13.3961      0.00000
     79      13.5913      0.00000
     80      13.7670      0.00000
     81      14.0229      0.00000
     82      14.3862      0.00000
     83      14.6625      0.00000
     84      14.7510      0.00000
     85      15.1986      0.00000
     86      15.3726      0.00000
     87      15.5664      0.00000
     88      16.1142      0.00000
     89      16.4269      0.00000
     90      16.7154      0.00000
     91      16.8347      0.00000
     92      17.0419      0.00000
     93      17.1502      0.00000
     94      17.6923      0.00000
     95      17.8156      0.00000
     96      18.0169      0.00000
     97      18.1406      0.00000
     98      18.4101      0.00000
     99      18.8356      0.00000
    100      19.0280      0.00000
    101      19.2108      0.00000
    102      19.4895      0.00000
    103      19.5894      0.00000
    104      19.7848      0.00000
    105      20.3030      0.00000
    106      20.4828      0.00000
    107      20.7334      0.00000
    108      21.0104      0.00000
    109      21.0649      0.00000
    110      21.2343      0.00000
    111      21.4770      0.00000
    112      21.6832      0.00000
    113      21.9877      0.00000
    114      22.1506      0.00000
    115      22.5182      0.00000
    116      23.0214      0.00000
    117      23.1915      0.00000
    118      23.5448      0.00000
    119      23.9619      0.00000
    120      24.1152      0.00000
    121      24.2463      0.00000
    122      24.6056      0.00000
    123      24.9733      0.00000
    124      25.2686      0.00000
    125      25.5087      0.00000
    126      25.6765      0.00000
    127      25.9177      0.00000
    128      26.2076      0.00000
    129      26.3080      0.00000
    130      26.5922      0.00000
    131      26.7676      0.00000
    132      26.8944      0.00000
    133      27.1309      0.00000
    134      27.1877      0.00000
    135      27.2229      0.00000
    136      27.5111      0.00000
    137      27.6279      0.00000
    138      27.8311      0.00000
    139      27.9966      0.00000
    140      28.1457      0.00000

 k-point    85 :       0.2206   -0.0000    0.0000
  band No.  band energies     occupation 
      1     -25.4553      2.00000
      2     -25.4502      2.00000
      3     -25.4406      2.00000
      4     -25.4400      2.00000
      5     -25.4107      2.00000
      6     -25.4103      2.00000
      7     -25.3882      2.00000
      8     -25.3875      2.00000
      9     -25.3828      2.00000
     10     -25.3820      2.00000
     11     -12.7738      2.00000
     12     -11.5228      2.00000
     13     -11.4462      2.00000
     14     -11.1844      2.00000
     15     -10.9208      2.00000
     16     -10.8497      2.00000
     17      -6.4251      2.00000
     18      -5.4402      2.00000
     19      -2.8045      2.00000
     20      -2.3864      2.00000
     21      -2.2525      2.00000
     22      -1.9256      2.00000
     23      -1.6253      2.00000
     24      -1.2915      2.00000
     25      -1.0860      2.00000
     26      -0.9882      2.00000
     27      -0.8441      2.00000
     28      -0.7616      2.00000
     29      -0.7294      2.00000
     30      -0.6323      2.00000
     31      -0.5840      2.00000
     32      -0.5601      2.00000
     33      -0.4464      2.00000
     34      -0.4007      2.00000
     35       0.4995      2.00000
     36       0.5497      2.00000
     37       0.5561      2.00000
     38       0.5811      2.00000
     39       0.6073      2.00000
     40       0.6384      2.00000
     41       0.6652      2.00000
     42       0.7034      2.00000
     43       0.8759      2.00000
     44       0.9883      2.00000
     45       1.2038      2.00000
     46       1.2727      2.00000
     47       1.3573      2.00000
     48       1.5729      2.00000
     49       1.7365      2.00000
     50       2.0330      2.00000
     51       2.2001      2.00000
     52       2.4673      2.00000
     53       3.0153      2.00000
     54       3.3460      2.00000
     55       4.8255      0.00000
     56       5.5178      0.00000
     57       6.8818      0.00000
     58       7.0473      0.00000
     59       7.4025      0.00000
     60       7.8139      0.00000
     61       8.1343      0.00000
     62       8.3696      0.00000
     63       8.6002      0.00000
     64       9.2554      0.00000
     65       9.5539      0.00000
     66       9.7192      0.00000
     67       9.8306      0.00000
     68      10.1042      0.00000
     69      10.4800      0.00000
     70      10.6327      0.00000
     71      10.9995      0.00000
     72      11.1839      0.00000
     73      11.5809      0.00000
     74      11.9007      0.00000
     75      12.4969      0.00000
     76      12.8046      0.00000
     77      12.9695      0.00000
     78      13.3802      0.00000
     79      13.6132      0.00000
     80      13.7658      0.00000
     81      14.0273      0.00000
     82      14.4185      0.00000
     83      14.6490      0.00000
     84      14.7115      0.00000
     85      15.1721      0.00000
     86      15.3304      0.00000
     87      15.5340      0.00000
     88      16.0699      0.00000
     89      16.3861      0.00000
     90      16.6819      0.00000
     91      16.8084      0.00000
     92      17.0201      0.00000
     93      17.0795      0.00000
     94      17.6870      0.00000
     95      17.7806      0.00000
     96      17.9802      0.00000
     97      18.2286      0.00000
     98      18.4600      0.00000
     99      18.8729      0.00000
    100      18.9890      0.00000
    101      19.1941      0.00000
    102      19.5250      0.00000
    103      19.5980      0.00000
    104      19.7939      0.00000
    105      20.2910      0.00000
    106      20.4989      0.00000
    107      20.6772      0.00000
    108      21.0492      0.00000
    109      21.1088      0.00000
    110      21.1761      0.00000
    111      21.5180      0.00000
    112      21.6248      0.00000
    113      21.9374      0.00000
    114      22.1047      0.00000
    115      22.5109      0.00000
    116      23.0136      0.00000
    117      23.1565      0.00000
    118      23.5294      0.00000
    119      23.9380      0.00000
    120      24.1952      0.00000
    121      24.4064      0.00000
    122      24.5828      0.00000
    123      24.9509      0.00000
    124      25.2647      0.00000
    125      25.5215      0.00000
    126      25.7183      0.00000
    127      25.9782      0.00000
    128      26.2438      0.00000
    129      26.3152      0.00000
    130      26.6269      0.00000
    131      26.8303      0.00000
    132      26.9738      0.00000
    133      27.0936      0.00000
    134      27.1808      0.00000
    135      27.2624      0.00000
    136      27.4982      0.00000
    137      27.7573      0.00000
    138      27.8945      0.00000
    139      28.0410      0.00000
    140      28.1535      0.00000

 k-point    86 :       0.2059   -0.0000   -0.0000
  band No.  band energies     occupation 
      1     -25.4556      2.00000
      2     -25.4505      2.00000
      3     -25.4409      2.00000
      4     -25.4403      2.00000
      5     -25.4111      2.00000
      6     -25.4106      2.00000
      7     -25.3886      2.00000
      8     -25.3879      2.00000
      9     -25.3832      2.00000
     10     -25.3824      2.00000
     11     -12.7850      2.00000
     12     -11.5246      2.00000
     13     -11.4402      2.00000
     14     -11.1790      2.00000
     15     -10.9139      2.00000
     16     -10.8453      2.00000
     17      -6.4295      2.00000
     18      -5.4563      2.00000
     19      -2.8164      2.00000
     20      -2.3839      2.00000
     21      -2.2472      2.00000
     22      -1.9503      2.00000
     23      -1.6492      2.00000
     24      -1.2915      2.00000
     25      -1.0968      2.00000
     26      -0.9922      2.00000
     27      -0.8271      2.00000
     28      -0.7540      2.00000
     29      -0.7192      2.00000
     30      -0.6349      2.00000
     31      -0.5845      2.00000
     32      -0.5593      2.00000
     33      -0.4458      2.00000
     34      -0.4033      2.00000
     35       0.5036      2.00000
     36       0.5502      2.00000
     37       0.5608      2.00000
     38       0.5805      2.00000
     39       0.6087      2.00000
     40       0.6388      2.00000
     41       0.6648      2.00000
     42       0.7046      2.00000
     43       0.8606      2.00000
     44       0.9803      2.00000
     45       1.2003      2.00000
     46       1.2575      2.00000
     47       1.3350      2.00000
     48       1.6032      2.00000
     49       1.7650      2.00000
     50       2.0400      2.00000
     51       2.2274      2.00000
     52       2.5145      2.00000
     53       3.0509      2.00000
     54       3.3607      2.00000
     55       4.7813      0.00000
     56       5.4723      0.00000
     57       6.8498      0.00000
     58       7.0192      0.00000
     59       7.4129      0.00000
     60       7.7886      0.00000
     61       8.1653      0.00000
     62       8.3930      0.00000
     63       8.5771      0.00000
     64       9.2528      0.00000
     65       9.5479      0.00000
     66       9.7125      0.00000
     67       9.8149      0.00000
     68      10.1119      0.00000
     69      10.5044      0.00000
     70      10.6433      0.00000
     71      11.0230      0.00000
     72      11.1973      0.00000
     73      11.6399      0.00000
     74      11.9289      0.00000
     75      12.5313      0.00000
     76      12.8174      0.00000
     77      12.9641      0.00000
     78      13.3446      0.00000
     79      13.6347      0.00000
     80      13.7736      0.00000
     81      14.0387      0.00000
     82      14.4439      0.00000
     83      14.6152      0.00000
     84      14.6887      0.00000
     85      15.1421      0.00000
     86      15.2816      0.00000
     87      15.5123      0.00000
     88      16.0183      0.00000
     89      16.3566      0.00000
     90      16.6186      0.00000
     91      16.8003      0.00000
     92      16.9949      0.00000
     93      17.0400      0.00000
     94      17.6547      0.00000
     95      17.7193      0.00000
     96      17.9827      0.00000
     97      18.3188      0.00000
     98      18.5120      0.00000
     99      18.8274      0.00000
    100      19.0154      0.00000
    101      19.1893      0.00000
    102      19.5197      0.00000
    103      19.6239      0.00000
    104      19.8332      0.00000
    105      20.2735      0.00000
    106      20.5210      0.00000
    107      20.6292      0.00000
    108      21.0229      0.00000
    109      21.1260      0.00000
    110      21.2048      0.00000
    111      21.4831      0.00000
    112      21.6362      0.00000
    113      21.9200      0.00000
    114      22.0733      0.00000
    115      22.5113      0.00000
    116      23.0088      0.00000
    117      23.1179      0.00000
    118      23.4863      0.00000
    119      23.8707      0.00000
    120      24.2753      0.00000
    121      24.5523      0.00000
    122      24.6255      0.00000
    123      24.9438      0.00000
    124      25.2613      0.00000
    125      25.5304      0.00000
    126      25.7609      0.00000
    127      26.0253      0.00000
    128      26.2794      0.00000
    129      26.3193      0.00000
    130      26.6339      0.00000
    131      26.8375      0.00000
    132      26.9677      0.00000
    133      27.1221      0.00000
    134      27.1877      0.00000
    135      27.3257      0.00000
    136      27.4808      0.00000
    137      27.7868      0.00000
    138      27.9398      0.00000
    139      28.0857      0.00000
    140      28.2387      0.00000

 k-point    87 :       0.1912   -0.0000   -0.0000
  band No.  band energies     occupation 
      1     -25.4560      2.00000
      2     -25.4509      2.00000
      3     -25.4413      2.00000
      4     -25.4407      2.00000
      5     -25.4114      2.00000
      6     -25.4110      2.00000
      7     -25.3890      2.00000
      8     -25.3882      2.00000
      9     -25.3835      2.00000
     10     -25.3828      2.00000
     11     -12.7957      2.00000
     12     -11.5271      2.00000
     13     -11.4338      2.00000
     14     -11.1738      2.00000
     15     -10.9069      2.00000
     16     -10.8413      2.00000
     17      -6.4338      2.00000
     18      -5.4719      2.00000
     19      -2.8277      2.00000
     20      -2.3805      2.00000
     21      -2.2418      2.00000
     22      -1.9738      2.00000
     23      -1.6717      2.00000
     24      -1.2954      2.00000
     25      -1.1094      2.00000
     26      -0.9945      2.00000
     27      -0.8123      2.00000
     28      -0.7470      2.00000
     29      -0.7073      2.00000
     30      -0.6376      2.00000
     31      -0.5852      2.00000
     32      -0.5583      2.00000
     33      -0.4446      2.00000
     34      -0.4055      2.00000
     35       0.5078      2.00000
     36       0.5510      2.00000
     37       0.5658      2.00000
     38       0.5803      2.00000
     39       0.6107      2.00000
     40       0.6391      2.00000
     41       0.6648      2.00000
     42       0.7057      2.00000
     43       0.8450      2.00000
     44       0.9731      2.00000
     45       1.1951      2.00000
     46       1.2434      2.00000
     47       1.3131      2.00000
     48       1.6294      2.00000
     49       1.7944      2.00000
     50       2.0513      2.00000
     51       2.2530      2.00000
     52       2.5676      2.00000
     53       3.0849      2.00000
     54       3.3748      2.00000
     55       4.7337      0.00000
     56       5.4253      0.00000
     57       6.8141      0.00000
     58       6.9915      0.00000
     59       7.4213      0.00000
     60       7.7642      0.00000
     61       8.1906      0.00000
     62       8.4186      0.00000
     63       8.5581      0.00000
     64       9.2528      0.00000
     65       9.5323      0.00000
     66       9.7068      0.00000
     67       9.8037      0.00000
     68      10.1220      0.00000
     69      10.5328      0.00000
     70      10.6615      0.00000
     71      11.0492      0.00000
     72      11.2198      0.00000
     73      11.6947      0.00000
     74      11.9595      0.00000
     75      12.5641      0.00000
     76      12.8235      0.00000
     77      12.9615      0.00000
     78      13.3029      0.00000
     79      13.6388      0.00000
     80      13.7926      0.00000
     81      14.0535      0.00000
     82      14.4550      0.00000
     83      14.5722      0.00000
     84      14.6835      0.00000
     85      15.1105      0.00000
     86      15.2301      0.00000
     87      15.4902      0.00000
     88      15.9624      0.00000
     89      16.3404      0.00000
     90      16.5384      0.00000
     91      16.7984      0.00000
     92      16.9733      0.00000
     93      17.0314      0.00000
     94      17.5844      0.00000
     95      17.6812      0.00000
     96      17.9993      0.00000
     97      18.3880      0.00000
     98      18.5265      0.00000
     99      18.8019      0.00000
    100      19.0399      0.00000
    101      19.2054      0.00000
    102      19.4815      0.00000
    103      19.6681      0.00000
    104      19.8777      0.00000
    105      20.2656      0.00000
    106      20.5195      0.00000
    107      20.6156      0.00000
    108      20.9624      0.00000
    109      21.1331      0.00000
    110      21.2591      0.00000
    111      21.4369      0.00000
    112      21.6688      0.00000
    113      21.9277      0.00000
    114      22.0688      0.00000
    115      22.5112      0.00000
    116      23.0022      0.00000
    117      23.0841      0.00000
    118      23.4266      0.00000
    119      23.7879      0.00000
    120      24.3267      0.00000
    121      24.6303      0.00000
    122      24.7454      0.00000
    123      24.9707      0.00000
    124      25.2621      0.00000
    125      25.5377      0.00000
    126      25.8012      0.00000
    127      26.0533      0.00000
    128      26.3099      0.00000
    129      26.3270      0.00000
    130      26.6162      0.00000
    131      26.8221      0.00000
    132      26.8966      0.00000
    133      27.1174      0.00000
    134      27.2553      0.00000
    135      27.4183      0.00000
    136      27.4836      0.00000
    137      27.7797      0.00000
    138      27.9132      0.00000
    139      28.0632      0.00000
    140      28.2922      0.00000

 k-point    88 :       0.1765   -0.0000   -0.0000
  band No.  band energies     occupation 
      1     -25.4563      2.00000
      2     -25.4512      2.00000
      3     -25.4416      2.00000
      4     -25.4410      2.00000
      5     -25.4118      2.00000
      6     -25.4113      2.00000
      7     -25.3893      2.00000
      8     -25.3886      2.00000
      9     -25.3839      2.00000
     10     -25.3831      2.00000
     11     -12.8058      2.00000
     12     -11.5301      2.00000
     13     -11.4273      2.00000
     14     -11.1690      2.00000
     15     -10.8999      2.00000
     16     -10.8376      2.00000
     17      -6.4378      2.00000
     18      -5.4869      2.00000
     19      -2.8383      2.00000
     20      -2.3762      2.00000
     21      -2.2368      2.00000
     22      -1.9959      2.00000
     23      -1.6925      2.00000
     24      -1.3024      2.00000
     25      -1.1242      2.00000
     26      -0.9948      2.00000
     27      -0.8001      2.00000
     28      -0.7391      2.00000
     29      -0.6954      2.00000
     30      -0.6402      2.00000
     31      -0.5862      2.00000
     32      -0.5571      2.00000
     33      -0.4430      2.00000
     34      -0.4075      2.00000
     35       0.5117      2.00000
     36       0.5520      2.00000
     37       0.5708      2.00000
     38       0.5809      2.00000
     39       0.6130      2.00000
     40       0.6393      2.00000
     41       0.6654      2.00000
     42       0.7068      2.00000
     43       0.8295      2.00000
     44       0.9662      2.00000
     45       1.1870      2.00000
     46       1.2317      2.00000
     47       1.2921      2.00000
     48       1.6517      2.00000
     49       1.8227      2.00000
     50       2.0680      2.00000
     51       2.2769      2.00000
     52       2.6260      2.00000
     53       3.1171      2.00000
     54       3.3882      2.00000
     55       4.6828      0.00000
     56       5.3775      0.00000
     57       6.7755      0.00000
     58       6.9647      0.00000
     59       7.4274      0.00000
     60       7.7410      0.00000
     61       8.2114      0.00000
     62       8.4430      0.00000
     63       8.5442      0.00000
     64       9.2554      0.00000
     65       9.5115      0.00000
     66       9.6979      0.00000
     67       9.7982      0.00000
     68      10.1325      0.00000
     69      10.5626      0.00000
     70      10.6904      0.00000
     71      11.0768      0.00000
     72      11.2516      0.00000
     73      11.7423      0.00000
     74      11.9940      0.00000
     75      12.5964      0.00000
     76      12.8232      0.00000
     77      12.9615      0.00000
     78      13.2622      0.00000
     79      13.6270      0.00000
     80      13.8121      0.00000
     81      14.0674      0.00000
     82      14.4438      0.00000
     83      14.5399      0.00000
     84      14.6890      0.00000
     85      15.0787      0.00000
     86      15.1792      0.00000
     87      15.4606      0.00000
     88      15.9029      0.00000
     89      16.3371      0.00000
     90      16.4607      0.00000
     91      16.7961      0.00000
     92      16.9635      0.00000
     93      17.0405      0.00000
     94      17.5048      0.00000
     95      17.6575      0.00000
     96      18.0135      0.00000
     97      18.3836      0.00000
     98      18.5434      0.00000
     99      18.8098      0.00000
    100      19.0480      0.00000
    101      19.2394      0.00000
    102      19.4486      0.00000
    103      19.7066      0.00000
    104      19.9108      0.00000
    105      20.2755      0.00000
    106      20.4953      0.00000
    107      20.6229      0.00000
    108      20.9236      0.00000
    109      21.1123      0.00000
    110      21.3106      0.00000
    111      21.4196      0.00000
    112      21.6975      0.00000
    113      21.9488      0.00000
    114      22.1000      0.00000
    115      22.5015      0.00000
    116      22.9788      0.00000
    117      23.0728      0.00000
    118      23.3623      0.00000
    119      23.6984      0.00000
    120      24.3413      0.00000
    121      24.7070      0.00000
    122      24.8358      0.00000
    123      25.0290      0.00000
    124      25.2856      0.00000
    125      25.5457      0.00000
    126      25.8348      0.00000
    127      26.0588      0.00000
    128      26.3237      0.00000
    129      26.3486      0.00000
    130      26.5743      0.00000
    131      26.7767      0.00000
    132      26.8866      0.00000
    133      27.0899      0.00000
    134      27.2760      0.00000
    135      27.4733      0.00000
    136      27.5614      0.00000
    137      27.7401      0.00000
    138      27.9023      0.00000
    139      28.0825      0.00000
    140      28.3182      0.00000

 k-point    89 :       0.1618   -0.0000    0.0000
  band No.  band energies     occupation 
      1     -25.4566      2.00000
      2     -25.4515      2.00000
      3     -25.4419      2.00000
      4     -25.4413      2.00000
      5     -25.4121      2.00000
      6     -25.4117      2.00000
      7     -25.3896      2.00000
      8     -25.3889      2.00000
      9     -25.3842      2.00000
     10     -25.3834      2.00000
     11     -12.8153      2.00000
     12     -11.5332      2.00000
     13     -11.4208      2.00000
     14     -11.1646      2.00000
     15     -10.8928      2.00000
     16     -10.8343      2.00000
     17      -6.4417      2.00000
     18      -5.5010      2.00000
     19      -2.8480      2.00000
     20      -2.3711      2.00000
     21      -2.2325      2.00000
     22      -2.0164      2.00000
     23      -1.7111      2.00000
     24      -1.3118      2.00000
     25      -1.1412      2.00000
     26      -0.9933      2.00000
     27      -0.7902      2.00000
     28      -0.7298      2.00000
     29      -0.6844      2.00000
     30      -0.6427      2.00000
     31      -0.5873      2.00000
     32      -0.5558      2.00000
     33      -0.4409      2.00000
     34      -0.4092      2.00000
     35       0.5153      2.00000
     36       0.5531      2.00000
     37       0.5748      2.00000
     38       0.5833      2.00000
     39       0.6158      2.00000
     40       0.6394      2.00000
     41       0.6664      2.00000
     42       0.7077      2.00000
     43       0.8144      2.00000
     44       0.9595      2.00000
     45       1.1758      2.00000
     46       1.2225      2.00000
     47       1.2729      2.00000
     48       1.6709      2.00000
     49       1.8480      2.00000
     50       2.0902      2.00000
     51       2.2991      2.00000
     52       2.6889      2.00000
     53       3.1471      2.00000
     54       3.4008      2.00000
     55       4.6287      0.00000
     56       5.3295      0.00000
     57       6.7352      0.00000
     58       6.9390      0.00000
     59       7.4313      0.00000
     60       7.7194      0.00000
     61       8.2291      0.00000
     62       8.4618      0.00000
     63       8.5374      0.00000
     64       9.2603      0.00000
     65       9.4894      0.00000
     66       9.6860      0.00000
     67       9.7958      0.00000
     68      10.1421      0.00000
     69      10.5900      0.00000
     70      10.7322      0.00000
     71      11.1051      0.00000
     72      11.2927      0.00000
     73      11.7805      0.00000
     74      12.0340      0.00000
     75      12.6291      0.00000
     76      12.8181      0.00000
     77      12.9624      0.00000
     78      13.2264      0.00000
     79      13.6056      0.00000
     80      13.8219      0.00000
     81      14.0720      0.00000
     82      14.4156      0.00000
     83      14.5246      0.00000
     84      14.6995      0.00000
     85      15.0484      0.00000
     86      15.1319      0.00000
     87      15.4220      0.00000
     88      15.8360      0.00000
     89      16.3451      0.00000
     90      16.4025      0.00000
     91      16.7945      0.00000
     92      16.9592      0.00000
     93      17.0606      0.00000
     94      17.4331      0.00000
     95      17.6409      0.00000
     96      18.0101      0.00000
     97      18.3221      0.00000
     98      18.5924      0.00000
     99      18.7968      0.00000
    100      19.0471      0.00000
    101      19.2845      0.00000
    102      19.4378      0.00000
    103      19.7344      0.00000
    104      19.9281      0.00000
    105      20.3015      0.00000
    106      20.4646      0.00000
    107      20.6245      0.00000
    108      20.9133      0.00000
    109      21.0962      0.00000
    110      21.3481      0.00000
    111      21.4215      0.00000
    112      21.7338      0.00000
    113      21.9789      0.00000
    114      22.1577      0.00000
    115      22.4768      0.00000
    116      22.9405      0.00000
    117      23.0854      0.00000
    118      23.3020      0.00000
    119      23.6065      0.00000
    120      24.3276      0.00000
    121      24.7753      0.00000
    122      24.9020      0.00000
    123      25.0508      0.00000
    124      25.3611      0.00000
    125      25.5581      0.00000
    126      25.8518      0.00000
    127      26.0516      0.00000
    128      26.3077      0.00000
    129      26.3834      0.00000
    130      26.5356      0.00000
    131      26.7626      0.00000
    132      26.8868      0.00000
    133      27.0590      0.00000
    134      27.2707      0.00000
    135      27.4903      0.00000
    136      27.6032      0.00000
    137      27.7439      0.00000
    138      27.9346      0.00000
    139      28.1363      0.00000
    140      28.3388      0.00000

 k-point    90 :       0.1471    0.0000   -0.0000
  band No.  band energies     occupation 
      1     -25.4569      2.00000
      2     -25.4518      2.00000
      3     -25.4422      2.00000
      4     -25.4416      2.00000
      5     -25.4124      2.00000
      6     -25.4120      2.00000
      7     -25.3899      2.00000
      8     -25.3892      2.00000
      9     -25.3845      2.00000
     10     -25.3837      2.00000
     11     -12.8242      2.00000
     12     -11.5364      2.00000
     13     -11.4146      2.00000
     14     -11.1606      2.00000
     15     -10.8857      2.00000
     16     -10.8315      2.00000
     17      -6.4452      2.00000
     18      -5.5143      2.00000
     19      -2.8569      2.00000
     20      -2.3655      2.00000
     21      -2.2292      2.00000
     22      -2.0351      2.00000
     23      -1.7274      2.00000
     24      -1.3227      2.00000
     25      -1.1599      2.00000
     26      -0.9905      2.00000
     27      -0.7821      2.00000
     28      -0.7197      2.00000
     29      -0.6746      2.00000
     30      -0.6449      2.00000
     31      -0.5887      2.00000
     32      -0.5544      2.00000
     33      -0.4384      2.00000
     34      -0.4105      2.00000
     35       0.5184      2.00000
     36       0.5544      2.00000
     37       0.5771      2.00000
     38       0.5882      2.00000
     39       0.6189      2.00000
     40       0.6395      2.00000
     41       0.6678      2.00000
     42       0.7083      2.00000
     43       0.8001      2.00000
     44       0.9529      2.00000
     45       1.1627      2.00000
     46       1.2139      2.00000
     47       1.2567      2.00000
     48       1.6877      2.00000
     49       1.8691      2.00000
     50       2.1174      2.00000
     51       2.3199      2.00000
     52       2.7553      2.00000
     53       3.1748      2.00000
     54       3.4127      2.00000
     55       4.5719      0.00000
     56       5.2820      0.00000
     57       6.6943      0.00000
     58       6.9144      0.00000
     59       7.4333      0.00000
     60       7.6994      0.00000
     61       8.2446      0.00000
     62       8.4705      0.00000
     63       8.5402      0.00000
     64       9.2667      0.00000
     65       9.4691      0.00000
     66       9.6736      0.00000
     67       9.7935      0.00000
     68      10.1499      0.00000
     69      10.6131      0.00000
     70      10.7862      0.00000
     71      11.1339      0.00000
     72      11.3421      0.00000
     73      11.8094      0.00000
     74      12.0793      0.00000
     75      12.6619      0.00000
     76      12.8106      0.00000
     77      12.9627      0.00000
     78      13.1978      0.00000
     79      13.5775      0.00000
     80      13.8191      0.00000
     81      14.0576      0.00000
     82      14.3824      0.00000
     83      14.5261      0.00000
     84      14.7049      0.00000
     85      15.0219      0.00000
     86      15.0917      0.00000
     87      15.3790      0.00000
     88      15.7570      0.00000
     89      16.3602      0.00000
     90      16.3775      0.00000
     91      16.7960      0.00000
     92      16.9553      0.00000
     93      17.0834      0.00000
     94      17.3753      0.00000
     95      17.6330      0.00000
     96      17.9709      0.00000
     97      18.2761      0.00000
     98      18.6260      0.00000
     99      18.7637      0.00000
    100      19.0206      0.00000
    101      19.3378      0.00000
    102      19.4552      0.00000
    103      19.7499      0.00000
    104      19.9341      0.00000
    105      20.3303      0.00000
    106      20.4367      0.00000
    107      20.6170      0.00000
    108      20.9278      0.00000
    109      21.1102      0.00000
    110      21.3568      0.00000
    111      21.4478      0.00000
    112      21.7842      0.00000
    113      22.0142      0.00000
    114      22.2247      0.00000
    115      22.4409      0.00000
    116      22.9037      0.00000
    117      23.1080      0.00000
    118      23.2492      0.00000
    119      23.5153      0.00000
    120      24.2962      0.00000
    121      24.8240      0.00000
    122      24.9581      0.00000
    123      25.0183      0.00000
    124      25.4533      0.00000
    125      25.5782      0.00000
    126      25.8423      0.00000
    127      26.0558      0.00000
    128      26.2692      0.00000
    129      26.4303      0.00000
    130      26.5309      0.00000
    131      26.7694      0.00000
    132      26.8855      0.00000
    133      27.0276      0.00000
    134      27.2622      0.00000
    135      27.4721      0.00000
    136      27.6250      0.00000
    137      27.7801      0.00000
    138      27.9801      0.00000
    139      28.2254      0.00000
    140      28.3702      0.00000

 k-point    91 :       0.1324    0.0000    0.0000
  band No.  band energies     occupation 
      1     -25.4572      2.00000
      2     -25.4521      2.00000
      3     -25.4425      2.00000
      4     -25.4419      2.00000
      5     -25.4127      2.00000
      6     -25.4123      2.00000
      7     -25.3902      2.00000
      8     -25.3895      2.00000
      9     -25.3848      2.00000
     10     -25.3840      2.00000
     11     -12.8323      2.00000
     12     -11.5396      2.00000
     13     -11.4087      2.00000
     14     -11.1569      2.00000
     15     -10.8787      2.00000
     16     -10.8291      2.00000
     17      -6.4485      2.00000
     18      -5.5267      2.00000
     19      -2.8650      2.00000
     20      -2.3594      2.00000
     21      -2.2271      2.00000
     22      -2.0519      2.00000
     23      -1.7411      2.00000
     24      -1.3342      2.00000
     25      -1.1801      2.00000
     26      -0.9868      2.00000
     27      -0.7754      2.00000
     28      -0.7094      2.00000
     29      -0.6665      2.00000
     30      -0.6467      2.00000
     31      -0.5903      2.00000
     32      -0.5530      2.00000
     33      -0.4356      2.00000
     34      -0.4116      2.00000
     35       0.5209      2.00000
     36       0.5558      2.00000
     37       0.5787      2.00000
     38       0.5942      2.00000
     39       0.6223      2.00000
     40       0.6396      2.00000
     41       0.6697      2.00000
     42       0.7084      2.00000
     43       0.7868      2.00000
     44       0.9465      2.00000
     45       1.1491      2.00000
     46       1.2034      2.00000
     47       1.2449      2.00000
     48       1.7025      2.00000
     49       1.8859      2.00000
     50       2.1482      2.00000
     51       2.3397      2.00000
     52       2.8243      2.00000
     53       3.2001      2.00000
     54       3.4237      2.00000
     55       4.5126      0.00000
     56       5.2357      0.00000
     57       6.6540      0.00000
     58       6.8910      0.00000
     59       7.4339      0.00000
     60       7.6811      0.00000
     61       8.2587      0.00000
     62       8.4703      0.00000
     63       8.5501      0.00000
     64       9.2731      0.00000
     65       9.4535      0.00000
     66       9.6625      0.00000
     67       9.7897      0.00000
     68      10.1551      0.00000
     69      10.6321      0.00000
     70      10.8493      0.00000
     71      11.1628      0.00000
     72      11.3983      0.00000
     73      11.8322      0.00000
     74      12.1281      0.00000
     75      12.6928      0.00000
     76      12.8029      0.00000
     77      12.9626      0.00000
     78      13.1772      0.00000
     79      13.5441      0.00000
     80      13.8052      0.00000
     81      14.0223      0.00000
     82      14.3445      0.00000
     83      14.5453      0.00000
     84      14.6960      0.00000
     85      14.9974      0.00000
     86      15.0659      0.00000
     87      15.3385      0.00000
     88      15.6669      0.00000
     89      16.3688      0.00000
     90      16.3986      0.00000
     91      16.8011      0.00000
     92      16.9491      0.00000
     93      17.0990      0.00000
     94      17.3357      0.00000
     95      17.6357      0.00000
     96      17.8968      0.00000
     97      18.2590      0.00000
     98      18.6123      0.00000
     99      18.7466      0.00000
    100      18.9697      0.00000
    101      19.3786      0.00000
    102      19.4991      0.00000
    103      19.7534      0.00000
    104      19.9349      0.00000
    105      20.3404      0.00000
    106      20.4249      0.00000
    107      20.6146      0.00000
    108      20.9644      0.00000
    109      21.1463      0.00000
    110      21.3582      0.00000
    111      21.4885      0.00000
    112      21.8467      0.00000
    113      22.0375      0.00000
    114      22.2883      0.00000
    115      22.4125      0.00000
    116      22.8775      0.00000
    117      23.1311      0.00000
    118      23.2049      0.00000
    119      23.4275      0.00000
    120      24.2550      0.00000
    121      24.8429      0.00000
    122      24.9571      0.00000
    123      25.0037      0.00000
    124      25.4833      0.00000
    125      25.6111      0.00000
    126      25.8246      0.00000
    127      26.0856      0.00000
    128      26.2512      0.00000
    129      26.4788      0.00000
    130      26.5527      0.00000
    131      26.7756      0.00000
    132      26.8936      0.00000
    133      26.9997      0.00000
    134      27.2627      0.00000
    135      27.4497      0.00000
    136      27.6654      0.00000
    137      27.8048      0.00000
    138      28.0167      0.00000
    139      28.2896      0.00000
    140      28.4448      0.00000

 k-point    92 :       0.1176   -0.0000    0.0000
  band No.  band energies     occupation 
      1     -25.4575      2.00000
      2     -25.4524      2.00000
      3     -25.4428      2.00000
      4     -25.4422      2.00000
      5     -25.4129      2.00000
      6     -25.4125      2.00000
      7     -25.3905      2.00000
      8     -25.3897      2.00000
      9     -25.3851      2.00000
     10     -25.3843      2.00000
     11     -12.8397      2.00000
     12     -11.5425      2.00000
     13     -11.4033      2.00000
     14     -11.1538      2.00000
     15     -10.8720      2.00000
     16     -10.8271      2.00000
     17      -6.4515      2.00000
     18      -5.5380      2.00000
     19      -2.8722      2.00000
     20      -2.3531      2.00000
     21      -2.2264      2.00000
     22      -2.0667      2.00000
     23      -1.7521      2.00000
     24      -1.3456      2.00000
     25      -1.2010      2.00000
     26      -0.9829      2.00000
     27      -0.7694      2.00000
     28      -0.6994      2.00000
     29      -0.6605      2.00000
     30      -0.6477      2.00000
     31      -0.5919      2.00000
     32      -0.5515      2.00000
     33      -0.4326      2.00000
     34      -0.4124      2.00000
     35       0.5230      2.00000
     36       0.5571      2.00000
     37       0.5804      2.00000
     38       0.6005      2.00000
     39       0.6260      2.00000
     40       0.6398      2.00000
     41       0.6721      2.00000
     42       0.7080      2.00000
     43       0.7747      2.00000
     44       0.9401      2.00000
     45       1.1362      2.00000
     46       1.1904      2.00000
     47       1.2376      2.00000
     48       1.7157      2.00000
     49       1.8990      2.00000
     50       2.1802      2.00000
     51       2.3588      2.00000
     52       2.8951      2.00000
     53       3.2227      2.00000
     54       3.4339      2.00000
     55       4.4515      0.00000
     56       5.1914      0.00000
     57       6.6152      0.00000
     58       6.8689      0.00000
     59       7.4332      0.00000
     60       7.6648      0.00000
     61       8.2718      0.00000
     62       8.4661      0.00000
     63       8.5613      0.00000
     64       9.2768      0.00000
     65       9.4456      0.00000
     66       9.6535      0.00000
     67       9.7840      0.00000
     68      10.1572      0.00000
     69      10.6477      0.00000
     70      10.9175      0.00000
     71      11.1917      0.00000
     72      11.4582      0.00000
     73      11.8537      0.00000
     74      12.1775      0.00000
     75      12.7171      0.00000
     76      12.7982      0.00000
     77      12.9646      0.00000
     78      13.1636      0.00000
     79      13.5068      0.00000
     80      13.7832      0.00000
     81      13.9720      0.00000
     82      14.2999      0.00000
     83      14.5706      0.00000
     84      14.6759      0.00000
     85      14.9654      0.00000
     86      15.0654      0.00000
     87      15.3059      0.00000
     88      15.5727      0.00000
     89      16.3929      0.00000
     90      16.4364      0.00000
     91      16.8092      0.00000
     92      16.9395      0.00000
     93      17.1009      0.00000
     94      17.3151      0.00000
     95      17.6455      0.00000
     96      17.8133      0.00000
     97      18.2508      0.00000
     98      18.5604      0.00000
     99      18.7483      0.00000
    100      18.9082      0.00000
    101      19.3934      0.00000
    102      19.5549      0.00000
    103      19.7443      0.00000
    104      19.9409      0.00000
    105      20.3227      0.00000
    106      20.4318      0.00000
    107      20.6355      0.00000
    108      21.0167      0.00000
    109      21.1778      0.00000
    110      21.3887      0.00000
    111      21.5303      0.00000
    112      21.9115      0.00000
    113      22.0299      0.00000
    114      22.3379      0.00000
    115      22.4209      0.00000
    116      22.8665      0.00000
    117      23.1432      0.00000
    118      23.1724      0.00000
    119      23.3471      0.00000
    120      24.2095      0.00000
    121      24.7990      0.00000
    122      24.9144      0.00000
    123      25.0319      0.00000
    124      25.4237      0.00000
    125      25.6482      0.00000
    126      25.8188      0.00000
    127      26.1366      0.00000
    128      26.2724      0.00000
    129      26.5153      0.00000
    130      26.6045      0.00000
    131      26.7724      0.00000
    132      26.9100      0.00000
    133      26.9970      0.00000
    134      27.2761      0.00000
    135      27.4449      0.00000
    136      27.6990      0.00000
    137      27.8310      0.00000
    138      28.0434      0.00000
    139      28.3122      0.00000
    140      28.5423      0.00000

 k-point    93 :       0.1029    0.0000    0.0000
  band No.  band energies     occupation 
      1     -25.4577      2.00000
      2     -25.4526      2.00000
      3     -25.4430      2.00000
      4     -25.4424      2.00000
      5     -25.4132      2.00000
      6     -25.4128      2.00000
      7     -25.3907      2.00000
      8     -25.3900      2.00000
      9     -25.3853      2.00000
     10     -25.3845      2.00000
     11     -12.8463      2.00000
     12     -11.5452      2.00000
     13     -11.3983      2.00000
     14     -11.1510      2.00000
     15     -10.8655      2.00000
     16     -10.8257      2.00000
     17      -6.4542      2.00000
     18      -5.5481      2.00000
     19      -2.8784      2.00000
     20      -2.3467      2.00000
     21      -2.2268      2.00000
     22      -2.0796      2.00000
     23      -1.7604      2.00000
     24      -1.3563      2.00000
     25      -1.2223      2.00000
     26      -0.9789      2.00000
     27      -0.7640      2.00000
     28      -0.6902      2.00000
     29      -0.6573      2.00000
     30      -0.6468      2.00000
     31      -0.5937      2.00000
     32      -0.5501      2.00000
     33      -0.4295      2.00000
     34      -0.4130      2.00000
     35       0.5245      2.00000
     36       0.5584      2.00000
     37       0.5823      2.00000
     38       0.6064      2.00000
     39       0.6295      2.00000
     40       0.6407      2.00000
     41       0.6747      2.00000
     42       0.7070      2.00000
     43       0.7639      2.00000
     44       0.9338      2.00000
     45       1.1244      2.00000
     46       1.1760      2.00000
     47       1.2332      2.00000
     48       1.7277      2.00000
     49       1.9091      2.00000
     50       2.2115      2.00000
     51       2.3775      2.00000
     52       2.9664      2.00000
     53       3.2427      2.00000
     54       3.4431      2.00000
     55       4.3894      0.00000
     56       5.1498      0.00000
     57       6.5789      0.00000
     58       6.8483      0.00000
     59       7.4318      0.00000
     60       7.6505      0.00000
     61       8.2840      0.00000
     62       8.4609      0.00000
     63       8.5708      0.00000
     64       9.2759      0.00000
     65       9.4474      0.00000
     66       9.6468      0.00000
     67       9.7769      0.00000
     68      10.1560      0.00000
     69      10.6601      0.00000
     70      10.9869      0.00000
     71      11.2201      0.00000
     72      11.5174      0.00000
     73      11.8799      0.00000
     74      12.2248      0.00000
     75      12.7285      0.00000
     76      12.8001      0.00000
     77      12.9721      0.00000
     78      13.1538      0.00000
     79      13.4692      0.00000
     80      13.7552      0.00000
     81      13.9143      0.00000
     82      14.2488      0.00000
     83      14.5685      0.00000
     84      14.6725      0.00000
     85      14.9286      0.00000
     86      15.0837      0.00000
     87      15.2812      0.00000
     88      15.4854      0.00000
     89      16.4324      0.00000
     90      16.4815      0.00000
     91      16.8184      0.00000
     92      16.9269      0.00000
     93      17.0901      0.00000
     94      17.3085      0.00000
     95      17.6348      0.00000
     96      17.7640      0.00000
     97      18.2295      0.00000
     98      18.5079      0.00000
     99      18.7382      0.00000
    100      18.8573      0.00000
    101      19.3734      0.00000
    102      19.6189      0.00000
    103      19.7133      0.00000
    104      19.9651      0.00000
    105      20.2881      0.00000
    106      20.4540      0.00000
    107      20.6769      0.00000
    108      21.0713      0.00000
    109      21.2000      0.00000
    110      21.4581      0.00000
    111      21.5660      0.00000
    112      21.9371      0.00000
    113      22.0289      0.00000
    114      22.3710      0.00000
    115      22.4693      0.00000
    116      22.8720      0.00000
    117      23.1242      0.00000
    118      23.1645      0.00000
    119      23.2810      0.00000
    120      24.1629      0.00000
    121      24.6990      0.00000
    122      24.8815      0.00000
    123      25.0516      0.00000
    124      25.3193      0.00000
    125      25.6747      0.00000
    126      25.8092      0.00000
    127      26.1854      0.00000
    128      26.3225      0.00000
    129      26.5582      0.00000
    130      26.6762      0.00000
    131      26.7696      0.00000
    132      26.9297      0.00000
    133      27.0334      0.00000
    134      27.3000      0.00000
    135      27.4553      0.00000
    136      27.7144      0.00000
    137      27.8655      0.00000
    138      28.0638      0.00000
    139      28.3176      0.00000
    140      28.4702      0.00000

 k-point    94 :       0.0882    0.0000    0.0000
  band No.  band energies     occupation 
      1     -25.4579      2.00000
      2     -25.4528      2.00000
      3     -25.4432      2.00000
      4     -25.4426      2.00000
      5     -25.4134      2.00000
      6     -25.4130      2.00000
      7     -25.3909      2.00000
      8     -25.3902      2.00000
      9     -25.3855      2.00000
     10     -25.3847      2.00000
     11     -12.8521      2.00000
     12     -11.5477      2.00000
     13     -11.3939      2.00000
     14     -11.1486      2.00000
     15     -10.8593      2.00000
     16     -10.8248      2.00000
     17      -6.4565      2.00000
     18      -5.5570      2.00000
     19      -2.8838      2.00000
     20      -2.3406      2.00000
     21      -2.2281      2.00000
     22      -2.0907      2.00000
     23      -1.7662      2.00000
     24      -1.3656      2.00000
     25      -1.2433      2.00000
     26      -0.9751      2.00000
     27      -0.7591      2.00000
     28      -0.6821      2.00000
     29      -0.6568      2.00000
     30      -0.6442      2.00000
     31      -0.5955      2.00000
     32      -0.5487      2.00000
     33      -0.4264      2.00000
     34      -0.4135      2.00000
     35       0.5256      2.00000
     36       0.5597      2.00000
     37       0.5844      2.00000
     38       0.6116      2.00000
     39       0.6322      2.00000
     40       0.6429      2.00000
     41       0.6777      2.00000
     42       0.7052      2.00000
     43       0.7546      2.00000
     44       0.9279      2.00000
     45       1.1143      2.00000
     46       1.1617      2.00000
     47       1.2304      2.00000
     48       1.7384      2.00000
     49       1.9168      2.00000
     50       2.2400      2.00000
     51       2.3958      2.00000
     52       3.0371      2.00000
     53       3.2599      2.00000
     54       3.4512      2.00000
     55       4.3271      0.00000
     56       5.1117      0.00000
     57       6.5458      0.00000
     58       6.8297      0.00000
     59       7.4299      0.00000
     60       7.6383      0.00000
     61       8.2953      0.00000
     62       8.4559      0.00000
     63       8.5777      0.00000
     64       9.2703      0.00000
     65       9.4585      0.00000
     66       9.6424      0.00000
     67       9.7687      0.00000
     68      10.1517      0.00000
     69      10.6697      0.00000
     70      11.0541      0.00000
     71      11.2477      0.00000
     72      11.5704      0.00000
     73      11.9170      0.00000
     74      12.2682      0.00000
     75      12.7269      0.00000
     76      12.8062      0.00000
     77      12.9869      0.00000
     78      13.1425      0.00000
     79      13.4386      0.00000
     80      13.7221      0.00000
     81      13.8554      0.00000
     82      14.1923      0.00000
     83      14.5297      0.00000
     84      14.6920      0.00000
     85      14.8988      0.00000
     86      15.1052      0.00000
     87      15.2578      0.00000
     88      15.4207      0.00000
     89      16.4817      0.00000
     90      16.5310      0.00000
     91      16.8261      0.00000
     92      16.9129      0.00000
     93      17.0718      0.00000
     94      17.3085      0.00000
     95      17.5768      0.00000
     96      17.7815      0.00000
     97      18.1826      0.00000
     98      18.4751      0.00000
     99      18.6929      0.00000
    100      18.8441      0.00000
    101      19.3211      0.00000
    102      19.6490      0.00000
    103      19.7032      0.00000
    104      20.0033      0.00000
    105      20.2485      0.00000
    106      20.4899      0.00000
    107      20.7233      0.00000
    108      21.1070      0.00000
    109      21.2445      0.00000
    110      21.5333      0.00000
    111      21.5959      0.00000
    112      21.9045      0.00000
    113      22.0791      0.00000
    114      22.3905      0.00000
    115      22.5370      0.00000
    116      22.8888      0.00000
    117      23.0986      0.00000
    118      23.1514      0.00000
    119      23.2388      0.00000
    120      24.1175      0.00000
    121      24.5791      0.00000
    122      24.8334      0.00000
    123      25.0500      0.00000
    124      25.2175      0.00000
    125      25.6879      0.00000
    126      25.7912      0.00000
    127      26.2150      0.00000
    128      26.3674      0.00000
    129      26.6324      0.00000
    130      26.7440      0.00000
    131      26.7998      0.00000
    132      26.9618      0.00000
    133      27.0917      0.00000
    134      27.3311      0.00000
    135      27.4748      0.00000
    136      27.7180      0.00000
    137      27.8945      0.00000
    138      28.0863      0.00000
    139      28.3158      0.00000
    140      28.4202      0.00000

 k-point    95 :       0.0735   -0.0000   -0.0000
  band No.  band energies     occupation 
      1     -25.4581      2.00000
      2     -25.4530      2.00000
      3     -25.4434      2.00000
      4     -25.4428      2.00000
      5     -25.4136      2.00000
      6     -25.4132      2.00000
      7     -25.3911      2.00000
      8     -25.3904      2.00000
      9     -25.3857      2.00000
     10     -25.3849      2.00000
     11     -12.8570      2.00000
     12     -11.5498      2.00000
     13     -11.3902      2.00000
     14     -11.1466      2.00000
     15     -10.8536      2.00000
     16     -10.8244      2.00000
     17      -6.4586      2.00000
     18      -5.5647      2.00000
     19      -2.8884      2.00000
     20      -2.3349      2.00000
     21      -2.2300      2.00000
     22      -2.1000      2.00000
     23      -1.7700      2.00000
     24      -1.3731      2.00000
     25      -1.2634      2.00000
     26      -0.9718      2.00000
     27      -0.7547      2.00000
     28      -0.6751      2.00000
     29      -0.6575      2.00000
     30      -0.6412      2.00000
     31      -0.5974      2.00000
     32      -0.5473      2.00000
     33      -0.4236      2.00000
     34      -0.4138      2.00000
     35       0.5264      2.00000
     36       0.5607      2.00000
     37       0.5865      2.00000
     38       0.6160      2.00000
     39       0.6337      2.00000
     40       0.6465      2.00000
     41       0.6810      2.00000
     42       0.7028      2.00000
     43       0.7467      2.00000
     44       0.9224      2.00000
     45       1.1059      2.00000
     46       1.1483      2.00000
     47       1.2284      2.00000
     48       1.7479      2.00000
     49       1.9227      2.00000
     50       2.2644      2.00000
     51       2.4137      2.00000
     52       3.1055      2.00000
     53       3.2744      2.00000
     54       3.4581      2.00000
     55       4.2663      0.00000
     56       5.0778      0.00000
     57       6.5165      0.00000
     58       6.8133      0.00000
     59       7.4277      0.00000
     60       7.6281      0.00000
     61       8.3056      0.00000
     62       8.4514      0.00000
     63       8.5819      0.00000
     64       9.2617      0.00000
     65       9.4761      0.00000
     66       9.6401      0.00000
     67       9.7600      0.00000
     68      10.1446      0.00000
     69      10.6768      0.00000
     70      11.1155      0.00000
     71      11.2739      0.00000
     72      11.6126      0.00000
     73      11.9687      0.00000
     74      12.3062      0.00000
     75      12.7196      0.00000
     76      12.8094      0.00000
     77      13.0053      0.00000
     78      13.1245      0.00000
     79      13.4253      0.00000
     80      13.6832      0.00000
     81      13.8004      0.00000
     82      14.1312      0.00000
     83      14.4813      0.00000
     84      14.7039      0.00000
     85      14.8857      0.00000
     86      15.1100      0.00000
     87      15.2359      0.00000
     88      15.3933      0.00000
     89      16.5357      0.00000
     90      16.5817      0.00000
     91      16.8295      0.00000
     92      16.9002      0.00000
     93      17.0492      0.00000
     94      17.3102      0.00000
     95      17.5136      0.00000
     96      17.8239      0.00000
     97      18.1140      0.00000
     98      18.4648      0.00000
     99      18.6279      0.00000
    100      18.8600      0.00000
    101      19.2478      0.00000
    102      19.5832      0.00000
    103      19.7799      0.00000
    104      20.0410      0.00000
    105      20.2151      0.00000
    106      20.5342      0.00000
    107      20.7622      0.00000
    108      21.1231      0.00000
    109      21.3177      0.00000
    110      21.5329      0.00000
    111      21.6690      0.00000
    112      21.8937      0.00000
    113      22.1272      0.00000
    114      22.3979      0.00000
    115      22.6122      0.00000
    116      22.9039      0.00000
    117      23.0813      0.00000
    118      23.1299      0.00000
    119      23.2205      0.00000
    120      24.0754      0.00000
    121      24.4534      0.00000
    122      24.7712      0.00000
    123      24.9882      0.00000
    124      25.1716      0.00000
    125      25.6900      0.00000
    126      25.7686      0.00000
    127      26.2302      0.00000
    128      26.3834      0.00000
    129      26.7335      0.00000
    130      26.8022      0.00000
    131      26.8762      0.00000
    132      27.0057      0.00000
    133      27.1592      0.00000
    134      27.3670      0.00000
    135      27.4972      0.00000
    136      27.7198      0.00000
    137      27.9022      0.00000
    138      28.1182      0.00000
    139      28.2780      0.00000
    140      28.3835      0.00000

 k-point    96 :       0.0588   -0.0000   -0.0000
  band No.  band energies     occupation 
      1     -25.4582      2.00000
      2     -25.4532      2.00000
      3     -25.4435      2.00000
      4     -25.4429      2.00000
      5     -25.4137      2.00000
      6     -25.4133      2.00000
      7     -25.3912      2.00000
      8     -25.3905      2.00000
      9     -25.3858      2.00000
     10     -25.3851      2.00000
     11     -12.8611      2.00000
     12     -11.5516      2.00000
     13     -11.3870      2.00000
     14     -11.1451      2.00000
     15     -10.8483      2.00000
     16     -10.8246      2.00000
     17      -6.4602      2.00000
     18      -5.5710      2.00000
     19      -2.8920      2.00000
     20      -2.3300      2.00000
     21      -2.2320      2.00000
     22      -2.1078      2.00000
     23      -1.7721      2.00000
     24      -1.3786      2.00000
     25      -1.2821      2.00000
     26      -0.9690      2.00000
     27      -0.7509      2.00000
     28      -0.6694      2.00000
     29      -0.6583      2.00000
     30      -0.6387      2.00000
     31      -0.5991      2.00000
     32      -0.5462      2.00000
     33      -0.4210      2.00000
     34      -0.4140      2.00000
     35       0.5270      2.00000
     36       0.5616      2.00000
     37       0.5886      2.00000
     38       0.6194      2.00000
     39       0.6343      2.00000
     40       0.6508      2.00000
     41       0.6845      2.00000
     42       0.7000      2.00000
     43       0.7401      2.00000
     44       0.9175      2.00000
     45       1.0994      2.00000
     46       1.1364      2.00000
     47       1.2269      2.00000
     48       1.7560      2.00000
     49       1.9271      2.00000
     50       2.2840      2.00000
     51       2.4306      2.00000
     52       3.1696      2.00000
     53       3.2862      2.00000
     54       3.4636      2.00000
     55       4.2088      0.00000
     56       5.0488      0.00000
     57       6.4918      0.00000
     58       6.7993      0.00000
     59       7.4255      0.00000
     60       7.6200      0.00000
     61       8.3146      0.00000
     62       8.4476      0.00000
     63       8.5841      0.00000
     64       9.2524      0.00000
     65       9.4967      0.00000
     66       9.6396      0.00000
     67       9.7514      0.00000
     68      10.1357      0.00000
     69      10.6819      0.00000
     70      11.1679      0.00000
     71      11.2982      0.00000
     72      11.6433      0.00000
     73      12.0338      0.00000
     74      12.3379      0.00000
     75      12.7121      0.00000
     76      12.8059      0.00000
     77      13.0126      0.00000
     78      13.1087      0.00000
     79      13.4349      0.00000
     80      13.6388      0.00000
     81      13.7531      0.00000
     82      14.0671      0.00000
     83      14.4360      0.00000
     84      14.7017      0.00000
     85      14.8870      0.00000
     86      15.0834      0.00000
     87      15.2332      0.00000
     88      15.3973      0.00000
     89      16.5900      0.00000
     90      16.6306      0.00000
     91      16.8278      0.00000
     92      16.8890      0.00000
     93      17.0240      0.00000
     94      17.3119      0.00000
     95      17.4673      0.00000
     96      17.8655      0.00000
     97      18.0375      0.00000
     98      18.4703      0.00000
     99      18.5675      0.00000
    100      18.8874      0.00000
    101      19.1633      0.00000
    102      19.5118      0.00000
    103      19.8494      0.00000
    104      20.0718      0.00000
    105      20.1987      0.00000
    106      20.5805      0.00000
    107      20.7887      0.00000
    108      21.1277      0.00000
    109      21.3915      0.00000
    110      21.5001      0.00000
    111      21.7532      0.00000
    112      21.9179      0.00000
    113      22.1584      0.00000
    114      22.3978      0.00000
    115      22.6855      0.00000
    116      22.9082      0.00000
    117      23.0692      0.00000
    118      23.1160      0.00000
    119      23.2205      0.00000
    120      24.0384      0.00000
    121      24.3310      0.00000
    122      24.7026      0.00000
    123      24.8839      0.00000
    124      25.1711      0.00000
    125      25.6862      0.00000
    126      25.7448      0.00000
    127      26.2388      0.00000
    128      26.3782      0.00000
    129      26.8388      0.00000
    130      26.8714      0.00000
    131      26.9639      0.00000
    132      27.0599      0.00000
    133      27.2292      0.00000
    134      27.4052      0.00000
    135      27.5174      0.00000
    136      27.7257      0.00000
    137      27.8887      0.00000
    138      28.1475      0.00000
    139      28.2219      0.00000
    140      28.3623      0.00000

 k-point    97 :       0.0441   -0.0000   -0.0000
  band No.  band energies     occupation 
      1     -25.4584      2.00000
      2     -25.4533      2.00000
      3     -25.4437      2.00000
      4     -25.4430      2.00000
      5     -25.4138      2.00000
      6     -25.4134      2.00000
      7     -25.3914      2.00000
      8     -25.3906      2.00000
      9     -25.3860      2.00000
     10     -25.3852      2.00000
     11     -12.8642      2.00000
     12     -11.5530      2.00000
     13     -11.3845      2.00000
     14     -11.1439      2.00000
     15     -10.8435      2.00000
     16     -10.8253      2.00000
     17      -6.4615      2.00000
     18      -5.5760      2.00000
     19      -2.8948      2.00000
     20      -2.3260      2.00000
     21      -2.2339      2.00000
     22      -2.1139      2.00000
     23      -1.7730      2.00000
     24      -1.3818      2.00000
     25      -1.2986      2.00000
     26      -0.9668      2.00000
     27      -0.7478      2.00000
     28      -0.6650      2.00000
     29      -0.6590      2.00000
     30      -0.6367      2.00000
     31      -0.6005      2.00000
     32      -0.5452      2.00000
     33      -0.4189      2.00000
     34      -0.4142      2.00000
     35       0.5273      2.00000
     36       0.5624      2.00000
     37       0.5905      2.00000
     38       0.6218      2.00000
     39       0.6347      2.00000
     40       0.6549      2.00000
     41       0.6879      2.00000
     42       0.6973      2.00000
     43       0.7347      2.00000
     44       0.9134      2.00000
     45       1.0949      2.00000
     46       1.1263      2.00000
     47       1.2258      2.00000
     48       1.7626      2.00000
     49       1.9301      2.00000
     50       2.2987      2.00000
     51       2.4454      2.00000
     52       3.2264      2.00000
     53       3.2954      2.00000
     54       3.4677      2.00000
     55       4.1575      0.00000
     56       5.0255      0.00000
     57       6.4721      0.00000
     58       6.7882      0.00000
     59       7.4235      0.00000
     60       7.6138      0.00000
     61       8.3221      0.00000
     62       8.4446      0.00000
     63       8.5849      0.00000
     64       9.2439      0.00000
     65       9.5168      0.00000
     66       9.6405      0.00000
     67       9.7434      0.00000
     68      10.1264      0.00000
     69      10.6854      0.00000
     70      11.2089      0.00000
     71      11.3198      0.00000
     72      11.6645      0.00000
     73      12.1059      0.00000
     74      12.3625      0.00000
     75      12.7069      0.00000
     76      12.7937      0.00000
     77      12.9916      0.00000
     78      13.1157      0.00000
     79      13.4633      0.00000
     80      13.5940      0.00000
     81      13.7134      0.00000
     82      14.0025      0.00000
     83      14.3984      0.00000
     84      14.6948      0.00000
     85      14.8868      0.00000
     86      15.0482      0.00000
     87      15.2434      0.00000
     88      15.4164      0.00000
     89      16.6398      0.00000
     90      16.6744      0.00000
     91      16.8235      0.00000
     92      16.8760      0.00000
     93      16.9992      0.00000
     94      17.3135      0.00000
     95      17.4428      0.00000
     96      17.8867      0.00000
     97      17.9741      0.00000
     98      18.4676      0.00000
     99      18.5435      0.00000
    100      18.9141      0.00000
    101      19.0780      0.00000
    102      19.4454      0.00000
    103      19.8914      0.00000
    104      20.1032      0.00000
    105      20.2034      0.00000
    106      20.6253      0.00000
    107      20.8044      0.00000
    108      21.1084      0.00000
    109      21.4059      0.00000
    110      21.5392      0.00000
    111      21.8170      0.00000
    112      21.9578      0.00000
    113      22.1741      0.00000
    114      22.3954      0.00000
    115      22.7437      0.00000
    116      22.9148      0.00000
    117      23.0508      0.00000
    118      23.1069      0.00000
    119      23.2428      0.00000
    120      24.0094      0.00000
    121      24.2193      0.00000
    122      24.6366      0.00000
    123      24.7797      0.00000
    124      25.1796      0.00000
    125      25.6811      0.00000
    126      25.7224      0.00000
    127      26.2450      0.00000
    128      26.3656      0.00000
    129      26.9251      0.00000
    130      26.9448      0.00000
    131      27.0497      0.00000
    132      27.1248      0.00000
    133      27.2958      0.00000
    134      27.4385      0.00000
    135      27.5362      0.00000
    136      27.7363      0.00000
    137      27.8626      0.00000
    138      28.1157      0.00000
    139      28.2044      0.00000
    140      28.3958      0.00000

 k-point    98 :       0.0294    0.0000   -0.0000
  band No.  band energies     occupation 
      1     -25.4584      2.00000
      2     -25.4534      2.00000
      3     -25.4437      2.00000
      4     -25.4431      2.00000
      5     -25.4139      2.00000
      6     -25.4135      2.00000
      7     -25.3914      2.00000
      8     -25.3907      2.00000
      9     -25.3860      2.00000
     10     -25.3853      2.00000
     11     -12.8665      2.00000
     12     -11.5540      2.00000
     13     -11.3828      2.00000
     14     -11.1430      2.00000
     15     -10.8393      2.00000
     16     -10.8265      2.00000
     17      -6.4624      2.00000
     18      -5.5796      2.00000
     19      -2.8968      2.00000
     20      -2.3230      2.00000
     21      -2.2353      2.00000
     22      -2.1184      2.00000
     23      -1.7733      2.00000
     24      -1.3831      2.00000
     25      -1.3119      2.00000
     26      -0.9651      2.00000
     27      -0.7455      2.00000
     28      -0.6620      2.00000
     29      -0.6595      2.00000
     30      -0.6353      2.00000
     31      -0.6017      2.00000
     32      -0.5444      2.00000
     33      -0.4172      2.00000
     34      -0.4144      2.00000
     35       0.5276      2.00000
     36       0.5629      2.00000
     37       0.5920      2.00000
     38       0.6234      2.00000
     39       0.6350      2.00000
     40       0.6582      2.00000
     41       0.6907      2.00000
     42       0.6954      2.00000
     43       0.7304      2.00000
     44       0.9103      2.00000
     45       1.0921      2.00000
     46       1.1185      2.00000
     47       1.2250      2.00000
     48       1.7675      2.00000
     49       1.9322      2.00000
     50       2.3088      2.00000
     51       2.4570      2.00000
     52       3.2718      2.00000
     53       3.3026      2.00000
     54       3.4702      2.00000
     55       4.1159      0.00000
     56       5.0084      0.00000
     57       6.4577      0.00000
     58       6.7800      0.00000
     59       7.4220      0.00000
     60       7.6095      0.00000
     61       8.3277      0.00000
     62       8.4424      0.00000
     63       8.5848      0.00000
     64       9.2373      0.00000
     65       9.5335      0.00000
     66       9.6423      0.00000
     67       9.7365      0.00000
     68      10.1181      0.00000
     69      10.6876      0.00000
     70      11.2374      0.00000
     71      11.3374      0.00000
     72      11.6786      0.00000
     73      12.1754      0.00000
     74      12.3796      0.00000
     75      12.7051      0.00000
     76      12.7716      0.00000
     77      12.9612      0.00000
     78      13.1352      0.00000
     79      13.4975      0.00000
     80      13.5611      0.00000
     81      13.6795      0.00000
     82      13.9429      0.00000
     83      14.3709      0.00000
     84      14.6910      0.00000
     85      14.8738      0.00000
     86      15.0280      0.00000
     87      15.2541      0.00000
     88      15.4386      0.00000
     89      16.6807      0.00000
     90      16.7102      0.00000
     91      16.8201      0.00000
     92      16.8583      0.00000
     93      16.9799      0.00000
     94      17.3147      0.00000
     95      17.4372      0.00000
     96      17.8574      0.00000
     97      17.9588      0.00000
     98      18.4371      0.00000
     99      18.5796      0.00000
    100      18.9099      0.00000
    101      19.0210      0.00000
    102      19.3898      0.00000
    103      19.9026      0.00000
    104      20.1389      0.00000
    105      20.2215      0.00000
    106      20.6700      0.00000
    107      20.8108      0.00000
    108      21.0589      0.00000
    109      21.4000      0.00000
    110      21.6259      0.00000
    111      21.8466      0.00000
    112      21.9941      0.00000
    113      22.1837      0.00000
    114      22.3942      0.00000
    115      22.7749      0.00000
    116      22.9386      0.00000
    117      23.0256      0.00000
    118      23.0990      0.00000
    119      23.2764      0.00000
    120      23.9919      0.00000
    121      24.1255      0.00000
    122      24.5818      0.00000
    123      24.6924      0.00000
    124      25.1876      0.00000
    125      25.6775      0.00000
    126      25.7035      0.00000
    127      26.2498      0.00000
    128      26.3532      0.00000
    129      26.9807      0.00000
    130      27.0072      0.00000
    131      27.1329      0.00000
    132      27.1912      0.00000
    133      27.3529      0.00000
    134      27.4515      0.00000
    135      27.5644      0.00000
    136      27.7455      0.00000
    137      27.8337      0.00000
    138      28.0388      0.00000
    139      28.2204      0.00000
    140      28.3752      0.00000

 k-point    99 :       0.0147   -0.0000   -0.0000
  band No.  band energies     occupation 
      1     -25.4585      2.00000
      2     -25.4534      2.00000
      3     -25.4438      2.00000
      4     -25.4432      2.00000
      5     -25.4140      2.00000
      6     -25.4136      2.00000
      7     -25.3915      2.00000
      8     -25.3908      2.00000
      9     -25.3861      2.00000
     10     -25.3853      2.00000
     11     -12.8679      2.00000
     12     -11.5546      2.00000
     13     -11.3817      2.00000
     14     -11.1425      2.00000
     15     -10.8360      2.00000
     16     -10.8281      2.00000
     17      -6.4630      2.00000
     18      -5.5818      2.00000
     19      -2.8980      2.00000
     20      -2.3212      2.00000
     21      -2.2362      2.00000
     22      -2.1211      2.00000
     23      -1.7732      2.00000
     24      -1.3832      2.00000
     25      -1.3208      2.00000
     26      -0.9642      2.00000
     27      -0.7441      2.00000
     28      -0.6606      2.00000
     29      -0.6594      2.00000
     30      -0.6344      2.00000
     31      -0.6024      2.00000
     32      -0.5440      2.00000
     33      -0.4160      2.00000
     34      -0.4147      2.00000
     35       0.5277      2.00000
     36       0.5632      2.00000
     37       0.5930      2.00000
     38       0.6243      2.00000
     39       0.6352      2.00000
     40       0.6604      2.00000
     41       0.6913      2.00000
     42       0.6956      2.00000
     43       0.7275      2.00000
     44       0.9084      2.00000
     45       1.0908      2.00000
     46       1.1134      2.00000
     47       1.2245      2.00000
     48       1.7705      2.00000
     49       1.9334      2.00000
     50       2.3147      2.00000
     51       2.4644      2.00000
     52       3.2981      2.00000
     53       3.3109      2.00000
     54       3.4712      2.00000
     55       4.0884      0.00000
     56       4.9979      0.00000
     57       6.4489      0.00000
     58       6.7751      0.00000
     59       7.4210      0.00000
     60       7.6070      0.00000
     61       8.3313      0.00000
     62       8.4411      0.00000
     63       8.5846      0.00000
     64       9.2331      0.00000
     65       9.5444      0.00000
     66       9.6443      0.00000
     67       9.7316      0.00000
     68      10.1123      0.00000
     69      10.6888      0.00000
     70      11.2539      0.00000
     71      11.3490      0.00000
     72      11.6869      0.00000
     73      12.2288      0.00000
     74      12.3891      0.00000
     75      12.7070      0.00000
     76      12.7447      0.00000
     77      12.9412      0.00000
     78      13.1513      0.00000
     79      13.5056      0.00000
     80      13.5690      0.00000
     81      13.6497      0.00000
     82      13.8975      0.00000
     83      14.3543      0.00000
     84      14.6913      0.00000
     85      14.8551      0.00000
     86      15.0222      0.00000
     87      15.2611      0.00000
     88      15.4553      0.00000
     89      16.7081      0.00000
     90      16.7354      0.00000
     91      16.8189      0.00000
     92      16.8392      0.00000
     93      16.9689      0.00000
     94      17.3153      0.00000
     95      17.4418      0.00000
     96      17.8155      0.00000
     97      17.9645      0.00000
     98      18.4120      0.00000
     99      18.6395      0.00000
    100      18.8480      0.00000
    101      19.0198      0.00000
    102      19.3514      0.00000
    103      19.8999      0.00000
    104      20.1648      0.00000
    105      20.2420      0.00000
    106      20.7181      0.00000
    107      20.8029      0.00000
    108      21.0038      0.00000
    109      21.4037      0.00000
    110      21.7126      0.00000
    111      21.8350      0.00000
    112      22.0167      0.00000
    113      22.1929      0.00000
    114      22.3949      0.00000
    115      22.7871      0.00000
    116      22.9651      0.00000
    117      23.0021      0.00000
    118      23.0964      0.00000
    119      23.3034      0.00000
    120      23.9901      0.00000
    121      24.0554      0.00000
    122      24.5459      0.00000
    123      24.6335      0.00000
    124      25.1929      0.00000
    125      25.6770      0.00000
    126      25.6895      0.00000
    127      26.2531      0.00000
    128      26.3447      0.00000
    129      27.0110      0.00000
    130      27.0464      0.00000
    131      27.2026      0.00000
    132      27.2427      0.00000
    133      27.3905      0.00000
    134      27.4447      0.00000
    135      27.5997      0.00000
    136      27.7440      0.00000
    137      27.8145      0.00000
    138      27.9738      0.00000
    139      28.2474      0.00000
    140      28.4060      0.00000

 k-point   100 :       0.0000    0.0000    0.0000
  band No.  band energies     occupation 
      1     -25.4538      2.00000
      2     -25.4487      2.00000
      3     -25.4391      2.00000
      4     -25.4384      2.00000
      5     -25.4092      2.00000
      6     -25.4088      2.00000
      7     -25.3868      2.00000
      8     -25.3860      2.00000
      9     -25.3814      2.00000
     10     -25.3806      2.00000
     11     -12.8636      2.00000
     12     -11.5500      2.00000
     13     -11.3766      2.00000
     14     -11.1376      2.00000
     15     -10.8297      2.00000
     16     -10.8243      2.00000
     17      -6.4584      2.00000
     18      -5.5777      2.00000
     19      -2.8937      2.00000
     20      -2.3159      2.00000
     21      -2.2317      2.00000
     22      -2.1173      2.00000
     23      -1.7685      2.00000
     24      -1.3783      2.00000
     25      -1.3193      2.00000
     26      -0.9591      2.00000
     27      -0.7388      2.00000
     28      -0.6558      2.00000
     29      -0.6542      2.00000
     30      -0.6294      2.00000
     31      -0.5979      2.00000
     32      -0.5391      2.00000
     33      -0.4106      2.00000
     34      -0.4103      2.00000
     35       0.5325      2.00000
     36       0.5680      2.00000
     37       0.5981      2.00000
     38       0.6293      2.00000
     39       0.6400      2.00000
     40       0.6659      2.00000
     41       0.6958      2.00000
     42       0.7010      2.00000
     43       0.7312      2.00000
     44       0.9125      2.00000
     45       1.0951      2.00000
     46       1.1164      2.00000
     47       1.2291      2.00000
     48       1.7763      2.00000
     49       1.9385      2.00000
     50       2.3214      2.00000
     51       2.4717      2.00000
     52       3.3076      2.00000
     53       3.3230      2.00000
     54       3.4762      2.00000
     55       4.0787      0.00000
     56       4.9944      0.00000
     57       6.4460      0.00000
     58       6.7734      0.00000
     59       7.4207      0.00000
     60       7.6062      0.00000
     61       8.3325      0.00000
     62       8.4406      0.00000
     63       8.5845      0.00000
     64       9.2317      0.00000
     65       9.5482      0.00000
     66       9.6451      0.00000
     67       9.7298      0.00000
     68      10.1102      0.00000
     69      10.6892      0.00000
     70      11.2592      0.00000
     71      11.3531      0.00000
     72      11.6897      0.00000
     73      12.2497      0.00000
     74      12.3919      0.00000
     75      12.7105      0.00000
     76      12.7299      0.00000
     77      12.9348      0.00000
     78      13.1573      0.00000
     79      13.5005      0.00000
     80      13.5906      0.00000
     81      13.6305      0.00000
     82      13.8798      0.00000
     83      14.3487      0.00000
     84      14.6924      0.00000
     85      14.8465      0.00000
     86      15.0216      0.00000
     87      15.2635      0.00000
     88      15.4615      0.00000
     89      16.7178      0.00000
     90      16.7455      0.00000
     91      16.8187      0.00000
     92      16.8301      0.00000
     93      16.9654      0.00000
     94      17.3155      0.00000
     95      17.4454      0.00000
     96      17.7985      0.00000
     97      17.9671      0.00000
     98      18.4031      0.00000
     99      18.6813      0.00000
    100      18.8012      0.00000
    101      19.0257      0.00000
    102      19.3373      0.00000
    103      19.8976      0.00000
    104      20.1734      0.00000
    105      20.2511      0.00000
    106      20.7571      0.00000
    107      20.7802      0.00000
    108      20.9797      0.00000
    109      21.4065      0.00000
    110      21.7840      0.00000
    111      21.7885      0.00000
    112      22.0243      0.00000
    113      22.1972      0.00000
    114      22.3957      0.00000
    115      22.7906      0.00000
    116      22.9739      0.00000
    117      22.9939      0.00000
    118      23.0966      0.00000
    119      23.3134      0.00000
    120      24.0038      0.00000
    121      24.0169      0.00000
    122      24.5336      0.00000
    123      24.6124      0.00000
    124      25.1947      0.00000
    125      25.6807      0.00000
    126      25.6808      0.00000
    127      26.2544      0.00000
    128      26.3416      0.00000
    129      27.0205      0.00000
    130      27.0599      0.00000
    131      27.2301      0.00000
    132      27.2660      0.00000
    133      27.3961      0.00000
    134      27.4436      0.00000
    135      27.6173      0.00000
    136      27.7386      0.00000
    137      27.8095      0.00000
    138      27.9475      0.00000
    139      28.2643      0.00000
    140      28.3846      0.00000

 k-point   101 :       0.0000    0.0000    0.0167
  band No.  band energies     occupation 
      1     -25.4585      2.00000
      2     -25.4534      2.00000
      3     -25.4438      2.00000
      4     -25.4432      2.00000
      5     -25.4140      2.00000
      6     -25.4136      2.00000
      7     -25.3915      2.00000
      8     -25.3908      2.00000
      9     -25.3861      2.00000
     10     -25.3853      2.00000
     11     -12.8677      2.00000
     12     -11.5575      2.00000
     13     -11.3796      2.00000
     14     -11.1423      2.00000
     15     -10.8344      2.00000
     16     -10.8291      2.00000
     17      -6.4622      2.00000
     18      -5.5828      2.00000
     19      -2.8973      2.00000
     20      -2.3276      2.00000
     21      -2.2284      2.00000
     22      -2.1223      2.00000
     23      -1.7721      2.00000
     24      -1.3838      2.00000
     25      -1.3255      2.00000
     26      -0.9642      2.00000
     27      -0.7437      2.00000
     28      -0.6603      2.00000
     29      -0.6590      2.00000
     30      -0.6341      2.00000
     31      -0.6035      2.00000
     32      -0.5434      2.00000
     33      -0.4154      2.00000
     34      -0.4149      2.00000
     35       0.5278      2.00000
     36       0.5634      2.00000
     37       0.5932      2.00000
     38       0.6243      2.00000
     39       0.6353      2.00000
     40       0.6609      2.00000
     41       0.6900      2.00000
     42       0.6963      2.00000
     43       0.7284      2.00000
     44       0.9078      2.00000
     45       1.0836      2.00000
     46       1.1181      2.00000
     47       1.2242      2.00000
     48       1.7725      2.00000
     49       1.9331      2.00000
     50       2.3175      2.00000
     51       2.4670      2.00000
     52       3.3020      2.00000
     53       3.3166      2.00000
     54       3.4581      2.00000
     55       4.0919      0.00000
     56       4.9950      0.00000
     57       6.4485      0.00000
     58       6.7721      0.00000
     59       7.4180      0.00000
     60       7.6051      0.00000
     61       8.3339      0.00000
     62       8.4446      0.00000
     63       8.5835      0.00000
     64       9.2338      0.00000
     65       9.5406      0.00000
     66       9.6539      0.00000
     67       9.7310      0.00000
     68      10.1152      0.00000
     69      10.6887      0.00000
     70      11.2525      0.00000
     71      11.3532      0.00000
     72      11.6877      0.00000
     73      12.2507      0.00000
     74      12.3832      0.00000
     75      12.7077      0.00000
     76      12.7336      0.00000
     77      12.9350      0.00000
     78      13.1499      0.00000
     79      13.5079      0.00000
     80      13.5846      0.00000
     81      13.6362      0.00000
     82      13.8825      0.00000
     83      14.3528      0.00000
     84      14.6999      0.00000
     85      14.8483      0.00000
     86      15.0209      0.00000
     87      15.2557      0.00000
     88      15.4575      0.00000
     89      16.7026      0.00000
     90      16.7295      0.00000
     91      16.8190      0.00000
     92      16.8385      0.00000
     93      16.9613      0.00000
     94      17.3073      0.00000
     95      17.4144      0.00000
     96      17.8379      0.00000
     97      17.9783      0.00000
     98      18.4156      0.00000
     99      18.6474      0.00000
    100      18.8481      0.00000
    101      19.0387      0.00000
    102      19.3486      0.00000
    103      19.8989      0.00000
    104      20.1659      0.00000
    105      20.2424      0.00000
    106      20.7623      0.00000
    107      20.7663      0.00000
    108      21.0001      0.00000
    109      21.4033      0.00000
    110      21.7832      0.00000
    111      21.7849      0.00000
    112      22.0195      0.00000
    113      22.1983      0.00000
    114      22.3968      0.00000
    115      22.7773      0.00000
    116      22.9720      0.00000
    117      22.9905      0.00000
    118      23.0926      0.00000
    119      23.3024      0.00000
    120      24.0193      0.00000
    121      24.0399      0.00000
    122      24.5405      0.00000
    123      24.6217      0.00000
    124      25.1803      0.00000
    125      25.6748      0.00000
    126      25.6783      0.00000
    127      26.2507      0.00000
    128      26.3412      0.00000
    129      27.0069      0.00000
    130      27.0461      0.00000
    131      27.2179      0.00000
    132      27.2486      0.00000
    133      27.3611      0.00000
    134      27.4074      0.00000
    135      27.6453      0.00000
    136      27.7829      0.00000
    137      27.8163      0.00000
    138      27.9598      0.00000
    139      28.2473      0.00000
    140      28.3798      0.00000

 k-point   102 :       0.0000    0.0000    0.0333
  band No.  band energies     occupation 
      1     -25.4584      2.00000
      2     -25.4534      2.00000
      3     -25.4437      2.00000
      4     -25.4431      2.00000
      5     -25.4139      2.00000
      6     -25.4135      2.00000
      7     -25.3914      2.00000
      8     -25.3907      2.00000
      9     -25.3860      2.00000
     10     -25.3853      2.00000
     11     -12.8658      2.00000
     12     -11.5652      2.00000
     13     -11.3746      2.00000
     14     -11.1424      2.00000
     15     -10.8344      2.00000
     16     -10.8291      2.00000
     17      -6.4592      2.00000
     18      -5.5839      2.00000
     19      -2.8941      2.00000
     20      -2.3436      2.00000
     21      -2.2092      2.00000
     22      -2.1230      2.00000
     23      -1.7689      2.00000
     24      -1.3859      2.00000
     25      -1.3297      2.00000
     26      -0.9652      2.00000
     27      -0.7441      2.00000
     28      -0.6595      2.00000
     29      -0.6590      2.00000
     30      -0.6339      2.00000
     31      -0.6057      2.00000
     32      -0.5424      2.00000
     33      -0.4154      2.00000
     34      -0.4145      2.00000
     35       0.5278      2.00000
     36       0.5637      2.00000
     37       0.5928      2.00000
     38       0.6238      2.00000
     39       0.6355      2.00000
     40       0.6604      2.00000
     41       0.6875      2.00000
     42       0.6965      2.00000
     43       0.7335      2.00000
     44       0.9079      2.00000
     45       1.0713      2.00000
     46       1.1295      2.00000
     47       1.2239      2.00000
     48       1.7756      2.00000
     49       1.9310      2.00000
     50       2.3201      2.00000
     51       2.4673      2.00000
     52       3.2993      2.00000
     53       3.3107      2.00000
     54       3.4222      2.00000
     55       4.1284      0.00000
     56       4.9969      0.00000
     57       6.4559      0.00000
     58       6.7680      0.00000
     59       7.4101      0.00000
     60       7.6024      0.00000
     61       8.3381      0.00000
     62       8.4562      0.00000
     63       8.5807      0.00000
     64       9.2400      0.00000
     65       9.5238      0.00000
     66       9.6736      0.00000
     67       9.7344      0.00000
     68      10.1302      0.00000
     69      10.6874      0.00000
     70      11.2323      0.00000
     71      11.3533      0.00000
     72      11.6828      0.00000
     73      12.2532      0.00000
     74      12.3575      0.00000
     75      12.7000      0.00000
     76      12.7443      0.00000
     77      12.9355      0.00000
     78      13.1314      0.00000
     79      13.5237      0.00000
     80      13.5683      0.00000
     81      13.6551      0.00000
     82      13.8893      0.00000
     83      14.3650      0.00000
     84      14.7223      0.00000
     85      14.8485      0.00000
     86      15.0245      0.00000
     87      15.2328      0.00000
     88      15.4458      0.00000
     89      16.6587      0.00000
     90      16.6868      0.00000
     91      16.8085      0.00000
     92      16.8635      0.00000
     93      16.9542      0.00000
     94      17.2820      0.00000
     95      17.3518      0.00000
     96      17.9273      0.00000
     97      18.0099      0.00000
     98      18.4529      0.00000
     99      18.6030      0.00000
    100      18.9317      0.00000
    101      19.0770      0.00000
    102      19.3821      0.00000
    103      19.9005      0.00000
    104      20.1459      0.00000
    105      20.2221      0.00000
    106      20.7174      0.00000
    107      20.7892      0.00000
    108      21.0513      0.00000
    109      21.3943      0.00000
    110      21.7747      0.00000
    111      21.7808      0.00000
    112      22.0064      0.00000
    113      22.2015      0.00000
    114      22.3999      0.00000
    115      22.7440      0.00000
    116      22.9513      0.00000
    117      22.9776      0.00000
    118      23.0947      0.00000
    119      23.2758      0.00000
    120      24.0622      0.00000
    121      24.1032      0.00000
    122      24.5603      0.00000
    123      24.6451      0.00000
    124      25.1410      0.00000
    125      25.6598      0.00000
    126      25.6715      0.00000
    127      26.2386      0.00000
    128      26.3380      0.00000
    129      26.9399      0.00000
    130      26.9972      0.00000
    131      27.1769      0.00000
    132      27.2157      0.00000
    133      27.3394      0.00000
    134      27.3529      0.00000
    135      27.6720      0.00000
    136      27.7995      0.00000
    137      27.8894      0.00000
    138      27.9975      0.00000
    139      28.1910      0.00000
    140      28.3605      0.00000

 k-point   103 :       0.0000    0.0000    0.0500
  band No.  band energies     occupation 
      1     -25.4584      2.00000
      2     -25.4533      2.00000
      3     -25.4437      2.00000
      4     -25.4431      2.00000
      5     -25.4138      2.00000
      6     -25.4135      2.00000
      7     -25.3914      2.00000
      8     -25.3907      2.00000
      9     -25.3860      2.00000
     10     -25.3852      2.00000
     11     -12.8626      2.00000
     12     -11.5772      2.00000
     13     -11.3672      2.00000
     14     -11.1425      2.00000
     15     -10.8343      2.00000
     16     -10.8290      2.00000
     17      -6.4542      2.00000
     18      -5.5858      2.00000
     19      -2.8886      2.00000
     20      -2.3626      2.00000
     21      -2.1851      2.00000
     22      -2.1242      2.00000
     23      -1.7635      2.00000
     24      -1.3893      2.00000
     25      -1.3367      2.00000
     26      -0.9671      2.00000
     27      -0.7450      2.00000
     28      -0.6591      2.00000
     29      -0.6585      2.00000
     30      -0.6334      2.00000
     31      -0.6091      2.00000
     32      -0.5408      2.00000
     33      -0.4155      2.00000
     34      -0.4140      2.00000
     35       0.5279      2.00000
     36       0.5642      2.00000
     37       0.5922      2.00000
     38       0.6229      2.00000
     39       0.6359      2.00000
     40       0.6594      2.00000
     41       0.6847      2.00000
     42       0.6969      2.00000
     43       0.7407      2.00000
     44       0.9081      2.00000
     45       1.0579      2.00000
     46       1.1412      2.00000
     47       1.2233      2.00000
     48       1.7806      2.00000
     49       1.9277      2.00000
     50       2.3244      2.00000
     51       2.4678      2.00000
     52       3.2950      2.00000
     53       3.2953      2.00000
     54       3.3761      2.00000
     55       4.1808      0.00000
     56       4.9998      0.00000
     57       6.4680      0.00000
     58       6.7613      0.00000
     59       7.3973      0.00000
     60       7.5987      0.00000
     61       8.3448      0.00000
     62       8.4749      0.00000
     63       8.5765      0.00000
     64       9.2503      0.00000
     65       9.5052      0.00000
     66       9.6958      0.00000
     67       9.7400      0.00000
     68      10.1552      0.00000
     69      10.6849      0.00000
     70      11.1991      0.00000
     71      11.3535      0.00000
     72      11.6772      0.00000
     73      12.2562      0.00000
     74      12.3160      0.00000
     75      12.6886      0.00000
     76      12.7604      0.00000
     77      12.9365      0.00000
     78      13.1091      0.00000
     79      13.5375      0.00000
     80      13.5450      0.00000
     81      13.6882      0.00000
     82      13.8971      0.00000
     83      14.3849      0.00000
     84      14.7582      0.00000
     85      14.8348      0.00000
     86      15.0460      0.00000
     87      15.1970      0.00000
     88      15.4277      0.00000
     89      16.5918      0.00000
     90      16.6234      0.00000
     91      16.7719      0.00000
     92      16.9020      0.00000
     93      16.9499      0.00000
     94      17.2400      0.00000
     95      17.2966      0.00000
     96      18.0328      0.00000
     97      18.0561      0.00000
     98      18.5137      0.00000
     99      18.5799      0.00000
    100      19.0194      0.00000
    101      19.1386      0.00000
    102      19.4353      0.00000
    103      19.8956      0.00000
    104      20.1205      0.00000
    105      20.2043      0.00000
    106      20.6551      0.00000
    107      20.8148      0.00000
    108      21.1202      0.00000
    109      21.3818      0.00000
    110      21.7595      0.00000
    111      21.7761      0.00000
    112      21.9883      0.00000
    113      22.2071      0.00000
    114      22.4045      0.00000
    115      22.7004      0.00000
    116      22.9044      0.00000
    117      22.9490      0.00000
    118      23.1134      0.00000
    119      23.2478      0.00000
    120      24.1236      0.00000
    121      24.1947      0.00000
    122      24.5904      0.00000
    123      24.6674      0.00000
    124      25.0919      0.00000
    125      25.6424      0.00000
    126      25.6612      0.00000
    127      26.2140      0.00000
    128      26.3253      0.00000
    129      26.8162      0.00000
    130      26.9031      0.00000
    131      27.1212      0.00000
    132      27.2043      0.00000
    133      27.3264      0.00000
    134      27.3466      0.00000
    135      27.6898      0.00000
    136      27.7566      0.00000
    137      27.9927      0.00000
    138      28.0300      0.00000
    139      28.1237      0.00000
    140      28.3302      0.00000

 k-point   104 :       0.0000    0.0000    0.0667
  band No.  band energies     occupation 
      1     -25.4582      2.00000
      2     -25.4532      2.00000
      3     -25.4436      2.00000
      4     -25.4430      2.00000
      5     -25.4137      2.00000
      6     -25.4134      2.00000
      7     -25.3913      2.00000
      8     -25.3906      2.00000
      9     -25.3859      2.00000
     10     -25.3851      2.00000
     11     -12.8582      2.00000
     12     -11.5927      2.00000
     13     -11.3582      2.00000
     14     -11.1426      2.00000
     15     -10.8342      2.00000
     16     -10.8290      2.00000
     17      -6.4473      2.00000
     18      -5.5883      2.00000
     19      -2.8809      2.00000
     20      -2.3818      2.00000
     21      -2.1586      2.00000
     22      -2.1258      2.00000
     23      -1.7563      2.00000
     24      -1.3938      2.00000
     25      -1.3461      2.00000
     26      -0.9700      2.00000
     27      -0.7465      2.00000
     28      -0.6593      2.00000
     29      -0.6574      2.00000
     30      -0.6320      2.00000
     31      -0.6134      2.00000
     32      -0.5390      2.00000
     33      -0.4156      2.00000
     34      -0.4133      2.00000
     35       0.5280      2.00000
     36       0.5649      2.00000
     37       0.5914      2.00000
     38       0.6216      2.00000
     39       0.6364      2.00000
     40       0.6582      2.00000
     41       0.6823      2.00000
     42       0.6975      2.00000
     43       0.7488      2.00000
     44       0.9085      2.00000
     45       1.0443      2.00000
     46       1.1523      2.00000
     47       1.2225      2.00000
     48       1.7875      2.00000
     49       1.9232      2.00000
     50       2.3304      2.00000
     51       2.4687      2.00000
     52       3.2560      2.00000
     53       3.2889      2.00000
     54       3.3412      2.00000
     55       4.2424      0.00000
     56       5.0038      0.00000
     57       6.4846      0.00000
     58       6.7519      0.00000
     59       7.3803      0.00000
     60       7.5952      0.00000
     61       8.3541      0.00000
     62       8.4995      0.00000
     63       8.5714      0.00000
     64       9.2644      0.00000
     65       9.4880      0.00000
     66       9.7162      0.00000
     67       9.7477      0.00000
     68      10.1895      0.00000
     69      10.6810      0.00000
     70      11.1538      0.00000
     71      11.3541      0.00000
     72      11.6735      0.00000
     73      12.2586      0.00000
     74      12.2616      0.00000
     75      12.6749      0.00000
     76      12.7798      0.00000
     77      12.9384      0.00000
     78      13.0876      0.00000
     79      13.5180      0.00000
     80      13.5456      0.00000
     81      13.7313      0.00000
     82      13.9030      0.00000
     83      14.4117      0.00000
     84      14.8011      0.00000
     85      14.8050      0.00000
     86      15.0935      0.00000
     87      15.1511      0.00000
     88      15.4054      0.00000
     89      16.5093      0.00000
     90      16.5433      0.00000
     91      16.7097      0.00000
     92      16.9370      0.00000
     93      16.9439      0.00000
     94      17.1886      0.00000
     95      17.2737      0.00000
     96      18.1104      0.00000
     97      18.1394      0.00000
     98      18.5845      0.00000
     99      18.5963      0.00000
    100      19.1035      0.00000
    101      19.2205      0.00000
    102      19.5018      0.00000
    103      19.8755      0.00000
    104      20.0997      0.00000
    105      20.2038      0.00000
    106      20.5804      0.00000
    107      20.8309      0.00000
    108      21.1990      0.00000
    109      21.3691      0.00000
    110      21.7419      0.00000
    111      21.7685      0.00000
    112      21.9695      0.00000
    113      22.2151      0.00000
    114      22.4100      0.00000
    115      22.6525      0.00000
    116      22.8473      0.00000
    117      22.9014      0.00000
    118      23.1394      0.00000
    119      23.2292      0.00000
    120      24.1921      0.00000
    121      24.3024      0.00000
    122      24.6268      0.00000
    123      24.6625      0.00000
    124      25.0609      0.00000
    125      25.6294      0.00000
    126      25.6490      0.00000
    127      26.1695      0.00000
    128      26.2874      0.00000
    129      26.6882      0.00000
    130      26.7835      0.00000
    131      27.0686      0.00000
    132      27.1936      0.00000
    133      27.3173      0.00000
    134      27.3656      0.00000
    135      27.6912      0.00000
    136      27.7081      0.00000
    137      28.0166      0.00000
    138      28.0314      0.00000
    139      28.1113      0.00000
    140      28.2401      0.00000

 k-point   105 :       0.0000    0.0000    0.0833
  band No.  band energies     occupation 
      1     -25.4581      2.00000
      2     -25.4531      2.00000
      3     -25.4434      2.00000
      4     -25.4428      2.00000
      5     -25.4136      2.00000
      6     -25.4132      2.00000
      7     -25.3911      2.00000
      8     -25.3904      2.00000
      9     -25.3857      2.00000
     10     -25.3850      2.00000
     11     -12.8525      2.00000
     12     -11.6110      2.00000
     13     -11.3482      2.00000
     14     -11.1428      2.00000
     15     -10.8340      2.00000
     16     -10.8289      2.00000
     17      -6.4385      2.00000
     18      -5.5916      2.00000
     19      -2.8709      2.00000
     20      -2.4004      2.00000
     21      -2.1311      2.00000
     22      -2.1277      2.00000
     23      -1.7473      2.00000
     24      -1.3991      2.00000
     25      -1.3577      2.00000
     26      -0.9742      2.00000
     27      -0.7489      2.00000
     28      -0.6597      2.00000
     29      -0.6563      2.00000
     30      -0.6296      2.00000
     31      -0.6183      2.00000
     32      -0.5371      2.00000
     33      -0.4157      2.00000
     34      -0.4125      2.00000
     35       0.5281      2.00000
     36       0.5657      2.00000
     37       0.5905      2.00000
     38       0.6199      2.00000
     39       0.6371      2.00000
     40       0.6567      2.00000
     41       0.6807      2.00000
     42       0.6984      2.00000
     43       0.7576      2.00000
     44       0.9093      2.00000
     45       1.0307      2.00000
     46       1.1624      2.00000
     47       1.2216      2.00000
     48       1.7961      2.00000
     49       1.9178      2.00000
     50       2.3381      2.00000
     51       2.4699      2.00000
     52       3.1912      2.00000
     53       3.2812      2.00000
     54       3.3236      2.00000
     55       4.3086      0.00000
     56       5.0087      0.00000
     57       6.5051      0.00000
     58       6.7399      0.00000
     59       7.3600      0.00000
     60       7.5932      0.00000
     61       8.3657      0.00000
     62       8.5290      0.00000
     63       8.5662      0.00000
     64       9.2821      0.00000
     65       9.4733      0.00000
     66       9.7327      0.00000
     67       9.7571      0.00000
     68      10.2318      0.00000
     69      10.6755      0.00000
     70      11.0989      0.00000
     71      11.3551      0.00000
     72      11.6735      0.00000
     73      12.1979      0.00000
     74      12.2595      0.00000
     75      12.6593      0.00000
     76      12.7994      0.00000
     77      12.9416      0.00000
     78      13.0687      0.00000
     79      13.4904      0.00000
     80      13.5496      0.00000
     81      13.7777      0.00000
     82      13.9054      0.00000
     83      14.4435      0.00000
     84      14.7526      0.00000
     85      14.8576      0.00000
     86      15.0992      0.00000
     87      15.1643      0.00000
     88      15.3821      0.00000
     89      16.4177      0.00000
     90      16.4508      0.00000
     91      16.6298      0.00000
     92      16.9027      0.00000
     93      16.9567      0.00000
     94      17.1599      0.00000
     95      17.2939      0.00000
     96      18.1675      0.00000
     97      18.2405      0.00000
     98      18.6153      0.00000
     99      18.6978      0.00000
    100      19.1808      0.00000
    101      19.3190      0.00000
    102      19.5711      0.00000
    103      19.8381      0.00000
    104      20.0948      0.00000
    105      20.2269      0.00000
    106      20.4981      0.00000
    107      20.8277      0.00000
    108      21.2819      0.00000
    109      21.3598      0.00000
    110      21.7255      0.00000
    111      21.7572      0.00000
    112      21.9539      0.00000
    113      22.2248      0.00000
    114      22.4158      0.00000
    115      22.6043      0.00000
    116      22.7934      0.00000
    117      22.8403      0.00000
    118      23.1656      0.00000
    119      23.2213      0.00000
    120      24.2484      0.00000
    121      24.4163      0.00000
    122      24.6212      0.00000
    123      24.6638      0.00000
    124      25.0664      0.00000
    125      25.6274      0.00000
    126      25.6372      0.00000
    127      26.0964      0.00000
    128      26.2016      0.00000
    129      26.6000      0.00000
    130      26.6700      0.00000
    131      27.0172      0.00000
    132      27.1697      0.00000
    133      27.3146      0.00000
    134      27.3800      0.00000
    135      27.6582      0.00000
    136      27.6652      0.00000
    137      27.9729      0.00000
    138      27.9847      0.00000
    139      28.1589      0.00000
    140      28.1990      0.00000

 k-point   106 :       0.0000    0.0000    0.1000
  band No.  band energies     occupation 
      1     -25.4579      2.00000
      2     -25.4530      2.00000
      3     -25.4432      2.00000
      4     -25.4427      2.00000
      5     -25.4134      2.00000
      6     -25.4131      2.00000
      7     -25.3910      2.00000
      8     -25.3903      2.00000
      9     -25.3856      2.00000
     10     -25.3848      2.00000
     11     -12.8455      2.00000
     12     -11.6315      2.00000
     13     -11.3377      2.00000
     14     -11.1430      2.00000
     15     -10.8338      2.00000
     16     -10.8288      2.00000
     17      -6.4280      2.00000
     18      -5.5957      2.00000
     19      -2.8588      2.00000
     20      -2.4177      2.00000
     21      -2.1298      2.00000
     22      -2.1031      2.00000
     23      -1.7369      2.00000
     24      -1.4049      2.00000
     25      -1.3712      2.00000
     26      -0.9799      2.00000
     27      -0.7524      2.00000
     28      -0.6605      2.00000
     29      -0.6553      2.00000
     30      -0.6258      2.00000
     31      -0.6231      2.00000
     32      -0.5352      2.00000
     33      -0.4159      2.00000
     34      -0.4117      2.00000
     35       0.5280      2.00000
     36       0.5668      2.00000
     37       0.5896      2.00000
     38       0.6179      2.00000
     39       0.6379      2.00000
     40       0.6551      2.00000
     41       0.6798      2.00000
     42       0.6995      2.00000
     43       0.7665      2.00000
     44       0.9105      2.00000
     45       1.0173      2.00000
     46       1.1712      2.00000
     47       1.2206      2.00000
     48       1.8062      2.00000
     49       1.9116      2.00000
     50       2.3472      2.00000
     51       2.4717      2.00000
     52       3.1153      2.00000
     53       3.2721      2.00000
     54       3.3119      2.00000
     55       4.3762      0.00000
     56       5.0142      0.00000
     57       6.5290      0.00000
     58       6.7255      0.00000
     59       7.3377      0.00000
     60       7.5936      0.00000
     61       8.3798      0.00000
     62       8.5614      0.00000
     63       8.5620      0.00000
     64       9.3032      0.00000
     65       9.4614      0.00000
     66       9.7446      0.00000
     67       9.7682      0.00000
     68      10.2795      0.00000
     69      10.6676      0.00000
     70      11.0375      0.00000
     71      11.3570      0.00000
     72      11.6780      0.00000
     73      12.1296      0.00000
     74      12.2585      0.00000
     75      12.6421      0.00000
     76      12.8158      0.00000
     77      12.9472      0.00000
     78      13.0526      0.00000
     79      13.4641      0.00000
     80      13.5514      0.00000
     81      13.8225      0.00000
     82      13.9038      0.00000
     83      14.4753      0.00000
     84      14.6997      0.00000
     85      14.9047      0.00000
     86      15.0482      0.00000
     87      15.2529      0.00000
     88      15.3633      0.00000
     89      16.3233      0.00000
     90      16.3507      0.00000
     91      16.5389      0.00000
     92      16.8509      0.00000
     93      16.8993      0.00000
     94      17.1965      0.00000
     95      17.3492      0.00000
     96      18.2242      0.00000
     97      18.3345      0.00000
     98      18.6665      0.00000
     99      18.8133      0.00000
    100      19.2477      0.00000
    101      19.4300      0.00000
    102      19.6329      0.00000
    103      19.7895      0.00000
    104      20.1142      0.00000
    105      20.2694      0.00000
    106      20.4177      0.00000
    107      20.8016      0.00000
    108      21.3534      0.00000
    109      21.3625      0.00000
    110      21.7145      0.00000
    111      21.7426      0.00000
    112      21.9447      0.00000
    113      22.2344      0.00000
    114      22.4211      0.00000
    115      22.5609      0.00000
    116      22.7486      0.00000
    117      22.7759      0.00000
    118      23.1894      0.00000
    119      23.2200      0.00000
    120      24.2507      0.00000
    121      24.5266      0.00000
    122      24.5911      0.00000
    123      24.6967      0.00000
    124      25.0893      0.00000
    125      25.6274      0.00000
    126      25.6441      0.00000
    127      25.9928      0.00000
    128      26.0689      0.00000
    129      26.5590      0.00000
    130      26.5779      0.00000
    131      26.9672      0.00000
    132      27.1296      0.00000
    133      27.3137      0.00000
    134      27.3764      0.00000
    135      27.6024      0.00000
    136      27.6331      0.00000
    137      27.9006      0.00000
    138      27.9260      0.00000
    139      28.1918      0.00000
    140      28.2094      0.00000

 k-point   107 :       0.0000    0.0000    0.1167
  band No.  band energies     occupation 
      1     -25.4577      2.00000
      2     -25.4529      2.00000
      3     -25.4431      2.00000
      4     -25.4425      2.00000
      5     -25.4133      2.00000
      6     -25.4129      2.00000
      7     -25.3908      2.00000
      8     -25.3901      2.00000
      9     -25.3854      2.00000
     10     -25.3847      2.00000
     11     -12.8373      2.00000
     12     -11.6538      2.00000
     13     -11.3270      2.00000
     14     -11.1433      2.00000
     15     -10.8336      2.00000
     16     -10.8287      2.00000
     17      -6.4157      2.00000
     18      -5.6004      2.00000
     19      -2.8444      2.00000
     20      -2.4335      2.00000
     21      -2.1322      2.00000
     22      -2.0753      2.00000
     23      -1.7252      2.00000
     24      -1.4111      2.00000
     25      -1.3863      2.00000
     26      -0.9875      2.00000
     27      -0.7569      2.00000
     28      -0.6618      2.00000
     29      -0.6543      2.00000
     30      -0.6276      2.00000
     31      -0.6209      2.00000
     32      -0.5335      2.00000
     33      -0.4161      2.00000
     34      -0.4110      2.00000
     35       0.5277      2.00000
     36       0.5679      2.00000
     37       0.5887      2.00000
     38       0.6155      2.00000
     39       0.6389      2.00000
     40       0.6536      2.00000
     41       0.6795      2.00000
     42       0.7009      2.00000
     43       0.7753      2.00000
     44       0.9124      2.00000
     45       1.0041      2.00000
     46       1.1785      2.00000
     47       1.2197      2.00000
     48       1.8177      2.00000
     49       1.9049      2.00000
     50       2.3579      2.00000
     51       2.4741      2.00000
     52       3.0353      2.00000
     53       3.2615      2.00000
     54       3.3011      2.00000
     55       4.4432      0.00000
     56       5.0202      0.00000
     57       6.5552      0.00000
     58       6.7090      0.00000
     59       7.3149      0.00000
     60       7.5972      0.00000
     61       8.3962      0.00000
     62       8.5575      0.00000
     63       8.5975      0.00000
     64       9.3272      0.00000
     65       9.4522      0.00000
     66       9.7516      0.00000
     67       9.7803      0.00000
     68      10.3291      0.00000
     69      10.6566      0.00000
     70      10.9737      0.00000
     71      11.3600      0.00000
     72      11.6873      0.00000
     73      12.0610      0.00000
     74      12.2555      0.00000
     75      12.6228      0.00000
     76      12.8258      0.00000
     77      12.9559      0.00000
     78      13.0386      0.00000
     79      13.4407      0.00000
     80      13.5519      0.00000
     81      13.8632      0.00000
     82      13.8983      0.00000
     83      14.4916      0.00000
     84      14.6618      0.00000
     85      14.9176      0.00000
     86      15.0186      0.00000
     87      15.3547      0.00000
     88      15.3565      0.00000
     89      16.2319      0.00000
     90      16.2471      0.00000
     91      16.4421      0.00000
     92      16.7911      0.00000
     93      16.7983      0.00000
     94      17.2740      0.00000
     95      17.4271      0.00000
     96      18.2783      0.00000
     97      18.4216      0.00000
     98      18.7299      0.00000
     99      18.9358      0.00000
    100      19.2962      0.00000
    101      19.5480      0.00000
    102      19.6883      0.00000
    103      19.7396      0.00000
    104      20.1464      0.00000
    105      20.3228      0.00000
    106      20.3618      0.00000
    107      20.7579      0.00000
    108      21.3455      0.00000
    109      21.4316      0.00000
    110      21.7132      0.00000
    111      21.7282      0.00000
    112      21.9440      0.00000
    113      22.2403      0.00000
    114      22.4242      0.00000
    115      22.5297      0.00000
    116      22.7146      0.00000
    117      22.7189      0.00000
    118      23.2102      0.00000
    119      23.2211      0.00000
    120      24.1678      0.00000
    121      24.6127      0.00000
    122      24.6181      0.00000
    123      24.7320      0.00000
    124      25.1009      0.00000
    125      25.6122      0.00000
    126      25.6825      0.00000
    127      25.8771      0.00000
    128      25.9210      0.00000
    129      26.5042      0.00000
    130      26.5402      0.00000
    131      26.9229      0.00000
    132      27.0723      0.00000
    133      27.3115      0.00000
    134      27.3475      0.00000
    135      27.5574      0.00000
    136      27.6130      0.00000
    137      27.8058      0.00000
    138      27.8736      0.00000
    139      28.1944      0.00000
    140      28.2530      0.00000

 k-point   108 :       0.0000    0.0000    0.1333
  band No.  band energies     occupation 
      1     -25.4574      2.00000
      2     -25.4528      2.00000
      3     -25.4428      2.00000
      4     -25.4423      2.00000
      5     -25.4131      2.00000
      6     -25.4127      2.00000
      7     -25.3906      2.00000
      8     -25.3899      2.00000
      9     -25.3852      2.00000
     10     -25.3845      2.00000
     11     -12.8279      2.00000
     12     -11.6776      2.00000
     13     -11.3165      2.00000
     14     -11.1436      2.00000
     15     -10.8334      2.00000
     16     -10.8286      2.00000
     17      -6.4017      2.00000
     18      -5.6059      2.00000
     19      -2.8278      2.00000
     20      -2.4477      2.00000
     21      -2.1347      2.00000
     22      -2.0479      2.00000
     23      -1.7126      2.00000
     24      -1.4171      2.00000
     25      -1.4024      2.00000
     26      -0.9973      2.00000
     27      -0.7627      2.00000
     28      -0.6641      2.00000
     29      -0.6531      2.00000
     30      -0.6311      2.00000
     31      -0.6149      2.00000
     32      -0.5320      2.00000
     33      -0.4165      2.00000
     34      -0.4105      2.00000
     35       0.5274      2.00000
     36       0.5691      2.00000
     37       0.5880      2.00000
     38       0.6129      2.00000
     39       0.6400      2.00000
     40       0.6523      2.00000
     41       0.6797      2.00000
     42       0.7027      2.00000
     43       0.7837      2.00000
     44       0.9150      2.00000
     45       0.9912      2.00000
     46       1.1839      2.00000
     47       1.2188      2.00000
     48       1.8301      2.00000
     49       1.8979      2.00000
     50       2.3698      2.00000
     51       2.4772      2.00000
     52       2.9540      2.00000
     53       3.2496      2.00000
     54       3.2900      2.00000
     55       4.5082      0.00000
     56       5.0265      0.00000
     57       6.5825      0.00000
     58       6.6910      0.00000
     59       7.2935      0.00000
     60       7.6045      0.00000
     61       8.4150      0.00000
     62       8.5545      0.00000
     63       8.6347      0.00000
     64       9.3538      0.00000
     65       9.4452      0.00000
     66       9.7541      0.00000
     67       9.7932      0.00000
     68      10.3758      0.00000
     69      10.6418      0.00000
     70      10.9127      0.00000
     71      11.3646      0.00000
     72      11.7011      0.00000
     73      11.9960      0.00000
     74      12.2507      0.00000
     75      12.6008      0.00000
     76      12.8277      0.00000
     77      12.9674      0.00000
     78      13.0265      0.00000
     79      13.4214      0.00000
     80      13.5518      0.00000
     81      13.8895      0.00000
     82      13.8981      0.00000
     83      14.4672      0.00000
     84      14.6670      0.00000
     85      14.8791      0.00000
     86      15.0176      0.00000
     87      15.3688      0.00000
     88      15.4644      0.00000
     89      16.1438      0.00000
     90      16.1508      0.00000
     91      16.3439      0.00000
     92      16.6800      0.00000
     93      16.7294      0.00000
     94      17.3683      0.00000
     95      17.5196      0.00000
     96      18.3278      0.00000
     97      18.5026      0.00000
     98      18.7965      0.00000
     99      19.0564      0.00000
    100      19.3176      0.00000
    101      19.6530      0.00000
    102      19.7113      0.00000
    103      19.7508      0.00000
    104      20.1452      0.00000
    105      20.3766      0.00000
    106      20.3778      0.00000
    107      20.7111      0.00000
    108      21.3312      0.00000
    109      21.4748      0.00000
    110      21.7229      0.00000
    111      21.7233      0.00000
    112      21.9533      0.00000
    113      22.2387      0.00000
    114      22.4230      0.00000
    115      22.5165      0.00000
    116      22.6791      0.00000
    117      22.6918      0.00000
    118      23.2219      0.00000
    119      23.2280      0.00000
    120      24.0344      0.00000
    121      24.6351      0.00000
    122      24.6715      0.00000
    123      24.7981      0.00000
    124      25.0892      0.00000
    125      25.5524      0.00000
    126      25.6850      0.00000
    127      25.8043      0.00000
    128      25.8373      0.00000
    129      26.4382      0.00000
    130      26.5186      0.00000
    131      26.8890      0.00000
    132      27.0055      0.00000
    133      27.3023      0.00000
    134      27.3039      0.00000
    135      27.5342      0.00000
    136      27.6039      0.00000
    137      27.7191      0.00000
    138      27.8223      0.00000
    139      28.1987      0.00000
    140      28.2748      0.00000

 k-point   109 :       0.0000    0.0000    0.1500
  band No.  band energies     occupation 
      1     -25.4571      2.00000
      2     -25.4526      2.00000
      3     -25.4426      2.00000
      4     -25.4420      2.00000
      5     -25.4128      2.00000
      6     -25.4125      2.00000
      7     -25.3903      2.00000
      8     -25.3897      2.00000
      9     -25.3849      2.00000
     10     -25.3842      2.00000
     11     -12.8172      2.00000
     12     -11.7027      2.00000
     13     -11.3062      2.00000
     14     -11.1439      2.00000
     15     -10.8332      2.00000
     16     -10.8285      2.00000
     17      -6.3862      2.00000
     18      -5.6122      2.00000
     19      -2.8089      2.00000
     20      -2.4601      2.00000
     21      -2.1373      2.00000
     22      -2.0215      2.00000
     23      -1.6994      2.00000
     24      -1.4226      2.00000
     25      -1.4192      2.00000
     26      -1.0095      2.00000
     27      -0.7694      2.00000
     28      -0.6675      2.00000
     29      -0.6517      2.00000
     30      -0.6334      2.00000
     31      -0.6081      2.00000
     32      -0.5310      2.00000
     33      -0.4169      2.00000
     34      -0.4102      2.00000
     35       0.5268      2.00000
     36       0.5704      2.00000
     37       0.5875      2.00000
     38       0.6102      2.00000
     39       0.6411      2.00000
     40       0.6512      2.00000
     41       0.6803      2.00000
     42       0.7048      2.00000
     43       0.7915      2.00000
     44       0.9187      2.00000
     45       0.9785      2.00000
     46       1.1874      2.00000
     47       1.2183      2.00000
     48       1.8434      2.00000
     49       1.8908      2.00000
     50       2.3830      2.00000
     51       2.4811      2.00000
     52       2.8728      2.00000
     53       3.2367      2.00000
     54       3.2781      2.00000
     55       4.5701      0.00000
     56       5.0328      0.00000
     57       6.6092      0.00000
     58       6.6721      0.00000
     59       7.2760      0.00000
     60       7.6157      0.00000
     61       8.4358      0.00000
     62       8.5527      0.00000
     63       8.6731      0.00000
     64       9.3825      0.00000
     65       9.4404      0.00000
     66       9.7521      0.00000
     67       9.8062      0.00000
     68      10.4134      0.00000
     69      10.6222      0.00000
     70      10.8610      0.00000
     71      11.3712      0.00000
     72      11.7188      0.00000
     73      11.9382      0.00000
     74      12.2446      0.00000
     75      12.5755      0.00000
     76      12.8214      0.00000
     77      12.9802      0.00000
     78      13.0157      0.00000
     79      13.4070      0.00000
     80      13.5507      0.00000
     81      13.8785      0.00000
     82      13.9259      0.00000
     83      14.4129      0.00000
     84      14.7069      0.00000
     85      14.8236      0.00000
     86      15.0081      0.00000
     87      15.3953      0.00000
     88      15.5749      0.00000
     89      16.0447      0.00000
     90      16.0900      0.00000
     91      16.2487      0.00000
     92      16.5544      0.00000
     93      16.6705      0.00000
     94      17.4717      0.00000
     95      17.6222      0.00000
     96      18.3702      0.00000
     97      18.5771      0.00000
     98      18.8549      0.00000
     99      19.1626      0.00000
    100      19.3129      0.00000
    101      19.6562      0.00000
    102      19.7957      0.00000
    103      19.8302      0.00000
    104      20.1121      0.00000
    105      20.4173      0.00000
    106      20.4617      0.00000
    107      20.6845      0.00000
    108      21.3107      0.00000
    109      21.4792      0.00000
    110      21.7352      0.00000
    111      21.7435      0.00000
    112      21.9732      0.00000
    113      22.2288      0.00000
    114      22.4165      0.00000
    115      22.5203      0.00000
    116      22.6632      0.00000
    117      22.6821      0.00000
    118      23.2203      0.00000
    119      23.2433      0.00000
    120      23.8841      0.00000
    121      24.6023      0.00000
    122      24.7085      0.00000
    123      24.8793      0.00000
    124      25.0638      0.00000
    125      25.4211      0.00000
    126      25.5668      0.00000
    127      25.8121      0.00000
    128      25.9065      0.00000
    129      26.3721      0.00000
    130      26.4734      0.00000
    131      26.8673      0.00000
    132      26.9489      0.00000
    133      27.2557      0.00000
    134      27.2859      0.00000
    135      27.5244      0.00000
    136      27.5995      0.00000
    137      27.6588      0.00000
    138      27.7793      0.00000
    139      28.2005      0.00000
    140      28.2690      0.00000

 k-point   110 :       0.0000    0.0000    0.1667
  band No.  band energies     occupation 
      1     -25.4568      2.00000
      2     -25.4524      2.00000
      3     -25.4423      2.00000
      4     -25.4418      2.00000
      5     -25.4126      2.00000
      6     -25.4122      2.00000
      7     -25.3901      2.00000
      8     -25.3895      2.00000
      9     -25.3847      2.00000
     10     -25.3840      2.00000
     11     -12.8054      2.00000
     12     -11.7291      2.00000
     13     -11.2962      2.00000
     14     -11.1443      2.00000
     15     -10.8329      2.00000
     16     -10.8283      2.00000
     17      -6.3693      2.00000
     18      -5.6192      2.00000
     19      -2.7877      2.00000
     20      -2.4706      2.00000
     21      -2.1401      2.00000
     22      -1.9964      2.00000
     23      -1.6862      2.00000
     24      -1.4360      2.00000
     25      -1.4272      2.00000
     26      -1.0244      2.00000
     27      -0.7769      2.00000
     28      -0.6719      2.00000
     29      -0.6498      2.00000
     30      -0.6342      2.00000
     31      -0.6009      2.00000
     32      -0.5303      2.00000
     33      -0.4174      2.00000
     34      -0.4102      2.00000
     35       0.5262      2.00000
     36       0.5718      2.00000
     37       0.5872      2.00000
     38       0.6072      2.00000
     39       0.6424      2.00000
     40       0.6503      2.00000
     41       0.6812      2.00000
     42       0.7075      2.00000
     43       0.7985      2.00000
     44       0.9234      2.00000
     45       0.9662      2.00000
     46       1.1887      2.00000
     47       1.2182      2.00000
     48       1.8571      2.00000
     49       1.8837      2.00000
     50       2.3971      2.00000
     51       2.4861      2.00000
     52       2.7930      2.00000
     53       3.2227      2.00000
     54       3.2654      2.00000
     55       4.6282      0.00000
     56       5.0391      0.00000
     57       6.6334      0.00000
     58       6.6528      0.00000
     59       7.2648      0.00000
     60       7.6308      0.00000
     61       8.4584      0.00000
     62       8.5518      0.00000
     63       8.7125      0.00000
     64       9.4126      0.00000
     65       9.4372      0.00000
     66       9.7456      0.00000
     67       9.8188      0.00000
     68      10.4343      0.00000
     69      10.5974      0.00000
     70      10.8263      0.00000
     71      11.3800      0.00000
     72      11.7393      0.00000
     73      11.8903      0.00000
     74      12.2381      0.00000
     75      12.5463      0.00000
     76      12.8077      0.00000
     77      12.9923      0.00000
     78      13.0062      0.00000
     79      13.3978      0.00000
     80      13.5483      0.00000
     81      13.8659      0.00000
     82      13.9454      0.00000
     83      14.3531      0.00000
     84      14.7594      0.00000
     85      14.7667      0.00000
     86      14.9821      0.00000
     87      15.4166      0.00000
     88      15.6715      0.00000
     89      15.9569      0.00000
     90      16.0625      0.00000
     91      16.1635      0.00000
     92      16.4272      0.00000
     93      16.6189      0.00000
     94      17.5809      0.00000
     95      17.7323      0.00000
     96      18.4028      0.00000
     97      18.6430      0.00000
     98      18.8891      0.00000
     99      19.2377      0.00000
    100      19.3009      0.00000
    101      19.6641      0.00000
    102      19.8849      0.00000
    103      19.9209      0.00000
    104      20.0914      0.00000
    105      20.4430      0.00000
    106      20.5701      0.00000
    107      20.6973      0.00000
    108      21.2896      0.00000
    109      21.4494      0.00000
    110      21.7582      0.00000
    111      21.7705      0.00000
    112      22.0027      0.00000
    113      22.2146      0.00000
    114      22.4085      0.00000
    115      22.5303      0.00000
    116      22.6718      0.00000
    117      22.6901      0.00000
    118      23.2139      0.00000
    119      23.2568      0.00000
    120      23.7338      0.00000
    121      24.5370      0.00000
    122      24.6936      0.00000
    123      24.9495      0.00000
    124      25.0482      0.00000
    125      25.2601      0.00000
    126      25.4378      0.00000
    127      25.8631      0.00000
    128      26.0131      0.00000
    129      26.3046      0.00000
    130      26.3968      0.00000
    131      26.8560      0.00000
    132      26.9192      0.00000
    133      27.2139      0.00000
    134      27.2545      0.00000
    135      27.5229      0.00000
    136      27.5815      0.00000
    137      27.6505      0.00000
    138      27.7478      0.00000
    139      28.1955      0.00000
    140      28.2396      0.00000

 k-point   111 :       0.0000    0.0000    0.1833
  band No.  band energies     occupation 
      1     -25.4565      2.00000
      2     -25.4523      2.00000
      3     -25.4421      2.00000
      4     -25.4415      2.00000
      5     -25.4123      2.00000
      6     -25.4120      2.00000
      7     -25.3898      2.00000
      8     -25.3892      2.00000
      9     -25.3844      2.00000
     10     -25.3838      2.00000
     11     -12.7923      2.00000
     12     -11.7564      2.00000
     13     -11.2866      2.00000
     14     -11.1448      2.00000
     15     -10.8326      2.00000
     16     -10.8282      2.00000
     17      -6.3511      2.00000
     18      -5.6270      2.00000
     19      -2.7642      2.00000
     20      -2.4793      2.00000
     21      -2.1431      2.00000
     22      -1.9731      2.00000
     23      -1.6735      2.00000
     24      -1.4524      2.00000
     25      -1.4307      2.00000
     26      -1.0422      2.00000
     27      -0.7850      2.00000
     28      -0.6769      2.00000
     29      -0.6477      2.00000
     30      -0.6339      2.00000
     31      -0.5933      2.00000
     32      -0.5301      2.00000
     33      -0.4180      2.00000
     34      -0.4106      2.00000
     35       0.5254      2.00000
     36       0.5732      2.00000
     37       0.5870      2.00000
     38       0.6042      2.00000
     39       0.6436      2.00000
     40       0.6496      2.00000
     41       0.6823      2.00000
     42       0.7106      2.00000
     43       0.8048      2.00000
     44       0.9292      2.00000
     45       0.9542      2.00000
     46       1.1878      2.00000
     47       1.2188      2.00000
     48       1.8708      2.00000
     49       1.8768      2.00000
     50       2.4116      2.00000
     51       2.4920      2.00000
     52       2.7154      2.00000
     53       3.2079      2.00000
     54       3.2517      2.00000
     55       4.6820      0.00000
     56       5.0450      0.00000
     57       6.6338      0.00000
     58       6.6528      0.00000
     59       7.2628      0.00000
     60       7.6495      0.00000
     61       8.4822      0.00000
     62       8.5516      0.00000
     63       8.7529      0.00000
     64       9.4353      0.00000
     65       9.4435      0.00000
     66       9.7346      0.00000
     67       9.8307      0.00000
     68      10.4333      0.00000
     69      10.5672      0.00000
     70      10.8142      0.00000
     71      11.3907      0.00000
     72      11.7605      0.00000
     73      11.8547      0.00000
     74      12.2328      0.00000
     75      12.5125      0.00000
     76      12.7877      0.00000
     77      12.9980      0.00000
     78      13.0023      0.00000
     79      13.3939      0.00000
     80      13.5435      0.00000
     81      13.8529      0.00000
     82      13.9547      0.00000
     83      14.3001      0.00000
     84      14.7124      0.00000
     85      14.8142      0.00000
     86      14.9452      0.00000
     87      15.4133      0.00000
     88      15.7160      0.00000
     89      15.8998      0.00000
     90      16.0742      0.00000
     91      16.1039      0.00000
     92      16.3070      0.00000
     93      16.5817      0.00000
     94      17.6933      0.00000
     95      17.8479      0.00000
     96      18.4218      0.00000
     97      18.6957      0.00000
     98      18.8806      0.00000
     99      19.2740      0.00000
    100      19.3090      0.00000
    101      19.7067      0.00000
    102      19.9336      0.00000
    103      19.9972      0.00000
    104      20.1174      0.00000
    105      20.4872      0.00000
    106      20.6835      0.00000
    107      20.7376      0.00000
    108      21.2773      0.00000
    109      21.4004      0.00000
    110      21.7800      0.00000
    111      21.8012      0.00000
    112      22.0373      0.00000
    113      22.2008      0.00000
    114      22.4053      0.00000
    115      22.5352      0.00000
    116      22.6996      0.00000
    117      22.7187      0.00000
    118      23.1989      0.00000
    119      23.2694      0.00000
    120      23.5960      0.00000
    121      24.4497      0.00000
    122      24.6151      0.00000
    123      24.9827      0.00000
    124      25.0458      0.00000
    125      25.1103      0.00000
    126      25.3296      0.00000
    127      25.9286      0.00000
    128      26.1041      0.00000
    129      26.2402      0.00000
    130      26.3173      0.00000
    131      26.8520      0.00000
    132      26.9131      0.00000
    133      27.1796      0.00000
    134      27.2134      0.00000
    135      27.5302      0.00000
    136      27.5648      0.00000
    137      27.6761      0.00000
    138      27.7274      0.00000
    139      28.1758      0.00000
    140      28.1886      0.00000

 k-point   112 :       0.0000    0.0000    0.2000
  band No.  band energies     occupation 
      1     -25.4562      2.00000
      2     -25.4521      2.00000
      3     -25.4418      2.00000
      4     -25.4412      2.00000
      5     -25.4120      2.00000
      6     -25.4117      2.00000
      7     -25.3895      2.00000
      8     -25.3889      2.00000
      9     -25.3841      2.00000
     10     -25.3835      2.00000
     11     -12.7781      2.00000
     12     -11.7846      2.00000
     13     -11.2774      2.00000
     14     -11.1454      2.00000
     15     -10.8323      2.00000
     16     -10.8281      2.00000
     17      -6.3318      2.00000
     18      -5.6355      2.00000
     19      -2.7385      2.00000
     20      -2.4860      2.00000
     21      -2.1464      2.00000
     22      -1.9518      2.00000
     23      -1.6620      2.00000
     24      -1.4673      2.00000
     25      -1.4328      2.00000
     26      -1.0630      2.00000
     27      -0.7933      2.00000
     28      -0.6822      2.00000
     29      -0.6452      2.00000
     30      -0.6327      2.00000
     31      -0.5856      2.00000
     32      -0.5305      2.00000
     33      -0.4187      2.00000
     34      -0.4113      2.00000
     35       0.5248      2.00000
     36       0.5745      2.00000
     37       0.5869      2.00000
     38       0.6011      2.00000
     39       0.6448      2.00000
     40       0.6490      2.00000
     41       0.6836      2.00000
     42       0.7142      2.00000
     43       0.8103      2.00000
     44       0.9359      2.00000
     45       0.9426      2.00000
     46       1.1847      2.00000
     47       1.2204      2.00000
     48       1.8701      2.00000
     49       1.8843      2.00000
     50       2.4256      2.00000
     51       2.4991      2.00000
     52       2.6417      2.00000
     53       3.1924      2.00000
     54       3.2371      2.00000
     55       4.7311      0.00000
     56       5.0506      0.00000
     57       6.6156      0.00000
     58       6.6656      0.00000
     59       7.2720      0.00000
     60       7.6716      0.00000
     61       8.5067      0.00000
     62       8.5516      0.00000
     63       8.7945      0.00000
     64       9.4344      0.00000
     65       9.4742      0.00000
     66       9.7191      0.00000
     67       9.8419      0.00000
     68      10.4133      0.00000
     69      10.5324      0.00000
     70      10.8223      0.00000
     71      11.4026      0.00000
     72      11.7795      0.00000
     73      11.8333      0.00000
     74      12.2309      0.00000
     75      12.4737      0.00000
     76      12.7622      0.00000
     77      12.9911      0.00000
     78      13.0092      0.00000
     79      13.3951      0.00000
     80      13.5348      0.00000
     81      13.8402      0.00000
     82      13.9530      0.00000
     83      14.2608      0.00000
     84      14.6624      0.00000
     85      14.8652      0.00000
     86      14.9017      0.00000
     87      15.3817      0.00000
     88      15.6763      0.00000
     89      15.8720      0.00000
     90      16.0819      0.00000
     91      16.0961      0.00000
     92      16.2377      0.00000
     93      16.5701      0.00000
     94      17.8063      0.00000
     95      17.9677      0.00000
     96      18.4224      0.00000
     97      18.7281      0.00000
     98      18.8308      0.00000
     99      19.2881      0.00000
    100      19.3495      0.00000
    101      19.7533      0.00000
    102      19.9522      0.00000
    103      20.0369      0.00000
    104      20.2066      0.00000
    105      20.5755      0.00000
    106      20.7827      0.00000
    107      20.7932      0.00000
    108      21.2839      0.00000
    109      21.3442      0.00000
    110      21.7963      0.00000
    111      21.8340      0.00000
    112      22.0714      0.00000
    113      22.1907      0.00000
    114      22.4111      0.00000
    115      22.5327      0.00000
    116      22.7383      0.00000
    117      22.7616      0.00000
    118      23.1700      0.00000
    119      23.2823      0.00000
    120      23.4854      0.00000
    121      24.3486      0.00000
    122      24.4939      0.00000
    123      24.8792      0.00000
    124      25.0209      0.00000
    125      25.0759      0.00000
    126      25.2596      0.00000
    127      25.9851      0.00000
    128      26.0824      0.00000
    129      26.1928      0.00000
    130      26.3388      0.00000
    131      26.8532      0.00000
    132      26.9178      0.00000
    133      27.1553      0.00000
    134      27.1705      0.00000
    135      27.5457      0.00000
    136      27.5589      0.00000
    137      27.7124      0.00000
    138      27.7160      0.00000
    139      28.1114      0.00000
    140      28.1288      0.00000

 k-point   113 :       0.0000    0.0000    0.2167
  band No.  band energies     occupation 
      1     -25.4558      2.00000
      2     -25.4519      2.00000
      3     -25.4415      2.00000
      4     -25.4410      2.00000
      5     -25.4117      2.00000
      6     -25.4114      2.00000
      7     -25.3893      2.00000
      8     -25.3887      2.00000
      9     -25.3838      2.00000
     10     -25.3832      2.00000
     11     -12.7627      2.00000
     12     -11.8137      2.00000
     13     -11.2686      2.00000
     14     -11.1460      2.00000
     15     -10.8320      2.00000
     16     -10.8279      2.00000
     17      -6.3113      2.00000
     18      -5.6448      2.00000
     19      -2.7105      2.00000
     20      -2.4908      2.00000
     21      -2.1499      2.00000
     22      -1.9329      2.00000
     23      -1.6527      2.00000
     24      -1.4798      2.00000
     25      -1.4331      2.00000
     26      -1.0868      2.00000
     27      -0.8017      2.00000
     28      -0.6876      2.00000
     29      -0.6424      2.00000
     30      -0.6309      2.00000
     31      -0.5779      2.00000
     32      -0.5313      2.00000
     33      -0.4194      2.00000
     34      -0.4125      2.00000
     35       0.5242      2.00000
     36       0.5758      2.00000
     37       0.5870      2.00000
     38       0.5980      2.00000
     39       0.6459      2.00000
     40       0.6486      2.00000
     41       0.6849      2.00000
     42       0.7183      2.00000
     43       0.8152      2.00000
     44       0.9313      2.00000
     45       0.9432      2.00000
     46       1.1794      2.00000
     47       1.2234      2.00000
     48       1.8636      2.00000
     49       1.8971      2.00000
     50       2.4358      2.00000
     51       2.5073      2.00000
     52       2.5754      2.00000
     53       3.1764      2.00000
     54       3.2215      2.00000
     55       4.7754      0.00000
     56       5.0556      0.00000
     57       6.5988      0.00000
     58       6.6710      0.00000
     59       7.2935      0.00000
     60       7.6965      0.00000
     61       8.5309      0.00000
     62       8.5514      0.00000
     63       8.8378      0.00000
     64       9.4340      0.00000
     65       9.5033      0.00000
     66       9.6995      0.00000
     67       9.8526      0.00000
     68      10.3829      0.00000
     69      10.4942      0.00000
     70      10.8421      0.00000
     71      11.4140      0.00000
     72      11.7922      0.00000
     73      11.8274      0.00000
     74      12.2355      0.00000
     75      12.4294      0.00000
     76      12.7323      0.00000
     77      12.9857      0.00000
     78      13.0125      0.00000
     79      13.4011      0.00000
     80      13.5205      0.00000
     81      13.8286      0.00000
     82      13.9425      0.00000
     83      14.2373      0.00000
     84      14.6178      0.00000
     85      14.8545      0.00000
     86      14.9071      0.00000
     87      15.3315      0.00000
     88      15.5994      0.00000
     89      15.8309      0.00000
     90      15.9969      0.00000
     91      16.1259      0.00000
     92      16.2970      0.00000
     93      16.5976      0.00000
     94      17.9158      0.00000
     95      18.0903      0.00000
     96      18.3968      0.00000
     97      18.7330      0.00000
     98      18.7676      0.00000
     99      19.3030      0.00000
    100      19.4131      0.00000
    101      19.7512      0.00000
    102      19.9931      0.00000
    103      20.0682      0.00000
    104      20.3199      0.00000
    105      20.6942      0.00000
    106      20.8261      0.00000
    107      20.8922      0.00000
    108      21.2916      0.00000
    109      21.3157      0.00000
    110      21.8075      0.00000
    111      21.8682      0.00000
    112      22.1010      0.00000
    113      22.1865      0.00000
    114      22.4259      0.00000
    115      22.5257      0.00000
    116      22.7749      0.00000
    117      22.8072      0.00000
    118      23.1289      0.00000
    119      23.2971      0.00000
    120      23.4139      0.00000
    121      24.2411      0.00000
    122      24.3525      0.00000
    123      24.7157      0.00000
    124      24.9491      0.00000
    125      25.0825      0.00000
    126      25.2304      0.00000
    127      25.9798      0.00000
    128      25.9972      0.00000
    129      26.1915      0.00000
    130      26.4356      0.00000
    131      26.8604      0.00000
    132      26.9253      0.00000
    133      27.1301      0.00000
    134      27.1427      0.00000
    135      27.5586      0.00000
    136      27.5590      0.00000
    137      27.7159      0.00000
    138      27.7363      0.00000
    139      28.0205      0.00000
    140      28.0635      0.00000

 k-point   114 :       0.0000    0.0000    0.2333
  band No.  band energies     occupation 
      1     -25.4555      2.00000
      2     -25.4517      2.00000
      3     -25.4412      2.00000
      4     -25.4407      2.00000
      5     -25.4115      2.00000
      6     -25.4112      2.00000
      7     -25.3890      2.00000
      8     -25.3884      2.00000
      9     -25.3836      2.00000
     10     -25.3830      2.00000
     11     -12.7462      2.00000
     12     -11.8435      2.00000
     13     -11.2602      2.00000
     14     -11.1467      2.00000
     15     -10.8316      2.00000
     16     -10.8278      2.00000
     17      -6.2900      2.00000
     18      -5.6549      2.00000
     19      -2.6802      2.00000
     20      -2.4937      2.00000
     21      -2.1539      2.00000
     22      -1.9166      2.00000
     23      -1.6468      2.00000
     24      -1.4886      2.00000
     25      -1.4316      2.00000
     26      -1.1138      2.00000
     27      -0.8098      2.00000
     28      -0.6929      2.00000
     29      -0.6394      2.00000
     30      -0.6287      2.00000
     31      -0.5703      2.00000
     32      -0.5327      2.00000
     33      -0.4203      2.00000
     34      -0.4141      2.00000
     35       0.5237      2.00000
     36       0.5769      2.00000
     37       0.5870      2.00000
     38       0.5951      2.00000
     39       0.6469      2.00000
     40       0.6482      2.00000
     41       0.6863      2.00000
     42       0.7229      2.00000
     43       0.8197      2.00000
     44       0.9205      2.00000
     45       0.9508      2.00000
     46       1.1721      2.00000
     47       1.2281      2.00000
     48       1.8572      2.00000
     49       1.9090      2.00000
     50       2.4297      2.00000
     51       2.5168      2.00000
     52       2.5292      2.00000
     53       3.1600      2.00000
     54       3.2051      2.00000
     55       4.8148      0.00000
     56       5.0600      0.00000
     57       6.5836      0.00000
     58       6.6694      0.00000
     59       7.3271      0.00000
     60       7.7240      0.00000
     61       8.5504      0.00000
     62       8.5540      0.00000
     63       8.8831      0.00000
     64       9.4336      0.00000
     65       9.5290      0.00000
     66       9.6766      0.00000
     67       9.8638      0.00000
     68      10.3504      0.00000
     69      10.4546      0.00000
     70      10.8659      0.00000
     71      11.4234      0.00000
     72      11.7942      0.00000
     73      11.8373      0.00000
     74      12.2492      0.00000
     75      12.3796      0.00000
     76      12.6989      0.00000
     77      12.9821      0.00000
     78      13.0120      0.00000
     79      13.4117      0.00000
     80      13.4994      0.00000
     81      13.8187      0.00000
     82      13.9293      0.00000
     83      14.2269      0.00000
     84      14.5787      0.00000
     85      14.8052      0.00000
     86      14.9350      0.00000
     87      15.2735      0.00000
     88      15.5148      0.00000
     89      15.7851      0.00000
     90      15.8822      0.00000
     91      16.1544      0.00000
     92      16.4105      0.00000
     93      16.6686      0.00000
     94      18.0125      0.00000
     95      18.2142      0.00000
     96      18.3407      0.00000
     97      18.7085      0.00000
     98      18.7222      0.00000
     99      19.3296      0.00000
    100      19.4891      0.00000
    101      19.7049      0.00000
    102      20.0598      0.00000
    103      20.0996      0.00000
    104      20.4346      0.00000
    105      20.7966      0.00000
    106      20.9004      0.00000
    107      20.9703      0.00000
    108      21.2578      0.00000
    109      21.3706      0.00000
    110      21.8152      0.00000
    111      21.9035      0.00000
    112      22.1243      0.00000
    113      22.1900      0.00000
    114      22.4456      0.00000
    115      22.5171      0.00000
    116      22.7904      0.00000
    117      22.8440      0.00000
    118      23.0995      0.00000
    119      23.3154      0.00000
    120      23.3778      0.00000
    121      24.1342      0.00000
    122      24.2060      0.00000
    123      24.5529      0.00000
    124      24.8487      0.00000
    125      25.0733      0.00000
    126      25.2091      0.00000
    127      25.8777      0.00000
    128      25.9657      0.00000
    129      26.2298      0.00000
    130      26.5290      0.00000
    131      26.8763      0.00000
    132      26.9354      0.00000
    133      27.0906      0.00000
    134      27.1422      0.00000
    135      27.5394      0.00000
    136      27.5583      0.00000
    137      27.7014      0.00000
    138      27.7372      0.00000
    139      27.9314      0.00000
    140      28.0371      0.00000

 k-point   115 :       0.0000    0.0000    0.2500
  band No.  band energies     occupation 
      1     -25.4551      2.00000
      2     -25.4515      2.00000
      3     -25.4408      2.00000
      4     -25.4404      2.00000
      5     -25.4112      2.00000
      6     -25.4109      2.00000
      7     -25.3887      2.00000
      8     -25.3881      2.00000
      9     -25.3833      2.00000
     10     -25.3827      2.00000
     11     -12.7286      2.00000
     12     -11.8739      2.00000
     13     -11.2522      2.00000
     14     -11.1475      2.00000
     15     -10.8313      2.00000
     16     -10.8276      2.00000
     17      -6.2678      2.00000
     18      -5.6657      2.00000
     19      -2.6478      2.00000
     20      -2.4946      2.00000
     21      -2.1583      2.00000
     22      -1.9031      2.00000
     23      -1.6453      2.00000
     24      -1.4926      2.00000
     25      -1.4283      2.00000
     26      -1.1437      2.00000
     27      -0.8174      2.00000
     28      -0.6978      2.00000
     29      -0.6364      2.00000
     30      -0.6264      2.00000
     31      -0.5630      2.00000
     32      -0.5344      2.00000
     33      -0.4213      2.00000
     34      -0.4160      2.00000
     35       0.5235      2.00000
     36       0.5778      2.00000
     37       0.5870      2.00000
     38       0.5923      2.00000
     39       0.6478      2.00000
     40       0.6480      2.00000
     41       0.6876      2.00000
     42       0.7280      2.00000
     43       0.8239      2.00000
     44       0.9102      2.00000
     45       0.9582      2.00000
     46       1.1629      2.00000
     47       1.2349      2.00000
     48       1.8507      2.00000
     49       1.9196      2.00000
     50       2.3907      2.00000
     51       2.5201      2.00000
     52       2.5275      2.00000
     53       3.1433      2.00000
     54       3.1878      2.00000
     55       4.8494      0.00000
     56       5.0638      0.00000
     57       6.5703      0.00000
     58       6.6621      0.00000
     59       7.3711      0.00000
     60       7.7534      0.00000
     61       8.5483      0.00000
     62       8.5753      0.00000
     63       8.9310      0.00000
     64       9.4326      0.00000
     65       9.5490      0.00000
     66       9.6518      0.00000
     67       9.8773      0.00000
     68      10.3205      0.00000
     69      10.4159      0.00000
     70      10.8889      0.00000
     71      11.4296      0.00000
     72      11.7828      0.00000
     73      11.8622      0.00000
     74      12.2730      0.00000
     75      12.3244      0.00000
     76      12.6628      0.00000
     77      12.9803      0.00000
     78      13.0079      0.00000
     79      13.4267      0.00000
     80      13.4718      0.00000
     81      13.8109      0.00000
     82      13.9196      0.00000
     83      14.2245      0.00000
     84      14.5450      0.00000
     85      14.7553      0.00000
     86      14.9455      0.00000
     87      15.2148      0.00000
     88      15.4302      0.00000
     89      15.7426      0.00000
     90      15.7672      0.00000
     91      16.1792      0.00000
     92      16.5407      0.00000
     93      16.7711      0.00000
     94      18.0655      0.00000
     95      18.2810      0.00000
     96      18.3365      0.00000
     97      18.6607      0.00000
     98      18.7111      0.00000
     99      19.3653      0.00000
    100      19.5711      0.00000
    101      19.6492      0.00000
    102      20.1242      0.00000
    103      20.1253      0.00000
    104      20.5404      0.00000
    105      20.8489      0.00000
    106      21.0119      0.00000
    107      21.0379      0.00000
    108      21.2652      0.00000
    109      21.4405      0.00000
    110      21.8208      0.00000
    111      21.9389      0.00000
    112      22.1406      0.00000
    113      22.2031      0.00000
    114      22.4627      0.00000
    115      22.5090      0.00000
    116      22.7797      0.00000
    117      22.8624      0.00000
    118      23.1023      0.00000
    119      23.3373      0.00000
    120      23.3637      0.00000
    121      24.0333      0.00000
    122      24.0662      0.00000
    123      24.4012      0.00000
    124      24.7373      0.00000
    125      25.0458      0.00000
    126      25.1709      0.00000
    127      25.7976      0.00000
    128      25.9247      0.00000
    129      26.2683      0.00000
    130      26.5957      0.00000
    131      26.9005      0.00000
    132      26.9474      0.00000
    133      27.0456      0.00000
    134      27.1574      0.00000
    135      27.4596      0.00000
    136      27.5471      0.00000
    137      27.6090      0.00000
    138      27.7756      0.00000
    139      27.8669      0.00000
    140      28.0799      0.00000

 k-point   116 :       0.0000    0.0000    0.2667
  band No.  band energies     occupation 
      1     -25.4547      2.00000
      2     -25.4514      2.00000
      3     -25.4405      2.00000
      4     -25.4401      2.00000
      5     -25.4109      2.00000
      6     -25.4106      2.00000
      7     -25.3884      2.00000
      8     -25.3879      2.00000
      9     -25.3829      2.00000
     10     -25.3824      2.00000
     11     -12.7099      2.00000
     12     -11.9048      2.00000
     13     -11.2447      2.00000
     14     -11.1483      2.00000
     15     -10.8309      2.00000
     16     -10.8275      2.00000
     17      -6.2450      2.00000
     18      -5.6772      2.00000
     19      -2.6131      2.00000
     20      -2.4937      2.00000
     21      -2.1634      2.00000
     22      -1.8922      2.00000
     23      -1.6485      2.00000
     24      -1.4916      2.00000
     25      -1.4234      2.00000
     26      -1.1765      2.00000
     27      -0.8242      2.00000
     28      -0.7025      2.00000
     29      -0.6332      2.00000
     30      -0.6241      2.00000
     31      -0.5560      2.00000
     32      -0.5364      2.00000
     33      -0.4224      2.00000
     34      -0.4184      2.00000
     35       0.5235      2.00000
     36       0.5783      2.00000
     37       0.5870      2.00000
     38       0.5899      2.00000
     39       0.6479      2.00000
     40       0.6486      2.00000
     41       0.6888      2.00000
     42       0.7333      2.00000
     43       0.8281      2.00000
     44       0.9004      2.00000
     45       0.9650      2.00000
     46       1.1521      2.00000
     47       1.2441      2.00000
     48       1.8440      2.00000
     49       1.9285      2.00000
     50       2.3351      2.00000
     51       2.5317      2.00000
     52       2.5395      2.00000
     53       3.1265      2.00000
     54       3.1697      2.00000
     55       4.8796      0.00000
     56       5.0668      0.00000
     57       6.5589      0.00000
     58       6.6511      0.00000
     59       7.4234      0.00000
     60       7.7841      0.00000
     61       8.5445      0.00000
     62       8.5938      0.00000
     63       8.9818      0.00000
     64       9.4300      0.00000
     65       9.5611      0.00000
     66       9.6275      0.00000
     67       9.8947      0.00000
     68      10.2954      0.00000
     69      10.3804      0.00000
     70      10.9084      0.00000
     71      11.4322      0.00000
     72      11.7579      0.00000
     73      11.8992      0.00000
     74      12.2649      0.00000
     75      12.3045      0.00000
     76      12.6251      0.00000
     77      12.9805      0.00000
     78      13.0007      0.00000
     79      13.4395      0.00000
     80      13.4461      0.00000
     81      13.8056      0.00000
     82      13.9168      0.00000
     83      14.2262      0.00000
     84      14.5158      0.00000
     85      14.7063      0.00000
     86      14.9378      0.00000
     87      15.1590      0.00000
     88      15.3489      0.00000
     89      15.6582      0.00000
     90      15.7020      0.00000
     91      16.2135      0.00000
     92      16.6755      0.00000
     93      16.8879      0.00000
     94      18.0159      0.00000
     95      18.2843      0.00000
     96      18.4452      0.00000
     97      18.6093      0.00000
     98      18.7369      0.00000
     99      19.4000      0.00000
    100      19.6030      0.00000
    101      19.6551      0.00000
    102      20.1378      0.00000
    103      20.1762      0.00000
    104      20.6277      0.00000
    105      20.8952      0.00000
    106      21.0206      0.00000
    107      21.1940      0.00000
    108      21.3182      0.00000
    109      21.5177      0.00000
    110      21.8262      0.00000
    111      21.9729      0.00000
    112      22.1491      0.00000
    113      22.2269      0.00000
    114      22.4682      0.00000
    115      22.5034      0.00000
    116      22.7700      0.00000
    117      22.8570      0.00000
    118      23.1202      0.00000
    119      23.3601      0.00000
    120      23.3607      0.00000
    121      23.9399      0.00000
    122      23.9459      0.00000
    123      24.2703      0.00000
    124      24.6228      0.00000
    125      25.0045      0.00000
    126      25.1114      0.00000
    127      25.7446      0.00000
    128      25.8876      0.00000
    129      26.2901      0.00000
    130      26.6294      0.00000
    131      26.9154      0.00000
    132      26.9498      0.00000
    133      26.9935      0.00000
    134      27.1929      0.00000
    135      27.3297      0.00000
    136      27.4781      0.00000
    137      27.5586      0.00000
    138      27.7808      0.00000
    139      27.8514      0.00000
    140      28.1399      0.00000

 k-point   117 :       0.0000    0.0000    0.2833
  band No.  band energies     occupation 
      1     -25.4543      2.00000
      2     -25.4512      2.00000
      3     -25.4402      2.00000
      4     -25.4398      2.00000
      5     -25.4106      2.00000
      6     -25.4103      2.00000
      7     -25.3881      2.00000
      8     -25.3876      2.00000
      9     -25.3827      2.00000
     10     -25.3822      2.00000
     11     -12.6902      2.00000
     12     -11.9362      2.00000
     13     -11.2376      2.00000
     14     -11.1493      2.00000
     15     -10.8306      2.00000
     16     -10.8274      2.00000
     17      -6.2216      2.00000
     18      -5.6895      2.00000
     19      -2.5764      2.00000
     20      -2.4910      2.00000
     21      -2.1693      2.00000
     22      -1.8839      2.00000
     23      -1.6557      2.00000
     24      -1.4862      2.00000
     25      -1.4171      2.00000
     26      -1.2120      2.00000
     27      -0.8300      2.00000
     28      -0.7067      2.00000
     29      -0.6301      2.00000
     30      -0.6220      2.00000
     31      -0.5493      2.00000
     32      -0.5385      2.00000
     33      -0.4236      2.00000
     34      -0.4211      2.00000
     35       0.5238      2.00000
     36       0.5782      2.00000
     37       0.5870      2.00000
     38       0.5881      2.00000
     39       0.6479      2.00000
     40       0.6493      2.00000
     41       0.6899      2.00000
     42       0.7388      2.00000
     43       0.8325      2.00000
     44       0.8913      2.00000
     45       0.9709      2.00000
     46       1.1399      2.00000
     47       1.2560      2.00000
     48       1.8369      2.00000
     49       1.9357      2.00000
     50       2.2777      2.00000
     51       2.5496      2.00000
     52       2.5529      2.00000
     53       3.1096      2.00000
     54       3.1508      2.00000
     55       4.9058      0.00000
     56       5.0692      0.00000
     57       6.5495      0.00000
     58       6.6380      0.00000
     59       7.4816      0.00000
     60       7.8156      0.00000
     61       8.5389      0.00000
     62       8.6092      0.00000
     63       9.0354      0.00000
     64       9.4249      0.00000
     65       9.5640      0.00000
     66       9.6062      0.00000
     67       9.9169      0.00000
     68      10.2757      0.00000
     69      10.3503      0.00000
     70      10.9231      0.00000
     71      11.4313      0.00000
     72      11.7213      0.00000
     73      11.9439      0.00000
     74      12.2039      0.00000
     75      12.3385      0.00000
     76      12.5876      0.00000
     77      12.9825      0.00000
     78      12.9912      0.00000
     79      13.4057      0.00000
     80      13.4695      0.00000
     81      13.8031      0.00000
     82      13.9212      0.00000
     83      14.2291      0.00000
     84      14.4894      0.00000
     85      14.6605      0.00000
     86      14.9142      0.00000
     87      15.1071      0.00000
     88      15.2735      0.00000
     89      15.5587      0.00000
     90      15.6594      0.00000
     91      16.2665      0.00000
     92      16.8051      0.00000
     93      17.0043      0.00000
     94      17.9056      0.00000
     95      18.3198      0.00000
     96      18.4694      0.00000
     97      18.6337      0.00000
     98      18.7989      0.00000
     99      19.4222      0.00000
    100      19.5770      0.00000
    101      19.7367      0.00000
    102      20.1327      0.00000
    103      20.2188      0.00000
    104      20.6851      0.00000
    105      20.9472      0.00000
    106      21.0268      0.00000
    107      21.3485      0.00000
    108      21.3941      0.00000
    109      21.5986      0.00000
    110      21.8339      0.00000
    111      22.0051      0.00000
    112      22.1498      0.00000
    113      22.2590      0.00000
    114      22.4624      0.00000
    115      22.5037      0.00000
    116      22.7820      0.00000
    117      22.8287      0.00000
    118      23.1283      0.00000
    119      23.3569      0.00000
    120      23.3779      0.00000
    121      23.8496      0.00000
    122      23.8600      0.00000
    123      24.1731      0.00000
    124      24.5104      0.00000
    125      24.9576      0.00000
    126      25.0405      0.00000
    127      25.7133      0.00000
    128      25.8568      0.00000
    129      26.2910      0.00000
    130      26.6340      0.00000
    131      26.8485      0.00000
    132      26.9274      0.00000
    133      26.9779      0.00000
    134      27.1560      0.00000
    135      27.2637      0.00000
    136      27.4084      0.00000
    137      27.5306      0.00000
    138      27.7214      0.00000
    139      27.8654      0.00000
    140      28.0002      0.00000

 k-point   118 :       0.0000    0.0000    0.3000
  band No.  band energies     occupation 
      1     -25.4540      2.00000
      2     -25.4510      2.00000
      3     -25.4399      2.00000
      4     -25.4395      2.00000
      5     -25.4103      2.00000
      6     -25.4100      2.00000
      7     -25.3878      2.00000
      8     -25.3873      2.00000
      9     -25.3824      2.00000
     10     -25.3819      2.00000
     11     -12.6694      2.00000
     12     -11.9680      2.00000
     13     -11.2308      2.00000
     14     -11.1504      2.00000
     15     -10.8302      2.00000
     16     -10.8272      2.00000
     17      -6.1978      2.00000
     18      -5.7026      2.00000
     19      -2.5376      2.00000
     20      -2.4866      2.00000
     21      -2.1760      2.00000
     22      -1.8780      2.00000
     23      -1.6656      2.00000
     24      -1.4777      2.00000
     25      -1.4100      2.00000
     26      -1.2500      2.00000
     27      -0.8346      2.00000
     28      -0.7106      2.00000
     29      -0.6272      2.00000
     30      -0.6204      2.00000
     31      -0.5431      2.00000
     32      -0.5404      2.00000
     33      -0.4250      2.00000
     34      -0.4242      2.00000
     35       0.5244      2.00000
     36       0.5773      2.00000
     37       0.5868      2.00000
     38       0.5871      2.00000
     39       0.6480      2.00000
     40       0.6499      2.00000
     41       0.6908      2.00000
     42       0.7441      2.00000
     43       0.8371      2.00000
     44       0.8831      2.00000
     45       0.9755      2.00000
     46       1.1267      2.00000
     47       1.2708      2.00000
     48       1.8292      2.00000
     49       1.9408      2.00000
     50       2.2222      2.00000
     51       2.5675      2.00000
     52       2.5700      2.00000
     53       3.0926      2.00000
     54       3.1311      2.00000
     55       4.9282      0.00000
     56       5.0710      0.00000
     57       6.5419      0.00000
     58       6.6242      0.00000
     59       7.5434      0.00000
     60       7.8470      0.00000
     61       8.5314      0.00000
     62       8.6210      0.00000
     63       9.0916      0.00000
     64       9.4164      0.00000
     65       9.5582      0.00000
     66       9.5906      0.00000
     67       9.9429      0.00000
     68      10.2610      0.00000
     69      10.3282      0.00000
     70      10.9323      0.00000
     71      11.4271      0.00000
     72      11.6757      0.00000
     73      11.9855      0.00000
     74      12.1498      0.00000
     75      12.3666      0.00000
     76      12.5544      0.00000
     77      12.9810      0.00000
     78      12.9864      0.00000
     79      13.3740      0.00000
     80      13.4963      0.00000
     81      13.8038      0.00000
     82      13.9315      0.00000
     83      14.2317      0.00000
     84      14.4633      0.00000
     85      14.6212      0.00000
     86      14.8782      0.00000
     87      15.0583      0.00000
     88      15.2060      0.00000
     89      15.4724      0.00000
     90      15.6127      0.00000
     91      16.3401      0.00000
     92      16.9154      0.00000
     93      17.1073      0.00000
     94      17.7951      0.00000
     95      18.3473      0.00000
     96      18.4166      0.00000
     97      18.7357      0.00000
     98      18.8916      0.00000
     99      19.4288      0.00000
    100      19.5718      0.00000
    101      19.8095      0.00000
    102      20.1121      0.00000
    103      20.2603      0.00000
    104      20.7044      0.00000
    105      21.0003      0.00000
    106      21.0497      0.00000
    107      21.4730      0.00000
    108      21.4879      0.00000
    109      21.6844      0.00000
    110      21.8481      0.00000
    111      22.0389      0.00000
    112      22.1454      0.00000
    113      22.2914      0.00000
    114      22.4563      0.00000
    115      22.5108      0.00000
    116      22.7879      0.00000
    117      22.8101      0.00000
    118      23.1174      0.00000
    119      23.3406      0.00000
    120      23.3847      0.00000
    121      23.7581      0.00000
    122      23.8168      0.00000
    123      24.1175      0.00000
    124      24.4068      0.00000
    125      24.9152      0.00000
    126      24.9737      0.00000
    127      25.6949      0.00000
    128      25.8314      0.00000
    129      26.2695      0.00000
    130      26.6125      0.00000
    131      26.7181      0.00000
    132      26.8607      0.00000
    133      26.9605      0.00000
    134      27.0112      0.00000
    135      27.3142      0.00000
    136      27.3807      0.00000
    137      27.4973      0.00000
    138      27.6375      0.00000
    139      27.8672      0.00000
    140      27.9103      0.00000

 k-point   119 :       0.0000    0.0000    0.3167
  band No.  band energies     occupation 
      1     -25.4536      2.00000
      2     -25.4509      2.00000
      3     -25.4396      2.00000
      4     -25.4393      2.00000
      5     -25.4100      2.00000
      6     -25.4098      2.00000
      7     -25.3875      2.00000
      8     -25.3871      2.00000
      9     -25.3821      2.00000
     10     -25.3816      2.00000
     11     -12.6476      2.00000
     12     -12.0001      2.00000
     13     -11.2244      2.00000
     14     -11.1516      2.00000
     15     -10.8299      2.00000
     16     -10.8271      2.00000
     17      -6.1738      2.00000
     18      -5.7164      2.00000
     19      -2.4969      2.00000
     20      -2.4804      2.00000
     21      -2.1836      2.00000
     22      -1.8743      2.00000
     23      -1.6769      2.00000
     24      -1.4672      2.00000
     25      -1.4025      2.00000
     26      -1.2900      2.00000
     27      -0.8378      2.00000
     28      -0.7143      2.00000
     29      -0.6244      2.00000
     30      -0.6196      2.00000
     31      -0.5418      2.00000
     32      -0.5373      2.00000
     33      -0.4275      2.00000
     34      -0.4265      2.00000
     35       0.5253      2.00000
     36       0.5757      2.00000
     37       0.5866      2.00000
     38       0.5867      2.00000
     39       0.6483      2.00000
     40       0.6504      2.00000
     41       0.6917      2.00000
     42       0.7489      2.00000
     43       0.8420      2.00000
     44       0.8761      2.00000
     45       0.9787      2.00000
     46       1.1127      2.00000
     47       1.2885      2.00000
     48       1.8207      2.00000
     49       1.9438      2.00000
     50       2.1699      2.00000
     51       2.5834      2.00000
     52       2.5916      2.00000
     53       3.0756      2.00000
     54       3.1107      2.00000
     55       4.9475      0.00000
     56       5.0721      0.00000
     57       6.5361      0.00000
     58       6.6108      0.00000
     59       7.6068      0.00000
     60       7.8774      0.00000
     61       8.5226      0.00000
     62       8.6294      0.00000
     63       9.1500      0.00000
     64       9.4046      0.00000
     65       9.5459      0.00000
     66       9.5820      0.00000
     67       9.9695      0.00000
     68      10.2504      0.00000
     69      10.3168      0.00000
     70      10.9356      0.00000
     71      11.4194      0.00000
     72      11.6241      0.00000
     73      11.9922      0.00000
     74      12.1335      0.00000
     75      12.3754      0.00000
     76      12.5346      0.00000
     77      12.9718      0.00000
     78      12.9918      0.00000
     79      13.3472      0.00000
     80      13.5253      0.00000
     81      13.8078      0.00000
     82      13.9460      0.00000
     83      14.2329      0.00000
     84      14.4347      0.00000
     85      14.5917      0.00000
     86      14.8339      0.00000
     87      15.0103      0.00000
     88      15.1485      0.00000
     89      15.4038      0.00000
     90      15.5622      0.00000
     91      16.4319      0.00000
     92      16.9815      0.00000
     93      17.1830      0.00000
     94      17.7208      0.00000
     95      18.3651      0.00000
     96      18.3707      0.00000
     97      18.8414      0.00000
     98      19.0054      0.00000
     99      19.4326      0.00000
    100      19.5754      0.00000
    101      19.8598      0.00000
    102      20.0882      0.00000
    103      20.3081      0.00000
    104      20.6907      0.00000
    105      21.0469      0.00000
    106      21.0869      0.00000
    107      21.5390      0.00000
    108      21.5975      0.00000
    109      21.7750      0.00000
    110      21.8749      0.00000
    111      22.0840      0.00000
    112      22.1411      0.00000
    113      22.3163      0.00000
    114      22.4573      0.00000
    115      22.5104      0.00000
    116      22.7612      0.00000
    117      22.8396      0.00000
    118      23.0931      0.00000
    119      23.3142      0.00000
    120      23.3757      0.00000
    121      23.6722      0.00000
    122      23.7998      0.00000
    123      24.0961      0.00000
    124      24.3239      0.00000
    125      24.8876      0.00000
    126      24.9252      0.00000
    127      25.6817      0.00000
    128      25.8097      0.00000
    129      26.2197      0.00000
    130      26.5588      0.00000
    131      26.5699      0.00000
    132      26.7178      0.00000
    133      26.9041      0.00000
    134      26.9236      0.00000
    135      27.3436      0.00000
    136      27.3687      0.00000
    137      27.4846      0.00000
    138      27.5653      0.00000
    139      27.8497      0.00000
    140      27.8575      0.00000

 k-point   120 :       0.0000    0.0000    0.3333
  band No.  band energies     occupation 
      1     -25.4532      2.00000
      2     -25.4507      2.00000
      3     -25.4393      2.00000
      4     -25.4390      2.00000
      5     -25.4097      2.00000
      6     -25.4095      2.00000
      7     -25.3872      2.00000
      8     -25.3868      2.00000
      9     -25.3818      2.00000
     10     -25.3814      2.00000
     11     -12.6249      2.00000
     12     -12.0324      2.00000
     13     -11.2184      2.00000
     14     -11.1529      2.00000
     15     -10.8296      2.00000
     16     -10.8270      2.00000
     17      -6.1495      2.00000
     18      -5.7310      2.00000
     19      -2.4727      2.00000
     20      -2.4545      2.00000
     21      -2.1923      2.00000
     22      -1.8723      2.00000
     23      -1.6887      2.00000
     24      -1.4557      2.00000
     25      -1.3960      2.00000
     26      -1.3309      2.00000
     27      -0.8396      2.00000
     28      -0.7177      2.00000
     29      -0.6219      2.00000
     30      -0.6196      2.00000
     31      -0.5425      2.00000
     32      -0.5320      2.00000
     33      -0.4310      2.00000
     34      -0.4282      2.00000
     35       0.5265      2.00000
     36       0.5736      2.00000
     37       0.5863      2.00000
     38       0.5867      2.00000
     39       0.6488      2.00000
     40       0.6509      2.00000
     41       0.6926      2.00000
     42       0.7529      2.00000
     43       0.8472      2.00000
     44       0.8706      2.00000
     45       0.9806      2.00000
     46       1.0982      2.00000
     47       1.3089      2.00000
     48       1.8112      2.00000
     49       1.9448      2.00000
     50       2.1214      2.00000
     51       2.6005      2.00000
     52       2.6140      2.00000
     53       3.0585      2.00000
     54       3.0896      2.00000
     55       4.9641      0.00000
     56       5.0726      0.00000
     57       6.5319      0.00000
     58       6.5986      0.00000
     59       7.6697      0.00000
     60       7.9060      0.00000
     61       8.5131      0.00000
     62       8.6345      0.00000
     63       9.2093      0.00000
     64       9.3910      0.00000
     65       9.5304      0.00000
     66       9.5804      0.00000
     67       9.9918      0.00000
     68      10.2431      0.00000
     69      10.3192      0.00000
     70      10.9326      0.00000
     71      11.4076      0.00000
     72      11.5693      0.00000
     73      11.9483      0.00000
     74      12.1703      0.00000
     75      12.3544      0.00000
     76      12.5354      0.00000
     77      12.9653      0.00000
     78      12.9982      0.00000
     79      13.3281      0.00000
     80      13.5547      0.00000
     81      13.8156      0.00000
     82      13.9626      0.00000
     83      14.2323      0.00000
     84      14.4027      0.00000
     85      14.5731      0.00000
     86      14.7848      0.00000
     87      14.9606      0.00000
     88      15.1019      0.00000
     89      15.3568      0.00000
     90      15.5093      0.00000
     91      16.5373      0.00000
     92      16.9746      0.00000
     93      17.2181      0.00000
     94      17.7136      0.00000
     95      18.3565      0.00000
     96      18.3793      0.00000
     97      18.9342      0.00000
     98      19.1309      0.00000
     99      19.4457      0.00000
    100      19.5817      0.00000
    101      19.8659      0.00000
    102      20.0820      0.00000
    103      20.3645      0.00000
    104      20.6586      0.00000
    105      21.0815      0.00000
    106      21.1277      0.00000
    107      21.5768      0.00000
    108      21.6719      0.00000
    109      21.8541      0.00000
    110      21.9194      0.00000
    111      22.1415      0.00000
    112      22.1535      0.00000
    113      22.3355      0.00000
    114      22.4641      0.00000
    115      22.4735      0.00000
    116      22.7839      0.00000
    117      22.8587      0.00000
    118      23.0713      0.00000
    119      23.2910      0.00000
    120      23.3479      0.00000
    121      23.6055      0.00000
    122      23.7722      0.00000
    123      24.0948      0.00000
    124      24.2797      0.00000
    125      24.8826      0.00000
    126      24.9047      0.00000
    127      25.6686      0.00000
    128      25.7901      0.00000
    129      26.1297      0.00000
    130      26.4281      0.00000
    131      26.4614      0.00000
    132      26.5382      0.00000
    133      26.8174      0.00000
    134      26.8791      0.00000
    135      27.3298      0.00000
    136      27.3447      0.00000
    137      27.5118      0.00000
    138      27.5293      0.00000
    139      27.8031      0.00000
    140      27.8354      0.00000

 k-point   121 :       0.0000    0.0000    0.3500
  band No.  band energies     occupation 
      1     -25.4529      2.00000
      2     -25.4506      2.00000
      3     -25.4391      2.00000
      4     -25.4388      2.00000
      5     -25.4095      2.00000
      6     -25.4093      2.00000
      7     -25.3869      2.00000
      8     -25.3866      2.00000
      9     -25.3815      2.00000
     10     -25.3812      2.00000
     11     -12.6012      2.00000
     12     -12.0649      2.00000
     13     -11.2127      2.00000
     14     -11.1544      2.00000
     15     -10.8293      2.00000
     16     -10.8270      2.00000
     17      -6.1251      2.00000
     18      -5.7462      2.00000
     19      -2.4635      2.00000
     20      -2.4105      2.00000
     21      -2.2018      2.00000
     22      -1.8720      2.00000
     23      -1.7003      2.00000
     24      -1.4439      2.00000
     25      -1.3972      2.00000
     26      -1.3662      2.00000
     27      -0.8398      2.00000
     28      -0.7211      2.00000
     29      -0.6205      2.00000
     30      -0.6198      2.00000
     31      -0.5422      2.00000
     32      -0.5272      2.00000
     33      -0.4346      2.00000
     34      -0.4302      2.00000
     35       0.5279      2.00000
     36       0.5714      2.00000
     37       0.5859      2.00000
     38       0.5868      2.00000
     39       0.6493      2.00000
     40       0.6513      2.00000
     41       0.6935      2.00000
     42       0.7554      2.00000
     43       0.8528      2.00000
     44       0.8669      2.00000
     45       0.9813      2.00000
     46       1.0835      2.00000
     47       1.3320      2.00000
     48       1.8004      2.00000
     49       1.9438      2.00000
     50       2.0771      2.00000
     51       2.6188      2.00000
     52       2.6368      2.00000
     53       3.0414      2.00000
     54       3.0680      2.00000
     55       4.9785      0.00000
     56       5.0726      0.00000
     57       6.5292      0.00000
     58       6.5877      0.00000
     59       7.7300      0.00000
     60       7.9318      0.00000
     61       8.5041      0.00000
     62       8.6366      0.00000
     63       9.2672      0.00000
     64       9.3770      0.00000
     65       9.5162      0.00000
     66       9.5848      0.00000
     67      10.0058      0.00000
     68      10.2377      0.00000
     69      10.3378      0.00000
     70      10.9231      0.00000
     71      11.3905      0.00000
     72      11.5136      0.00000
     73      11.8901      0.00000
     74      12.2242      0.00000
     75      12.3107      0.00000
     76      12.5478      0.00000
     77      12.9629      0.00000
     78      13.0047      0.00000
     79      13.3185      0.00000
     80      13.5826      0.00000
     81      13.8268      0.00000
     82      13.9794      0.00000
     83      14.2294      0.00000
     84      14.3697      0.00000
     85      14.5630      0.00000
     86      14.7345      0.00000
     87      14.9092      0.00000
     88      15.0671      0.00000
     89      15.3339      0.00000
     90      15.4560      0.00000
     91      16.6511      0.00000
     92      16.8956      0.00000
     93      17.2065      0.00000
     94      17.7716      0.00000
     95      18.3838      0.00000
     96      18.3958      0.00000
     97      19.0054      0.00000
     98      19.2598      0.00000
     99      19.4678      0.00000
    100      19.6003      0.00000
    101      19.8283      0.00000
    102      20.0915      0.00000
    103      20.4261      0.00000
    104      20.6239      0.00000
    105      21.1029      0.00000
    106      21.1654      0.00000
    107      21.5805      0.00000
    108      21.7160      0.00000
    109      21.9042      0.00000
    110      21.9738      0.00000
    111      22.1480      0.00000
    112      22.2372      0.00000
    113      22.3453      0.00000
    114      22.4290      0.00000
    115      22.4743      0.00000
    116      22.8500      0.00000
    117      22.8621      0.00000
    118      23.0709      0.00000
    119      23.2802      0.00000
    120      23.3061      0.00000
    121      23.5638      0.00000
    122      23.7094      0.00000
    123      24.1058      0.00000
    124      24.2843      0.00000
    125      24.9019      0.00000
    126      24.9160      0.00000
    127      25.6508      0.00000
    128      25.7707      0.00000
    129      25.9959      0.00000
    130      26.2989      0.00000
    131      26.3132      0.00000
    132      26.3645      0.00000
    133      26.7252      0.00000
    134      26.8554      0.00000
    135      27.2858      0.00000
    136      27.3192      0.00000
    137      27.5110      0.00000
    138      27.5540      0.00000
    139      27.7590      0.00000
    140      27.8103      0.00000

 k-point   122 :       0.0000    0.0000    0.3667
  band No.  band energies     occupation 
      1     -25.4525      2.00000
      2     -25.4505      2.00000
      3     -25.4388      2.00000
      4     -25.4385      2.00000
      5     -25.4092      2.00000
      6     -25.4091      2.00000
      7     -25.3867      2.00000
      8     -25.3864      2.00000
      9     -25.3813      2.00000
     10     -25.3810      2.00000
     11     -12.5766      2.00000
     12     -12.0974      2.00000
     13     -11.2073      2.00000
     14     -11.1559      2.00000
     15     -10.8290      2.00000
     16     -10.8269      2.00000
     17      -6.1007      2.00000
     18      -5.7622      2.00000
     19      -2.4529      2.00000
     20      -2.3653      2.00000
     21      -2.2122      2.00000
     22      -1.8732      2.00000
     23      -1.7111      2.00000
     24      -1.4322      2.00000
     25      -1.4293      2.00000
     26      -1.3724      2.00000
     27      -0.8383      2.00000
     28      -0.7246      2.00000
     29      -0.6221      2.00000
     30      -0.6182      2.00000
     31      -0.5409      2.00000
     32      -0.5230      2.00000
     33      -0.4383      2.00000
     34      -0.4323      2.00000
     35       0.5297      2.00000
     36       0.5690      2.00000
     37       0.5855      2.00000
     38       0.5869      2.00000
     39       0.6501      2.00000
     40       0.6517      2.00000
     41       0.6945      2.00000
     42       0.7562      2.00000
     43       0.8587      2.00000
     44       0.8654      2.00000
     45       0.9808      2.00000
     46       1.0687      2.00000
     47       1.3573      2.00000
     48       1.7881      2.00000
     49       1.9410      2.00000
     50       2.0372      2.00000
     51       2.6382      2.00000
     52       2.6598      2.00000
     53       3.0242      2.00000
     54       3.0457      2.00000
     55       4.9910      0.00000
     56       5.0721      0.00000
     57       6.5277      0.00000
     58       6.5785      0.00000
     59       7.7858      0.00000
     60       7.9541      0.00000
     61       8.4971      0.00000
     62       8.6364      0.00000
     63       9.3188      0.00000
     64       9.3642      0.00000
     65       9.5097      0.00000
     66       9.5941      0.00000
     67      10.0097      0.00000
     68      10.2331      0.00000
     69      10.3722      0.00000
     70      10.9073      0.00000
     71      11.3669      0.00000
     72      11.4593      0.00000
     73      11.8346      0.00000
     74      12.2549      0.00000
     75      12.2796      0.00000
     76      12.5606      0.00000
     77      12.9649      0.00000
     78      13.0108      0.00000
     79      13.3198      0.00000
     80      13.6072      0.00000
     81      13.8405      0.00000
     82      13.9944      0.00000
     83      14.2245      0.00000
     84      14.3391      0.00000
     85      14.5569      0.00000
     86      14.6858      0.00000
     87      14.8595      0.00000
     88      15.0440      0.00000
     89      15.3345      0.00000
     90      15.4043      0.00000
     91      16.7648      0.00000
     92      16.7735      0.00000
     93      17.1579      0.00000
     94      17.8614      0.00000
     95      18.4209      0.00000
     96      18.4488      0.00000
     97      19.0511      0.00000
     98      19.3800      0.00000
     99      19.4874      0.00000
    100      19.6498      0.00000
    101      19.7772      0.00000
    102      20.0903      0.00000
    103      20.4841      0.00000
    104      20.5993      0.00000
    105      21.1153      0.00000
    106      21.1994      0.00000
    107      21.5540      0.00000
    108      21.7323      0.00000
    109      21.9305      0.00000
    110      22.0162      0.00000
    111      22.1593      0.00000
    112      22.2446      0.00000
    113      22.3365      0.00000
    114      22.4868      0.00000
    115      22.4946      0.00000
    116      22.8468      0.00000
    117      22.9335      0.00000
    118      23.1058      0.00000
    119      23.2657      0.00000
    120      23.2834      0.00000
    121      23.5422      0.00000
    122      23.6184      0.00000
    123      24.1299      0.00000
    124      24.3258      0.00000
    125      24.9389      0.00000
    126      24.9565      0.00000
    127      25.6220      0.00000
    128      25.7478      0.00000
    129      25.8362      0.00000
    130      26.1394      0.00000
    131      26.1695      0.00000
    132      26.1976      0.00000
    133      26.6497      0.00000
    134      26.8429      0.00000
    135      27.2318      0.00000
    136      27.2968      0.00000
    137      27.4829      0.00000
    138      27.5881      0.00000
    139      27.7107      0.00000
    140      27.7929      0.00000

 k-point   123 :       0.0000    0.0000    0.3833
  band No.  band energies     occupation 
      1     -25.4522      2.00000
      2     -25.4504      2.00000
      3     -25.4386      2.00000
      4     -25.4383      2.00000
      5     -25.4090      2.00000
      6     -25.4089      2.00000
      7     -25.3865      2.00000
      8     -25.3862      2.00000
      9     -25.3811      2.00000
     10     -25.3808      2.00000
     11     -12.5512      2.00000
     12     -12.1300      2.00000
     13     -11.2023      2.00000
     14     -11.1577      2.00000
     15     -10.8287      2.00000
     16     -10.8269      2.00000
     17      -6.0764      2.00000
     18      -5.7789      2.00000
     19      -2.4411      2.00000
     20      -2.3197      2.00000
     21      -2.2227      2.00000
     22      -1.8758      2.00000
     23      -1.7209      2.00000
     24      -1.4736      2.00000
     25      -1.4209      2.00000
     26      -1.3683      2.00000
     27      -0.8353      2.00000
     28      -0.7286      2.00000
     29      -0.6240      2.00000
     30      -0.6171      2.00000
     31      -0.5388      2.00000
     32      -0.5193      2.00000
     33      -0.4418      2.00000
     34      -0.4345      2.00000
     35       0.5317      2.00000
     36       0.5667      2.00000
     37       0.5852      2.00000
     38       0.5869      2.00000
     39       0.6508      2.00000
     40       0.6521      2.00000
     41       0.6958      2.00000
     42       0.7551      2.00000
     43       0.8648      2.00000
     44       0.8661      2.00000
     45       0.9796      2.00000
     46       1.0543      2.00000
     47       1.3846      2.00000
     48       1.7738      2.00000
     49       1.9367      2.00000
     50       2.0022      2.00000
     51       2.6585      2.00000
     52       2.6828      2.00000
     53       3.0068      2.00000
     54       3.0231      2.00000
     55       5.0019      0.00000
     56       5.0712      0.00000
     57       6.5274      0.00000
     58       6.5708      0.00000
     59       7.8353      0.00000
     60       7.9721      0.00000
     61       8.4937      0.00000
     62       8.6344      0.00000
     63       9.3534      0.00000
     64       9.3544      0.00000
     65       9.5214      0.00000
     66       9.6074      0.00000
     67      10.0051      0.00000
     68      10.2278      0.00000
     69      10.4190      0.00000
     70      10.8859      0.00000
     71      11.3359      0.00000
     72      11.4079      0.00000
     73      11.7884      0.00000
     74      12.1927      0.00000
     75      12.3315      0.00000
     76      12.5694      0.00000
     77      12.9709      0.00000
     78      13.0157      0.00000
     79      13.3323      0.00000
     80      13.6275      0.00000
     81      13.8545      0.00000
     82      14.0055      0.00000
     83      14.2183      0.00000
     84      14.3142      0.00000
     85      14.5492      0.00000
     86      14.6408      0.00000
     87      14.8175      0.00000
     88      15.0318      0.00000
     89      15.3566      0.00000
     90      15.3570      0.00000
     91      16.6321      0.00000
     92      16.8506      0.00000
     93      17.1092      0.00000
     94      17.9521      0.00000
     95      18.4617      0.00000
     96      18.5390      0.00000
     97      19.0733      0.00000
     98      19.4611      0.00000
     99      19.5038      0.00000
    100      19.7321      0.00000
    101      19.7528      0.00000
    102      20.0677      0.00000
    103      20.5267      0.00000
    104      20.5878      0.00000
    105      21.1297      0.00000
    106      21.2327      0.00000
    107      21.5027      0.00000
    108      21.7194      0.00000
    109      21.9424      0.00000
    110      22.0313      0.00000
    111      22.1608      0.00000
    112      22.1675      0.00000
    113      22.3712      0.00000
    114      22.5390      0.00000
    115      22.5910      0.00000
    116      22.8138      0.00000
    117      23.0163      0.00000
    118      23.1737      0.00000
    119      23.2470      0.00000
    120      23.2968      0.00000
    121      23.5248      0.00000
    122      23.5383      0.00000
    123      24.1714      0.00000
    124      24.3863      0.00000
    125      24.9786      0.00000
    126      25.0174      0.00000
    127      25.5690      0.00000
    128      25.6712      0.00000
    129      25.7142      0.00000
    130      25.9789      0.00000
    131      26.0296      0.00000
    132      26.0415      0.00000
    133      26.5987      0.00000
    134      26.8327      0.00000
    135      27.1748      0.00000
    136      27.2739      0.00000
    137      27.4391      0.00000
    138      27.5767      0.00000
    139      27.6831      0.00000
    140      27.7808      0.00000

 k-point   124 :       0.0000    0.0000    0.4000
  band No.  band energies     occupation 
      1     -25.4519      2.00000
      2     -25.4504      2.00000
      3     -25.4384      2.00000
      4     -25.4382      2.00000
      5     -25.4088      2.00000
      6     -25.4087      2.00000
      7     -25.3863      2.00000
      8     -25.3861      2.00000
      9     -25.3809      2.00000
     10     -25.3806      2.00000
     11     -12.5249      2.00000
     12     -12.1625      2.00000
     13     -11.1975      2.00000
     14     -11.1596      2.00000
     15     -10.8284      2.00000
     16     -10.8268      2.00000
     17      -6.0522      2.00000
     18      -5.7964      2.00000
     19      -2.4281      2.00000
     20      -2.2776      2.00000
     21      -2.2299      2.00000
     22      -1.8802      2.00000
     23      -1.7292      2.00000
     24      -1.5193      2.00000
     25      -1.4101      2.00000
     26      -1.3639      2.00000
     27      -0.8308      2.00000
     28      -0.7334      2.00000
     29      -0.6259      2.00000
     30      -0.6166      2.00000
     31      -0.5359      2.00000
     32      -0.5162      2.00000
     33      -0.4450      2.00000
     34      -0.4369      2.00000
     35       0.5339      2.00000
     36       0.5643      2.00000
     37       0.5849      2.00000
     38       0.5868      2.00000
     39       0.6517      2.00000
     40       0.6524      2.00000
     41       0.6974      2.00000
     42       0.7522      2.00000
     43       0.8687      2.00000
     44       0.8710      2.00000
     45       0.9777      2.00000
     46       1.0402      2.00000
     47       1.4135      2.00000
     48       1.7571      2.00000
     49       1.9313      2.00000
     50       1.9724      2.00000
     51       2.6796      2.00000
     52       2.7055      2.00000
     53       2.9892      2.00000
     54       3.0002      2.00000
     55       5.0117      0.00000
     56       5.0698      0.00000
     57       6.5280      0.00000
     58       6.5646      0.00000
     59       7.8772      0.00000
     60       7.9855      0.00000
     61       8.4950      0.00000
     62       8.6309      0.00000
     63       9.3448      0.00000
     64       9.3677      0.00000
     65       9.5576      0.00000
     66       9.6243      0.00000
     67       9.9947      0.00000
     68      10.2198      0.00000
     69      10.4738      0.00000
     70      10.8605      0.00000
     71      11.2981      0.00000
     72      11.3603      0.00000
     73      11.7543      0.00000
     74      12.1272      0.00000
     75      12.3778      0.00000
     76      12.5735      0.00000
     77      12.9797      0.00000
     78      13.0196      0.00000
     79      13.3553      0.00000
     80      13.6428      0.00000
     81      13.8662      0.00000
     82      14.0107      0.00000
     83      14.2123      0.00000
     84      14.2972      0.00000
     85      14.5344      0.00000
     86      14.6004      0.00000
     87      14.7901      0.00000
     88      15.0279      0.00000
     89      15.3183      0.00000
     90      15.3974      0.00000
     91      16.4844      0.00000
     92      16.8344      0.00000
     93      17.1443      0.00000
     94      18.0228      0.00000
     95      18.5243      0.00000
     96      18.6407      0.00000
     97      19.0780      0.00000
     98      19.4631      0.00000
     99      19.5284      0.00000
    100      19.7887      0.00000
    101      19.8321      0.00000
    102      20.0411      0.00000
    103      20.5421      0.00000
    104      20.5807      0.00000
    105      21.1594      0.00000
    106      21.2701      0.00000
    107      21.4311      0.00000
    108      21.6722      0.00000
    109      21.9446      0.00000
    110      22.0232      0.00000
    111      22.0825      0.00000
    112      22.1644      0.00000
    113      22.4065      0.00000
    114      22.6033      0.00000
    115      22.6751      0.00000
    116      22.7767      0.00000
    117      23.0822      0.00000
    118      23.2171      0.00000
    119      23.2744      0.00000
    120      23.3326      0.00000
    121      23.4759      0.00000
    122      23.5586      0.00000
    123      24.2321      0.00000
    124      24.4530      0.00000
    125      24.9959      0.00000
    126      25.0839      0.00000
    127      25.4735      0.00000
    128      25.5300      0.00000
    129      25.6367      0.00000
    130      25.8229      0.00000
    131      25.9060      0.00000
    132      25.9499      0.00000
    133      26.5679      0.00000
    134      26.8140      0.00000
    135      27.1221      0.00000
    136      27.2433      0.00000
    137      27.3825      0.00000
    138      27.5027      0.00000
    139      27.6943      0.00000
    140      27.7576      0.00000

 k-point   125 :       0.0000    0.0000    0.4167
  band No.  band energies     occupation 
      1     -25.4516      2.00000
      2     -25.4504      2.00000
      3     -25.4382      2.00000
      4     -25.4380      2.00000
      5     -25.4087      2.00000
      6     -25.4086      2.00000
      7     -25.3861      2.00000
      8     -25.3859      2.00000
      9     -25.3807      2.00000
     10     -25.3805      2.00000
     11     -12.4979      2.00000
     12     -12.1948      2.00000
     13     -11.1931      2.00000
     14     -11.1616      2.00000
     15     -10.8281      2.00000
     16     -10.8268      2.00000
     17      -6.0283      2.00000
     18      -5.8145      2.00000
     19      -2.4141      2.00000
     20      -2.2628      2.00000
     21      -2.2100      2.00000
     22      -1.8866      2.00000
     23      -1.7359      2.00000
     24      -1.5644      2.00000
     25      -1.4001      2.00000
     26      -1.3606      2.00000
     27      -0.8249      2.00000
     28      -0.7390      2.00000
     29      -0.6274      2.00000
     30      -0.6166      2.00000
     31      -0.5326      2.00000
     32      -0.5139      2.00000
     33      -0.4477      2.00000
     34      -0.4395      2.00000
     35       0.5362      2.00000
     36       0.5618      2.00000
     37       0.5847      2.00000
     38       0.5867      2.00000
     39       0.6524      2.00000
     40       0.6528      2.00000
     41       0.6995      2.00000
     42       0.7478      2.00000
     43       0.8728      2.00000
     44       0.8771      2.00000
     45       0.9756      2.00000
     46       1.0268      2.00000
     47       1.4438      2.00000
     48       1.7377      2.00000
     49       1.9252      2.00000
     50       1.9481      2.00000
     51       2.7013      2.00000
     52       2.7276      2.00000
     53       2.9715      2.00000
     54       2.9773      2.00000
     55       5.0203      0.00000
     56       5.0680      0.00000
     57       6.5295      0.00000
     58       6.5595      0.00000
     59       7.9109      0.00000
     60       7.9943      0.00000
     61       8.5017      0.00000
     62       8.6263      0.00000
     63       9.3384      0.00000
     64       9.3663      0.00000
     65       9.6097      0.00000
     66       9.6441      0.00000
     67       9.9815      0.00000
     68      10.2073      0.00000
     69      10.5323      0.00000
     70      10.8337      0.00000
     71      11.2561      0.00000
     72      11.3165      0.00000
     73      11.7332      0.00000
     74      12.0609      0.00000
     75      12.4176      0.00000
     76      12.5735      0.00000
     77      12.9898      0.00000
     78      13.0225      0.00000
     79      13.3870      0.00000
     80      13.6528      0.00000
     81      13.8739      0.00000
     82      14.0081      0.00000
     83      14.2087      0.00000
     84      14.2890      0.00000
     85      14.5103      0.00000
     86      14.5649      0.00000
     87      14.7809      0.00000
     88      15.0263      0.00000
     89      15.2952      0.00000
     90      15.4539      0.00000
     91      16.3379      0.00000
     92      16.7327      0.00000
     93      17.2537      0.00000
     94      18.0634      0.00000
     95      18.6071      0.00000
     96      18.7419      0.00000
     97      19.0727      0.00000
     98      19.4153      0.00000
     99      19.5678      0.00000
    100      19.8180      0.00000
    101      19.9345      0.00000
    102      20.0639      0.00000
    103      20.5300      0.00000
    104      20.5667      0.00000
    105      21.2120      0.00000
    106      21.3095      0.00000
    107      21.3487      0.00000
    108      21.5864      0.00000
    109      21.9383      0.00000
    110      22.0029      0.00000
    111      22.0322      0.00000
    112      22.1510      0.00000
    113      22.4378      0.00000
    114      22.6398      0.00000
    115      22.7128      0.00000
    116      22.7759      0.00000
    117      23.1209      0.00000
    118      23.1617      0.00000
    119      23.3620      0.00000
    120      23.4048      0.00000
    121      23.5316      0.00000
    122      23.6120      0.00000
    123      24.3093      0.00000
    124      24.5168      0.00000
    125      24.9592      0.00000
    126      25.1276      0.00000
    127      25.3446      0.00000
    128      25.4304      0.00000
    129      25.5061      0.00000
    130      25.6521      0.00000
    131      25.8672      0.00000
    132      25.9259      0.00000
    133      26.5512      0.00000
    134      26.7748      0.00000
    135      27.0853      0.00000
    136      27.1920      0.00000
    137      27.3141      0.00000
    138      27.4171      0.00000
    139      27.7100      0.00000
    140      27.7205      0.00000

 k-point   126 :       0.0000    0.0000    0.4333
  band No.  band energies     occupation 
      1     -25.4514      2.00000
      2     -25.4504      2.00000
      3     -25.4381      2.00000
      4     -25.4379      2.00000
      5     -25.4085      2.00000
      6     -25.4084      2.00000
      7     -25.3860      2.00000
      8     -25.3858      2.00000
      9     -25.3805      2.00000
     10     -25.3804      2.00000
     11     -12.4701      2.00000
     12     -12.2270      2.00000
     13     -11.1889      2.00000
     14     -11.1638      2.00000
     15     -10.8279      2.00000
     16     -10.8268      2.00000
     17      -6.0048      2.00000
     18      -5.8332      2.00000
     19      -2.3993      2.00000
     20      -2.2727      2.00000
     21      -2.1661      2.00000
     22      -1.8961      2.00000
     23      -1.7405      2.00000
     24      -1.6075      2.00000
     25      -1.3910      2.00000
     26      -1.3585      2.00000
     27      -0.8177      2.00000
     28      -0.7457      2.00000
     29      -0.6281      2.00000
     30      -0.6173      2.00000
     31      -0.5289      2.00000
     32      -0.5123      2.00000
     33      -0.4499      2.00000
     34      -0.4420      2.00000
     35       0.5387      2.00000
     36       0.5594      2.00000
     37       0.5845      2.00000
     38       0.5864      2.00000
     39       0.6531      2.00000
     40       0.6532      2.00000
     41       0.7022      2.00000
     42       0.7426      2.00000
     43       0.8776      2.00000
     44       0.8828      2.00000
     45       0.9737      2.00000
     46       1.0143      2.00000
     47       1.4749      2.00000
     48       1.7154      2.00000
     49       1.9189      2.00000
     50       1.9294      2.00000
     51       2.7231      2.00000
     52       2.7488      2.00000
     53       2.9539      2.00000
     54       2.9550      2.00000
     55       5.0281      0.00000
     56       5.0657      0.00000
     57       6.5315      0.00000
     58       6.5553      0.00000
     59       7.9366      0.00000
     60       7.9988      0.00000
     61       8.5132      0.00000
     62       8.6204      0.00000
     63       9.3341      0.00000
     64       9.3595      0.00000
     65       9.6661      0.00000
     66       9.6663      0.00000
     67       9.9688      0.00000
     68      10.1882      0.00000
     69      10.5903      0.00000
     70      10.8084      0.00000
     71      11.2144      0.00000
     72      11.2760      0.00000
     73      11.7242      0.00000
     74      11.9961      0.00000
     75      12.4511      0.00000
     76      12.5702      0.00000
     77      12.9998      0.00000
     78      13.0247      0.00000
     79      13.4250      0.00000
     80      13.6568      0.00000
     81      13.8782      0.00000
     82      13.9976      0.00000
     83      14.2096      0.00000
     84      14.2877      0.00000
     85      14.4808      0.00000
     86      14.5336      0.00000
     87      14.7879      0.00000
     88      15.0184      0.00000
     89      15.2971      0.00000
     90      15.5215      0.00000
     91      16.1993      0.00000
     92      16.6049      0.00000
     93      17.3820      0.00000
     94      18.0738      0.00000
     95      18.6980      0.00000
     96      18.8301      0.00000
     97      19.0685      0.00000
     98      19.3612      0.00000
     99      19.6218      0.00000
    100      19.7885      0.00000
    101      20.0225      0.00000
    102      20.1567      0.00000
    103      20.5088      0.00000
    104      20.5428      0.00000
    105      21.2365      0.00000
    106      21.2833      0.00000
    107      21.3749      0.00000
    108      21.4681      0.00000
    109      21.9270      0.00000
    110      21.9775      0.00000
    111      22.0086      0.00000
    112      22.1305      0.00000
    113      22.4632      0.00000
    114      22.6156      0.00000
    115      22.7112      0.00000
    116      22.8279      0.00000
    117      23.0781      0.00000
    118      23.1378      0.00000
    119      23.4754      0.00000
    120      23.4928      0.00000
    121      23.6656      0.00000
    122      23.6995      0.00000
    123      24.3943      0.00000
    124      24.5691      0.00000
    125      24.8642      0.00000
    126      25.0702      0.00000
    127      25.2616      0.00000
    128      25.3107      0.00000
    129      25.4125      0.00000
    130      25.4933      0.00000
    131      25.8891      0.00000
    132      25.9549      0.00000
    133      26.5429      0.00000
    134      26.7113      0.00000
    135      27.0673      0.00000
    136      27.1068      0.00000
    137      27.2378      0.00000
    138      27.3509      0.00000
    139      27.6852      0.00000
    140      27.7166      0.00000

 k-point   127 :       0.0000    0.0000    0.4500
  band No.  band energies     occupation 
      1     -25.4512      2.00000
      2     -25.4504      2.00000
      3     -25.4379      2.00000
      4     -25.4378      2.00000
      5     -25.4084      2.00000
      6     -25.4084      2.00000
      7     -25.3858      2.00000
      8     -25.3857      2.00000
      9     -25.3804      2.00000
     10     -25.3803      2.00000
     11     -12.4416      2.00000
     12     -12.2589      2.00000
     13     -11.1849      2.00000
     14     -11.1662      2.00000
     15     -10.8277      2.00000
     16     -10.8269      2.00000
     17      -5.9816      2.00000
     18      -5.8527      2.00000
     19      -2.3838      2.00000
     20      -2.2869      2.00000
     21      -2.1192      2.00000
     22      -1.9098      2.00000
     23      -1.7425      2.00000
     24      -1.6468      2.00000
     25      -1.3827      2.00000
     26      -1.3579      2.00000
     27      -0.8095      2.00000
     28      -0.7535      2.00000
     29      -0.6280      2.00000
     30      -0.6185      2.00000
     31      -0.5252      2.00000
     32      -0.5117      2.00000
     33      -0.4513      2.00000
     34      -0.4445      2.00000
     35       0.5413      2.00000
     36       0.5569      2.00000
     37       0.5845      2.00000
     38       0.5860      2.00000
     39       0.6536      2.00000
     40       0.6537      2.00000
     41       0.7055      2.00000
     42       0.7367      2.00000
     43       0.8827      2.00000
     44       0.8878      2.00000
     45       0.9724      2.00000
     46       1.0029      2.00000
     47       1.5068      2.00000
     48       1.6903      2.00000
     49       1.9128      2.00000
     50       1.9160      2.00000
     51       2.7446      2.00000
     52       2.7680      2.00000
     53       2.9339      2.00000
     54       2.9367      2.00000
     55       5.0350      0.00000
     56       5.0630      0.00000
     57       6.5340      0.00000
     58       6.5517      0.00000
     59       7.9556      0.00000
     60       7.9998      0.00000
     61       8.5284      0.00000
     62       8.6131      0.00000
     63       9.3316      0.00000
     64       9.3517      0.00000
     65       9.6902      0.00000
     66       9.7170      0.00000
     67       9.9617      0.00000
     68      10.1608      0.00000
     69      10.6438      0.00000
     70      10.7873      0.00000
     71      11.1785      0.00000
     72      11.2383      0.00000
     73      11.7263      0.00000
     74      11.9348      0.00000
     75      12.4787      0.00000
     76      12.5645      0.00000
     77      13.0088      0.00000
     78      13.0263      0.00000
     79      13.4665      0.00000
     80      13.6530      0.00000
     81      13.8818      0.00000
     82      13.9803      0.00000
     83      14.2160      0.00000
     84      14.2892      0.00000
     85      14.4533      0.00000
     86      14.5058      0.00000
     87      14.8065      0.00000
     88      14.9985      0.00000
     89      15.3288      0.00000
     90      15.5905      0.00000
     91      16.0792      0.00000
     92      16.4698      0.00000
     93      17.5128      0.00000
     94      18.0571      0.00000
     95      18.7798      0.00000
     96      18.8888      0.00000
     97      19.0825      0.00000
     98      19.3199      0.00000
     99      19.6839      0.00000
    100      19.7423      0.00000
    101      20.0742      0.00000
    102      20.2536      0.00000
    103      20.5134      0.00000
    104      20.5290      0.00000
    105      21.1272      0.00000
    106      21.3215      0.00000
    107      21.3709      0.00000
    108      21.4334      0.00000
    109      21.9150      0.00000
    110      21.9508      0.00000
    111      21.9999      0.00000
    112      22.1047      0.00000
    113      22.4809      0.00000
    114      22.5767      0.00000
    115      22.6940      0.00000
    116      22.8544      0.00000
    117      23.0280      0.00000
    118      23.1404      0.00000
    119      23.5603      0.00000
    120      23.6400      0.00000
    121      23.8138      0.00000
    122      23.8253      0.00000
    123      24.4654      0.00000
    124      24.6002      0.00000
    125      24.7569      0.00000
    126      24.9093      0.00000
    127      25.1346      0.00000
    128      25.2143      0.00000
    129      25.3810      0.00000
    130      25.3882      0.00000
    131      25.9572      0.00000
    132      26.0179      0.00000
    133      26.5359      0.00000
    134      26.6308      0.00000
    135      26.9991      0.00000
    136      27.0471      0.00000
    137      27.1753      0.00000
    138      27.3067      0.00000
    139      27.6657      0.00000
    140      27.7155      0.00000

 k-point   128 :       0.0000    0.0000    0.4667
  band No.  band energies     occupation 
      1     -25.4510      2.00000
      2     -25.4504      2.00000
      3     -25.4378      2.00000
      4     -25.4378      2.00000
      5     -25.4083      2.00000
      6     -25.4083      2.00000
      7     -25.3857      2.00000
      8     -25.3857      2.00000
      9     -25.3803      2.00000
     10     -25.3802      2.00000
     11     -12.4125      2.00000
     12     -12.2905      2.00000
     13     -11.1813      2.00000
     14     -11.1688      2.00000
     15     -10.8275      2.00000
     16     -10.8270      2.00000
     17      -5.9588      2.00000
     18      -5.8727      2.00000
     19      -2.3678      2.00000
     20      -2.3024      2.00000
     21      -2.0729      2.00000
     22      -1.9293      2.00000
     23      -1.7412      2.00000
     24      -1.6803      2.00000
     25      -1.3756      2.00000
     26      -1.3588      2.00000
     27      -0.8005      2.00000
     28      -0.7622      2.00000
     29      -0.6272      2.00000
     30      -0.6201      2.00000
     31      -0.5216      2.00000
     32      -0.5121      2.00000
     33      -0.4519      2.00000
     34      -0.4469      2.00000
     35       0.5439      2.00000
     36       0.5544      2.00000
     37       0.5845      2.00000
     38       0.5857      2.00000
     39       0.6539      2.00000
     40       0.6540      2.00000
     41       0.7094      2.00000
     42       0.7307      2.00000
     43       0.8874      2.00000
     44       0.8914      2.00000
     45       0.9723      2.00000
     46       0.9928      2.00000
     47       1.5389      2.00000
     48       1.6627      2.00000
     49       1.9075      2.00000
     50       1.9076      2.00000
     51       2.7649      2.00000
     52       2.7839      2.00000
     53       2.9157      2.00000
     54       2.9207      2.00000
     55       5.0413      0.00000
     56       5.0598      0.00000
     57       6.5367      0.00000
     58       6.5485      0.00000
     59       7.9695      0.00000
     60       7.9978      0.00000
     61       8.5454      0.00000
     62       8.6038      0.00000
     63       9.3310      0.00000
     64       9.3445      0.00000
     65       9.7146      0.00000
     66       9.7521      0.00000
     67       9.9685      0.00000
     68      10.1250      0.00000
     69      10.6887      0.00000
     70      10.7711      0.00000
     71      11.1540      0.00000
     72      11.2036      0.00000
     73      11.7384      0.00000
     74      11.8793      0.00000
     75      12.5012      0.00000
     76      12.5566      0.00000
     77      13.0162      0.00000
     78      13.0271      0.00000
     79      13.5090      0.00000
     80      13.6400      0.00000
     81      13.8883      0.00000
     82      13.9591      0.00000
     83      14.2275      0.00000
     84      14.2871      0.00000
     85      14.4355      0.00000
     86      14.4808      0.00000
     87      14.8328      0.00000
     88      14.9687      0.00000
     89      15.3867      0.00000
     90      15.6359      0.00000
     91      16.0030      0.00000
     92      16.3349      0.00000
     93      17.6397      0.00000
     94      18.0153      0.00000
     95      18.8388      0.00000
     96      18.9085      0.00000
     97      19.1256      0.00000
     98      19.2944      0.00000
     99      19.7102      0.00000
    100      19.7375      0.00000
    101      20.0872      0.00000
    102      20.2770      0.00000
    103      20.5682      0.00000
    104      20.5841      0.00000
    105      21.0121      0.00000
    106      21.1750      0.00000
    107      21.4444      0.00000
    108      21.4889      0.00000
    109      21.9032      0.00000
    110      21.9246      0.00000
    111      21.9998      0.00000
    112      22.0760      0.00000
    113      22.4903      0.00000
    114      22.5420      0.00000
    115      22.6825      0.00000
    116      22.8158      0.00000
    117      23.0413      0.00000
    118      23.1338      0.00000
    119      23.6611      0.00000
    120      23.7725      0.00000
    121      23.9501      0.00000
    122      23.9891      0.00000
    123      24.4624      0.00000
    124      24.5973      0.00000
    125      24.7202      0.00000
    126      24.7344      0.00000
    127      24.9629      0.00000
    128      25.1185      0.00000
    129      25.3405      0.00000
    130      25.3713      0.00000
    131      26.0565      0.00000
    132      26.1006      0.00000
    133      26.5162      0.00000
    134      26.5434      0.00000
    135      26.9026      0.00000
    136      26.9905      0.00000
    137      27.1618      0.00000
    138      27.2722      0.00000
    139      27.6619      0.00000
    140      27.7089      0.00000

 k-point   129 :       0.0000    0.0000    0.4833
  band No.  band energies     occupation 
      1     -25.4508      2.00000
      2     -25.4505      2.00000
      3     -25.4378      2.00000
      4     -25.4377      2.00000
      5     -25.4083      2.00000
      6     -25.4083      2.00000
      7     -25.3857      2.00000
      8     -25.3856      2.00000
      9     -25.3803      2.00000
     10     -25.3802      2.00000
     11     -12.3827      2.00000
     12     -12.3217      2.00000
     13     -11.1778      2.00000
     14     -11.1716      2.00000
     15     -10.8273      2.00000
     16     -10.8271      2.00000
     17      -5.9365      2.00000
     18      -5.8934      2.00000
     19      -2.3514      2.00000
     20      -2.3185      2.00000
     21      -2.0291      2.00000
     22      -1.9559      2.00000
     23      -1.7357      2.00000
     24      -1.7063      2.00000
     25      -1.3695      2.00000
     26      -1.3610      2.00000
     27      -0.7910      2.00000
     28      -0.7715      2.00000
     29      -0.6257      2.00000
     30      -0.6219      2.00000
     31      -0.5183      2.00000
     32      -0.5134      2.00000
     33      -0.4516      2.00000
     34      -0.4490      2.00000
     35       0.5466      2.00000
     36       0.5518      2.00000
     37       0.5847      2.00000
     38       0.5853      2.00000
     39       0.6541      2.00000
     40       0.6542      2.00000
     41       0.7140      2.00000
     42       0.7248      2.00000
     43       0.8911      2.00000
     44       0.8933      2.00000
     45       0.9741      2.00000
     46       0.9845      2.00000
     47       1.5709      2.00000
     48       1.6333      2.00000
     49       1.9031      2.00000
     50       1.9039      2.00000
     51       2.7820      2.00000
     52       2.7933      2.00000
     53       2.9033      2.00000
     54       2.9076      2.00000
     55       5.0468      0.00000
     56       5.0561      0.00000
     57       6.5396      0.00000
     58       6.5455      0.00000
     59       7.9798      0.00000
     60       7.9936      0.00000
     61       8.5626      0.00000
     62       8.5923      0.00000
     63       9.3320      0.00000
     64       9.3388      0.00000
     65       9.7377      0.00000
     66       9.7639      0.00000
     67       9.9952      0.00000
     68      10.0822      0.00000
     69      10.7219      0.00000
     70      10.7581      0.00000
     71      11.1451      0.00000
     72      11.1738      0.00000
     73      11.7600      0.00000
     74      11.8309      0.00000
     75      12.5195      0.00000
     76      12.5466      0.00000
     77      13.0216      0.00000
     78      13.0268      0.00000
     79      13.5499      0.00000
     80      13.6176      0.00000
     81      13.8998      0.00000
     82      13.9369      0.00000
     83      14.2432      0.00000
     84      14.2771      0.00000
     85      14.4322      0.00000
     86      14.4589      0.00000
     87      14.8641      0.00000
     88      14.9342      0.00000
     89      15.4627      0.00000
     90      15.6175      0.00000
     91      16.0107      0.00000
     92      16.2061      0.00000
     93      17.7578      0.00000
     94      17.9497      0.00000
     95      18.8734      0.00000
     96      18.9049      0.00000
     97      19.1823      0.00000
     98      19.2712      0.00000
     99      19.7087      0.00000
    100      19.7559      0.00000
    101      20.1045      0.00000
    102      20.2262      0.00000
    103      20.6610      0.00000
    104      20.7078      0.00000
    105      20.8957      0.00000
    106      21.0197      0.00000
    107      21.5056      0.00000
    108      21.5281      0.00000
    109      21.8928      0.00000
    110      21.9023      0.00000
    111      22.0079      0.00000
    112      22.0479      0.00000
    113      22.4945      0.00000
    114      22.5162      0.00000
    115      22.6888      0.00000
    116      22.7602      0.00000
    117      23.0731      0.00000
    118      23.1203      0.00000
    119      23.7650      0.00000
    120      23.8502      0.00000
    121      24.1040      0.00000
    122      24.1370      0.00000
    123      24.3914      0.00000
    124      24.5048      0.00000
    125      24.6372      0.00000
    126      24.7258      0.00000
    127      24.8617      0.00000
    128      25.0126      0.00000
    129      25.3329      0.00000
    130      25.3540      0.00000
    131      26.1655      0.00000
    132      26.1862      0.00000
    133      26.4596      0.00000
    134      26.4660      0.00000
    135      26.8548      0.00000
    136      26.9198      0.00000
    137      27.1806      0.00000
    138      27.2403      0.00000
    139      27.6657      0.00000
    140      27.6926      0.00000

 k-point   130 :       0.0000    0.0000    0.5000
  band No.  band energies     occupation 
      1     -25.4506      2.00000
      2     -25.4506      2.00000
      3     -25.4377      2.00000
      4     -25.4377      2.00000
      5     -25.4082      2.00000
      6     -25.4082      2.00000
      7     -25.3856      2.00000
      8     -25.3856      2.00000
      9     -25.3802      2.00000
     10     -25.3802      2.00000
     11     -12.3525      2.00000
     12     -12.3525      2.00000
     13     -11.1746      2.00000
     14     -11.1746      2.00000
     15     -10.8272      2.00000
     16     -10.8272      2.00000
     17      -5.9147      2.00000
     18      -5.9147      2.00000
     19      -2.3349      2.00000
     20      -2.3349      2.00000
     21      -1.9895      2.00000
     22      -1.9895      2.00000
     23      -1.7245      2.00000
     24      -1.7245      2.00000
     25      -1.3646      2.00000
     26      -1.3646      2.00000
     27      -0.7812      2.00000
     28      -0.7812      2.00000
     29      -0.6239      2.00000
     30      -0.6239      2.00000
     31      -0.5155      2.00000
     32      -0.5155      2.00000
     33      -0.4506      2.00000
     34      -0.4506      2.00000
     35       0.5492      2.00000
     36       0.5492      2.00000
     37       0.5850      2.00000
     38       0.5850      2.00000
     39       0.6542      2.00000
     40       0.6542      2.00000
     41       0.7191      2.00000
     42       0.7191      2.00000
     43       0.8932      2.00000
     44       0.8932      2.00000
     45       0.9781      2.00000
     46       0.9781      2.00000
     47       1.6025      2.00000
     48       1.6025      2.00000
     49       1.9022      2.00000
     50       1.9022      2.00000
     51       2.7928      2.00000
     52       2.7928      2.00000
     53       2.9006      2.00000
     54       2.9006      2.00000
     55       5.0518      0.00000
     56       5.0518      0.00000
     57       6.5425      0.00000
     58       6.5425      0.00000
     59       7.9876      0.00000
     60       7.9876      0.00000
     61       8.5785      0.00000
     62       8.5785      0.00000
     63       9.3346      0.00000
     64       9.3346      0.00000
     65       9.7562      0.00000
     66       9.7562      0.00000
     67      10.0365      0.00000
     68      10.0365      0.00000
     69      10.7437      0.00000
     70      10.7437      0.00000
     71      11.1527      0.00000
     72      11.1527      0.00000
     73      11.7909      0.00000
     74      11.7909      0.00000
     75      12.5344      0.00000
     76      12.5344      0.00000
     77      13.0251      0.00000
     78      13.0251      0.00000
     79      13.5869      0.00000
     80      13.5869      0.00000
     81      13.9164      0.00000
     82      13.9164      0.00000
     83      14.2608      0.00000
     84      14.2608      0.00000
     85      14.4416      0.00000
     86      14.4416      0.00000
     87      14.8985      0.00000
     88      14.8985      0.00000
     89      15.5464      0.00000
     90      15.5464      0.00000
     91      16.0917      0.00000
     92      16.0917      0.00000
     93      17.8627      0.00000
     94      17.8627      0.00000
     95      18.8927      0.00000
     96      18.8927      0.00000
     97      19.2342      0.00000
     98      19.2342      0.00000
     99      19.7344      0.00000
    100      19.7344      0.00000
    101      20.1569      0.00000
    102      20.1569      0.00000
    103      20.7672      0.00000
    104      20.7672      0.00000
    105      20.8685      0.00000
    106      20.8685      0.00000
    107      21.5362      0.00000
    108      21.5362      0.00000
    109      21.8906      0.00000
    110      21.8906      0.00000
    111      22.0242      0.00000
    112      22.0242      0.00000
    113      22.5010      0.00000
    114      22.5010      0.00000
    115      22.7155      0.00000
    116      22.7155      0.00000
    117      23.1002      0.00000
    118      23.1002      0.00000
    119      23.8427      0.00000
    120      23.8427      0.00000
    121      24.2132      0.00000
    122      24.2132      0.00000
    123      24.3713      0.00000
    124      24.3713      0.00000
    125      24.6538      0.00000
    126      24.6538      0.00000
    127      24.9176      0.00000
    128      24.9176      0.00000
    129      25.3393      0.00000
    130      25.3393      0.00000
    131      26.2316      0.00000
    132      26.2316      0.00000
    133      26.4172      0.00000
    134      26.4172      0.00000
    135      26.8669      0.00000
    136      26.8669      0.00000
    137      27.2092      0.00000
    138      27.2092      0.00000
    139      27.6773      0.00000
    140      27.6837      0.00000

 k-point   131 :       0.0156    0.0156    0.5000
  band No.  band energies     occupation 
      1     -25.4506      2.00000
      2     -25.4506      2.00000
      3     -25.4377      2.00000
      4     -25.4377      2.00000
      5     -25.4083      2.00000
      6     -25.4083      2.00000
      7     -25.3856      2.00000
      8     -25.3856      2.00000
      9     -25.3802      2.00000
     10     -25.3802      2.00000
     11     -12.3521      2.00000
     12     -12.3521      2.00000
     13     -11.1750      2.00000
     14     -11.1750      2.00000
     15     -10.8275      2.00000
     16     -10.8275      2.00000
     17      -5.9143      2.00000
     18      -5.9143      2.00000
     19      -2.3357      2.00000
     20      -2.3357      2.00000
     21      -1.9895      2.00000
     22      -1.9895      2.00000
     23      -1.7239      2.00000
     24      -1.7239      2.00000
     25      -1.3626      2.00000
     26      -1.3626      2.00000
     27      -0.7821      2.00000
     28      -0.7821      2.00000
     29      -0.6240      2.00000
     30      -0.6240      2.00000
     31      -0.5155      2.00000
     32      -0.5155      2.00000
     33      -0.4505      2.00000
     34      -0.4505      2.00000
     35       0.5491      2.00000
     36       0.5491      2.00000
     37       0.5848      2.00000
     38       0.5848      2.00000
     39       0.6543      2.00000
     40       0.6543      2.00000
     41       0.7190      2.00000
     42       0.7190      2.00000
     43       0.8937      2.00000
     44       0.8937      2.00000
     45       0.9791      2.00000
     46       0.9791      2.00000
     47       1.6023      2.00000
     48       1.6023      2.00000
     49       1.9022      2.00000
     50       1.9022      2.00000
     51       2.7871      2.00000
     52       2.7871      2.00000
     53       2.9008      2.00000
     54       2.9008      2.00000
     55       5.0547      0.00000
     56       5.0547      0.00000
     57       6.5439      0.00000
     58       6.5439      0.00000
     59       7.9877      0.00000
     60       7.9877      0.00000
     61       8.5797      0.00000
     62       8.5797      0.00000
     63       9.3325      0.00000
     64       9.3325      0.00000
     65       9.7496      0.00000
     66       9.7496      0.00000
     67      10.0430      0.00000
     68      10.0430      0.00000
     69      10.7409      0.00000
     70      10.7409      0.00000
     71      11.1514      0.00000
     72      11.1514      0.00000
     73      11.7829      0.00000
     74      11.7829      0.00000
     75      12.5321      0.00000
     76      12.5321      0.00000
     77      13.0285      0.00000
     78      13.0285      0.00000
     79      13.5919      0.00000
     80      13.5919      0.00000
     81      13.9046      0.00000
     82      13.9046      0.00000
     83      14.2760      0.00000
     84      14.2760      0.00000
     85      14.4434      0.00000
     86      14.4434      0.00000
     87      14.9088      0.00000
     88      14.9088      0.00000
     89      15.5488      0.00000
     90      15.5488      0.00000
     91      16.0974      0.00000
     92      16.0974      0.00000
     93      17.8619      0.00000
     94      17.8619      0.00000
     95      18.8817      0.00000
     96      18.8817      0.00000
     97      19.2386      0.00000
     98      19.2386      0.00000
     99      19.7341      0.00000
    100      19.7341      0.00000
    101      20.1586      0.00000
    102      20.1586      0.00000
    103      20.7044      0.00000
    104      20.7044      0.00000
    105      20.9136      0.00000
    106      20.9136      0.00000
    107      21.5141      0.00000
    108      21.5141      0.00000
    109      21.8706      0.00000
    110      21.8706      0.00000
    111      22.0554      0.00000
    112      22.0554      0.00000
    113      22.4837      0.00000
    114      22.4837      0.00000
    115      22.7389      0.00000
    116      22.7389      0.00000
    117      23.1102      0.00000
    118      23.1102      0.00000
    119      23.8431      0.00000
    120      23.8431      0.00000
    121      24.1711      0.00000
    122      24.1711      0.00000
    123      24.3853      0.00000
    124      24.3853      0.00000
    125      24.6823      0.00000
    126      24.6823      0.00000
    127      24.9298      0.00000
    128      24.9298      0.00000
    129      25.3455      0.00000
    130      25.3455      0.00000
    131      26.2200      0.00000
    132      26.2200      0.00000
    133      26.4227      0.00000
    134      26.4227      0.00000
    135      26.8659      0.00000
    136      26.8659      0.00000
    137      27.2038      0.00000
    138      27.2038      0.00000
    139      27.6559      0.00000
    140      27.6584      0.00000

 k-point   132 :       0.0312    0.0312    0.5000
  band No.  band energies     occupation 
      1     -25.4507      2.00000
      2     -25.4507      2.00000
      3     -25.4378      2.00000
      4     -25.4378      2.00000
      5     -25.4083      2.00000
      6     -25.4083      2.00000
      7     -25.3857      2.00000
      8     -25.3857      2.00000
      9     -25.3803      2.00000
     10     -25.3803      2.00000
     11     -12.3510      2.00000
     12     -12.3510      2.00000
     13     -11.1760      2.00000
     14     -11.1760      2.00000
     15     -10.8284      2.00000
     16     -10.8284      2.00000
     17      -5.9133      2.00000
     18      -5.9133      2.00000
     19      -2.3378      2.00000
     20      -2.3378      2.00000
     21      -1.9894      2.00000
     22      -1.9894      2.00000
     23      -1.7219      2.00000
     24      -1.7219      2.00000
     25      -1.3568      2.00000
     26      -1.3568      2.00000
     27      -0.7847      2.00000
     28      -0.7847      2.00000
     29      -0.6244      2.00000
     30      -0.6244      2.00000
     31      -0.5154      2.00000
     32      -0.5154      2.00000
     33      -0.4501      2.00000
     34      -0.4501      2.00000
     35       0.5488      2.00000
     36       0.5488      2.00000
     37       0.5842      2.00000
     38       0.5842      2.00000
     39       0.6546      2.00000
     40       0.6546      2.00000
     41       0.7187      2.00000
     42       0.7187      2.00000
     43       0.8953      2.00000
     44       0.8953      2.00000
     45       0.9818      2.00000
     46       0.9818      2.00000
     47       1.6016      2.00000
     48       1.6016      2.00000
     49       1.9023      2.00000
     50       1.9023      2.00000
     51       2.7708      2.00000
     52       2.7708      2.00000
     53       2.9008      2.00000
     54       2.9008      2.00000
     55       5.0634      0.00000
     56       5.0634      0.00000
     57       6.5482      0.00000
     58       6.5482      0.00000
     59       7.9878      0.00000
     60       7.9878      0.00000
     61       8.5834      0.00000
     62       8.5834      0.00000
     63       9.3264      0.00000
     64       9.3264      0.00000
     65       9.7324      0.00000
     66       9.7324      0.00000
     67      10.0599      0.00000
     68      10.0599      0.00000
     69      10.7326      0.00000
     70      10.7326      0.00000
     71      11.1468      0.00000
     72      11.1468      0.00000
     73      11.7607      0.00000
     74      11.7607      0.00000
     75      12.5251      0.00000
     76      12.5251      0.00000
     77      13.0379      0.00000
     78      13.0379      0.00000
     79      13.6040      0.00000
     80      13.6040      0.00000
     81      13.8781      0.00000
     82      13.8781      0.00000
     83      14.3125      0.00000
     84      14.3125      0.00000
     85      14.4518      0.00000
     86      14.4518      0.00000
     87      14.9387      0.00000
     88      14.9387      0.00000
     89      15.5564      0.00000
     90      15.5564      0.00000
     91      16.1144      0.00000
     92      16.1144      0.00000
     93      17.8598      0.00000
     94      17.8598      0.00000
     95      18.8520      0.00000
     96      18.8520      0.00000
     97      19.2475      0.00000
     98      19.2475      0.00000
     99      19.7348      0.00000
    100      19.7348      0.00000
    101      20.1630      0.00000
    102      20.1630      0.00000
    103      20.5988      0.00000
    104      20.5988      0.00000
    105      20.9618      0.00000
    106      20.9618      0.00000
    107      21.4679      0.00000
    108      21.4679      0.00000
    109      21.8163      0.00000
    110      21.8163      0.00000
    111      22.1257      0.00000
    112      22.1257      0.00000
    113      22.4569      0.00000
    114      22.4569      0.00000
    115      22.7865      0.00000
    116      22.7865      0.00000
    117      23.1392      0.00000
    118      23.1392      0.00000
    119      23.8402      0.00000
    120      23.8402      0.00000
    121      24.0871      0.00000
    122      24.0871      0.00000
    123      24.4087      0.00000
    124      24.4087      0.00000
    125      24.7439      0.00000
    126      24.7439      0.00000
    127      24.9698      0.00000
    128      24.9698      0.00000
    129      25.3647      0.00000
    130      25.3647      0.00000
    131      26.1897      0.00000
    132      26.1897      0.00000
    133      26.4350      0.00000
    134      26.4350      0.00000
    135      26.8610      0.00000
    136      26.8610      0.00000
    137      27.1876      0.00000
    138      27.1876      0.00000
    139      27.6034      0.00000
    140      27.6040      0.00000

 k-point   133 :       0.0469    0.0469    0.5000
  band No.  band energies     occupation 
      1     -25.4507      2.00000
      2     -25.4507      2.00000
      3     -25.4378      2.00000
      4     -25.4378      2.00000
      5     -25.4083      2.00000
      6     -25.4083      2.00000
      7     -25.3857      2.00000
      8     -25.3857      2.00000
      9     -25.3803      2.00000
     10     -25.3803      2.00000
     11     -12.3492      2.00000
     12     -12.3492      2.00000
     13     -11.1778      2.00000
     14     -11.1778      2.00000
     15     -10.8299      2.00000
     16     -10.8299      2.00000
     17      -5.9117      2.00000
     18      -5.9117      2.00000
     19      -2.3414      2.00000
     20      -2.3414      2.00000
     21      -1.9892      2.00000
     22      -1.9892      2.00000
     23      -1.7184      2.00000
     24      -1.7184      2.00000
     25      -1.3473      2.00000
     26      -1.3473      2.00000
     27      -0.7890      2.00000
     28      -0.7890      2.00000
     29      -0.6249      2.00000
     30      -0.6249      2.00000
     31      -0.5153      2.00000
     32      -0.5153      2.00000
     33      -0.4494      2.00000
     34      -0.4494      2.00000
     35       0.5484      2.00000
     36       0.5484      2.00000
     37       0.5832      2.00000
     38       0.5832      2.00000
     39       0.6551      2.00000
     40       0.6551      2.00000
     41       0.7182      2.00000
     42       0.7182      2.00000
     43       0.8978      2.00000
     44       0.8978      2.00000
     45       0.9865      2.00000
     46       0.9865      2.00000
     47       1.6005      2.00000
     48       1.6005      2.00000
     49       1.9024      2.00000
     50       1.9024      2.00000
     51       2.7456      2.00000
     52       2.7456      2.00000
     53       2.8994      2.00000
     54       2.8994      2.00000
     55       5.0773      0.00000
     56       5.0773      0.00000
     57       6.5552      0.00000
     58       6.5552      0.00000
     59       7.9879      0.00000
     60       7.9879      0.00000
     61       8.5890      0.00000
     62       8.5890      0.00000
     63       9.3159      0.00000
     64       9.3159      0.00000
     65       9.7095      0.00000
     66       9.7095      0.00000
     67      10.0829      0.00000
     68      10.0829      0.00000
     69      10.7195      0.00000
     70      10.7195      0.00000
     71      11.1368      0.00000
     72      11.1368      0.00000
     73      11.7299      0.00000
     74      11.7299      0.00000
     75      12.5128      0.00000
     76      12.5128      0.00000
     77      13.0517      0.00000
     78      13.0517      0.00000
     79      13.6148      0.00000
     80      13.6148      0.00000
     81      13.8552      0.00000
     82      13.8552      0.00000
     83      14.3517      0.00000
     84      14.3517      0.00000
     85      14.4758      0.00000
     86      14.4758      0.00000
     87      14.9855      0.00000
     88      14.9855      0.00000
     89      15.5706      0.00000
     90      15.5706      0.00000
     91      16.1420      0.00000
     92      16.1420      0.00000
     93      17.8562      0.00000
     94      17.8562      0.00000
     95      18.8099      0.00000
     96      18.8099      0.00000
     97      19.2519      0.00000
     98      19.2519      0.00000
     99      19.7398      0.00000
    100      19.7398      0.00000
    101      20.1681      0.00000
    102      20.1681      0.00000
    103      20.4825      0.00000
    104      20.4825      0.00000
    105      20.9714      0.00000
    106      20.9714      0.00000
    107      21.4273      0.00000
    108      21.4273      0.00000
    109      21.7410      0.00000
    110      21.7410      0.00000
    111      22.1931      0.00000
    112      22.1931      0.00000
    113      22.4582      0.00000
    114      22.4582      0.00000
    115      22.8334      0.00000
    116      22.8334      0.00000
    117      23.1843      0.00000
    118      23.1843      0.00000
    119      23.8160      0.00000
    120      23.8160      0.00000
    121      24.0142      0.00000
    122      24.0142      0.00000
    123      24.4345      0.00000
    124      24.4345      0.00000
    125      24.8030      0.00000
    126      24.8030      0.00000
    127      25.0418      0.00000
    128      25.0418      0.00000
    129      25.3991      0.00000
    130      25.3991      0.00000
    131      26.1480      0.00000
    132      26.1480      0.00000
    133      26.4473      0.00000
    134      26.4473      0.00000
    135      26.8474      0.00000
    136      26.8474      0.00000
    137      27.1615      0.00000
    138      27.1615      0.00000
    139      27.5412      0.00000
    140      27.5415      0.00000

 k-point   134 :       0.0625    0.0625    0.5000
  band No.  band energies     occupation 
      1     -25.4508      2.00000
      2     -25.4508      2.00000
      3     -25.4379      2.00000
      4     -25.4379      2.00000
      5     -25.4084      2.00000
      6     -25.4084      2.00000
      7     -25.3858      2.00000
      8     -25.3858      2.00000
      9     -25.3804      2.00000
     10     -25.3804      2.00000
     11     -12.3468      2.00000
     12     -12.3468      2.00000
     13     -11.1803      2.00000
     14     -11.1803      2.00000
     15     -10.8319      2.00000
     16     -10.8319      2.00000
     17      -5.9094      2.00000
     18      -5.9094      2.00000
     19      -2.3463      2.00000
     20      -2.3463      2.00000
     21      -1.9888      2.00000
     22      -1.9888      2.00000
     23      -1.7133      2.00000
     24      -1.7133      2.00000
     25      -1.3347      2.00000
     26      -1.3347      2.00000
     27      -0.7949      2.00000
     28      -0.7949      2.00000
     29      -0.6256      2.00000
     30      -0.6256      2.00000
     31      -0.5151      2.00000
     32      -0.5151      2.00000
     33      -0.4486      2.00000
     34      -0.4486      2.00000
     35       0.5478      2.00000
     36       0.5478      2.00000
     37       0.5820      2.00000
     38       0.5820      2.00000
     39       0.6555      2.00000
     40       0.6555      2.00000
     41       0.7176      2.00000
     42       0.7176      2.00000
     43       0.9014      2.00000
     44       0.9014      2.00000
     45       0.9929      2.00000
     46       0.9929      2.00000
     47       1.5989      2.00000
     48       1.5989      2.00000
     49       1.9025      2.00000
     50       1.9025      2.00000
     51       2.7129      2.00000
     52       2.7129      2.00000
     53       2.8960      2.00000
     54       2.8960      2.00000
     55       5.0958      0.00000
     56       5.0958      0.00000
     57       6.5650      0.00000
     58       6.5650      0.00000
     59       7.9880      0.00000
     60       7.9880      0.00000
     61       8.5961      0.00000
     62       8.5961      0.00000
     63       9.3012      0.00000
     64       9.3012      0.00000
     65       9.6857      0.00000
     66       9.6857      0.00000
     67      10.1074      0.00000
     68      10.1074      0.00000
     69      10.7021      0.00000
     70      10.7021      0.00000
     71      11.1187      0.00000
     72      11.1187      0.00000
     73      11.6975      0.00000
     74      11.6975      0.00000
     75      12.4946      0.00000
     76      12.4946      0.00000
     77      13.0680      0.00000
     78      13.0680      0.00000
     79      13.6116      0.00000
     80      13.6116      0.00000
     81      13.8526      0.00000
     82      13.8526      0.00000
     83      14.3807      0.00000
     84      14.3807      0.00000
     85      14.5235      0.00000
     86      14.5235      0.00000
     87      15.0461      0.00000
     88      15.0461      0.00000
     89      15.5930      0.00000
     90      15.5930      0.00000
     91      16.1795      0.00000
     92      16.1795      0.00000
     93      17.8513      0.00000
     94      17.8513      0.00000
     95      18.7607      0.00000
     96      18.7607      0.00000
     97      19.2441      0.00000
     98      19.2441      0.00000
     99      19.7509      0.00000
    100      19.7509      0.00000
    101      20.1708      0.00000
    102      20.1708      0.00000
    103      20.3629      0.00000
    104      20.3629      0.00000
    105      20.9356      0.00000
    106      20.9356      0.00000
    107      21.3907      0.00000
    108      21.3907      0.00000
    109      21.6716      0.00000
    110      21.6716      0.00000
    111      22.2250      0.00000
    112      22.2250      0.00000
    113      22.5096      0.00000
    114      22.5096      0.00000
    115      22.8725      0.00000
    116      22.8725      0.00000
    117      23.2387      0.00000
    118      23.2387      0.00000
    119      23.7510      0.00000
    120      23.7510      0.00000
    121      23.9858      0.00000
    122      23.9858      0.00000
    123      24.4649      0.00000
    124      24.4649      0.00000
    125      24.8483      0.00000
    126      24.8483      0.00000
    127      25.1367      0.00000
    128      25.1367      0.00000
    129      25.4517      0.00000
    130      25.4517      0.00000
    131      26.1006      0.00000
    132      26.1006      0.00000
    133      26.4541      0.00000
    134      26.4541      0.00000
    135      26.8205      0.00000
    136      26.8205      0.00000
    137      27.1287      0.00000
    138      27.1287      0.00000
    139      27.4855      0.00000
    140      27.4855      0.00000

 k-point   135 :       0.0781    0.0781    0.5000
  band No.  band energies     occupation 
      1     -25.4509      2.00000
      2     -25.4509      2.00000
      3     -25.4380      2.00000
      4     -25.4380      2.00000
      5     -25.4085      2.00000
      6     -25.4085      2.00000
      7     -25.3859      2.00000
      8     -25.3859      2.00000
      9     -25.3805      2.00000
     10     -25.3805      2.00000
     11     -12.3436      2.00000
     12     -12.3436      2.00000
     13     -11.1835      2.00000
     14     -11.1835      2.00000
     15     -10.8346      2.00000
     16     -10.8346      2.00000
     17      -5.9065      2.00000
     18      -5.9065      2.00000
     19      -2.3524      2.00000
     20      -2.3524      2.00000
     21      -1.9882      2.00000
     22      -1.9882      2.00000
     23      -1.7064      2.00000
     24      -1.7064      2.00000
     25      -1.3194      2.00000
     26      -1.3194      2.00000
     27      -0.8023      2.00000
     28      -0.8023      2.00000
     29      -0.6266      2.00000
     30      -0.6266      2.00000
     31      -0.5148      2.00000
     32      -0.5148      2.00000
     33      -0.4476      2.00000
     34      -0.4476      2.00000
     35       0.5470      2.00000
     36       0.5470      2.00000
     37       0.5806      2.00000
     38       0.5806      2.00000
     39       0.6559      2.00000
     40       0.6559      2.00000
     41       0.7169      2.00000
     42       0.7169      2.00000
     43       0.9060      2.00000
     44       0.9060      2.00000
     45       1.0011      2.00000
     46       1.0011      2.00000
     47       1.5968      2.00000
     48       1.5968      2.00000
     49       1.9027      2.00000
     50       1.9027      2.00000
     51       2.6741      2.00000
     52       2.6741      2.00000
     53       2.8900      2.00000
     54       2.8900      2.00000
     55       5.1181      0.00000
     56       5.1181      0.00000
     57       6.5774      0.00000
     58       6.5774      0.00000
     59       7.9880      0.00000
     60       7.9880      0.00000
     61       8.6036      0.00000
     62       8.6036      0.00000
     63       9.2825      0.00000
     64       9.2825      0.00000
     65       9.6643      0.00000
     66       9.6643      0.00000
     67      10.1305      0.00000
     68      10.1305      0.00000
     69      10.6810      0.00000
     70      10.6810      0.00000
     71      11.0905      0.00000
     72      11.0905      0.00000
     73      11.6703      0.00000
     74      11.6703      0.00000
     75      12.4702      0.00000
     76      12.4702      0.00000
     77      13.0859      0.00000
     78      13.0859      0.00000
     79      13.5908      0.00000
     80      13.5908      0.00000
     81      13.8738      0.00000
     82      13.8738      0.00000
     83      14.4035      0.00000
     84      14.4035      0.00000
     85      14.5895      0.00000
     86      14.5895      0.00000
     87      15.1172      0.00000
     88      15.1172      0.00000
     89      15.6259      0.00000
     90      15.6259      0.00000
     91      16.2259      0.00000
     92      16.2259      0.00000
     93      17.8451      0.00000
     94      17.8451      0.00000
     95      18.7079      0.00000
     96      18.7079      0.00000
     97      19.2212      0.00000
     98      19.2212      0.00000
     99      19.7647      0.00000
    100      19.7647      0.00000
    101      20.1610      0.00000
    102      20.1610      0.00000
    103      20.2550      0.00000
    104      20.2550      0.00000
    105      20.8681      0.00000
    106      20.8681      0.00000
    107      21.3219      0.00000
    108      21.3219      0.00000
    109      21.6444      0.00000
    110      21.6444      0.00000
    111      22.2288      0.00000
    112      22.2288      0.00000
    113      22.5891      0.00000
    114      22.5891      0.00000
    115      22.9088      0.00000
    116      22.9088      0.00000
    117      23.2904      0.00000
    118      23.2904      0.00000
    119      23.6697      0.00000
    120      23.6697      0.00000
    121      23.9895      0.00000
    122      23.9895      0.00000
    123      24.5005      0.00000
    124      24.5005      0.00000
    125      24.8835      0.00000
    126      24.8835      0.00000
    127      25.2376      0.00000
    128      25.2376      0.00000
    129      25.5236      0.00000
    130      25.5236      0.00000
    131      26.0517      0.00000
    132      26.0517      0.00000
    133      26.4503      0.00000
    134      26.4503      0.00000
    135      26.7818      0.00000
    136      26.7818      0.00000
    137      27.0944      0.00000
    138      27.0944      0.00000
    139      27.4428      0.00000
    140      27.4428      0.00000

 k-point   136 :       0.0938    0.0938    0.5000
  band No.  band energies     occupation 
      1     -25.4510      2.00000
      2     -25.4510      2.00000
      3     -25.4381      2.00000
      4     -25.4381      2.00000
      5     -25.4086      2.00000
      6     -25.4086      2.00000
      7     -25.3860      2.00000
      8     -25.3860      2.00000
      9     -25.3806      2.00000
     10     -25.3806      2.00000
     11     -12.3398      2.00000
     12     -12.3398      2.00000
     13     -11.1874      2.00000
     14     -11.1874      2.00000
     15     -10.8377      2.00000
     16     -10.8377      2.00000
     17      -5.9030      2.00000
     18      -5.9030      2.00000
     19      -2.3596      2.00000
     20      -2.3596      2.00000
     21      -1.9873      2.00000
     22      -1.9873      2.00000
     23      -1.6976      2.00000
     24      -1.6976      2.00000
     25      -1.3020      2.00000
     26      -1.3020      2.00000
     27      -0.8110      2.00000
     28      -0.8110      2.00000
     29      -0.6277      2.00000
     30      -0.6277      2.00000
     31      -0.5145      2.00000
     32      -0.5145      2.00000
     33      -0.4464      2.00000
     34      -0.4464      2.00000
     35       0.5461      2.00000
     36       0.5461      2.00000
     37       0.5790      2.00000
     38       0.5790      2.00000
     39       0.6561      2.00000
     40       0.6561      2.00000
     41       0.7162      2.00000
     42       0.7162      2.00000
     43       0.9114      2.00000
     44       0.9114      2.00000
     45       1.0111      2.00000
     46       1.0111      2.00000
     47       1.5942      2.00000
     48       1.5942      2.00000
     49       1.9030      2.00000
     50       1.9030      2.00000
     51       2.6305      2.00000
     52       2.6305      2.00000
     53       2.8814      2.00000
     54       2.8814      2.00000
     55       5.1431      0.00000
     56       5.1431      0.00000
     57       6.5923      0.00000
     58       6.5923      0.00000
     59       7.9876      0.00000
     60       7.9876      0.00000
     61       8.6101      0.00000
     62       8.6101      0.00000
     63       9.2608      0.00000
     64       9.2608      0.00000
     65       9.6473      0.00000
     66       9.6473      0.00000
     67      10.1501      0.00000
     68      10.1501      0.00000
     69      10.6561      0.00000
     70      10.6561      0.00000
     71      11.0525      0.00000
     72      11.0525      0.00000
     73      11.6526      0.00000
     74      11.6526      0.00000
     75      12.4393      0.00000
     76      12.4393      0.00000
     77      13.1048      0.00000
     78      13.1048      0.00000
     79      13.5603      0.00000
     80      13.5603      0.00000
     81      13.9081      0.00000
     82      13.9081      0.00000
     83      14.4284      0.00000
     84      14.4284      0.00000
     85      14.6657      0.00000
     86      14.6657      0.00000
     87      15.1956      0.00000
     88      15.1956      0.00000
     89      15.6711      0.00000
     90      15.6711      0.00000
     91      16.2804      0.00000
     92      16.2804      0.00000
     93      17.8378      0.00000
     94      17.8378      0.00000
     95      18.6533      0.00000
     96      18.6533      0.00000
     97      19.1839      0.00000
     98      19.1839      0.00000
     99      19.7696      0.00000
    100      19.7696      0.00000
    101      20.0926      0.00000
    102      20.0926      0.00000
    103      20.2137      0.00000
    104      20.2137      0.00000
    105      20.7857      0.00000
    106      20.7857      0.00000
    107      21.2134      0.00000
    108      21.2134      0.00000
    109      21.6598      0.00000
    110      21.6598      0.00000
    111      22.2259      0.00000
    112      22.2259      0.00000
    113      22.6557      0.00000
    114      22.6557      0.00000
    115      22.9558      0.00000
    116      22.9558      0.00000
    117      23.3179      0.00000
    118      23.3179      0.00000
    119      23.6150      0.00000
    120      23.6150      0.00000
    121      24.0044      0.00000
    122      24.0044      0.00000
    123      24.5390      0.00000
    124      24.5390      0.00000
    125      24.9126      0.00000
    126      24.9126      0.00000
    127      25.3343      0.00000
    128      25.3343      0.00000
    129      25.6093      0.00000
    130      25.6093      0.00000
    131      26.0070      0.00000
    132      26.0070      0.00000
    133      26.4305      0.00000
    134      26.4305      0.00000
    135      26.7426      0.00000
    136      26.7426      0.00000
    137      27.0628      0.00000
    138      27.0628      0.00000
    139      27.4118      0.00000
    140      27.4119      0.00000

 k-point   137 :       0.1094    0.1094    0.5000
  band No.  band energies     occupation 
      1     -25.4511      2.00000
      2     -25.4511      2.00000
      3     -25.4382      2.00000
      4     -25.4382      2.00000
      5     -25.4087      2.00000
      6     -25.4087      2.00000
      7     -25.3861      2.00000
      8     -25.3861      2.00000
      9     -25.3807      2.00000
     10     -25.3807      2.00000
     11     -12.3353      2.00000
     12     -12.3353      2.00000
     13     -11.1918      2.00000
     14     -11.1918      2.00000
     15     -10.8414      2.00000
     16     -10.8414      2.00000
     17      -5.8989      2.00000
     18      -5.8989      2.00000
     19      -2.3678      2.00000
     20      -2.3678      2.00000
     21      -1.9860      2.00000
     22      -1.9860      2.00000
     23      -1.6869      2.00000
     24      -1.6869      2.00000
     25      -1.2833      2.00000
     26      -1.2833      2.00000
     27      -0.8209      2.00000
     28      -0.8209      2.00000
     29      -0.6290      2.00000
     30      -0.6290      2.00000
     31      -0.5140      2.00000
     32      -0.5140      2.00000
     33      -0.4452      2.00000
     34      -0.4452      2.00000
     35       0.5452      2.00000
     36       0.5452      2.00000
     37       0.5773      2.00000
     38       0.5773      2.00000
     39       0.6560      2.00000
     40       0.6560      2.00000
     41       0.7155      2.00000
     42       0.7155      2.00000
     43       0.9178      2.00000
     44       0.9178      2.00000
     45       1.0227      2.00000
     46       1.0227      2.00000
     47       1.5912      2.00000
     48       1.5912      2.00000
     49       1.9032      2.00000
     50       1.9032      2.00000
     51       2.5830      2.00000
     52       2.5830      2.00000
     53       2.8701      2.00000
     54       2.8701      2.00000
     55       5.1700      0.00000
     56       5.1700      0.00000
     57       6.6095      0.00000
     58       6.6095      0.00000
     59       7.9868      0.00000
     60       7.9868      0.00000
     61       8.6141      0.00000
     62       8.6141      0.00000
     63       9.2380      0.00000
     64       9.2380      0.00000
     65       9.6357      0.00000
     66       9.6357      0.00000
     67      10.1650      0.00000
     68      10.1650      0.00000
     69      10.6269      0.00000
     70      10.6269      0.00000
     71      11.0079      0.00000
     72      11.0079      0.00000
     73      11.6455      0.00000
     74      11.6455      0.00000
     75      12.4021      0.00000
     76      12.4021      0.00000
     77      13.1245      0.00000
     78      13.1245      0.00000
     79      13.5283      0.00000
     80      13.5283      0.00000
     81      13.9440      0.00000
     82      13.9440      0.00000
     83      14.4602      0.00000
     84      14.4602      0.00000
     85      14.7480      0.00000
     86      14.7480      0.00000
     87      15.2788      0.00000
     88      15.2788      0.00000
     89      15.7300      0.00000
     90      15.7300      0.00000
     91      16.3424      0.00000
     92      16.3424      0.00000
     93      17.8297      0.00000
     94      17.8297      0.00000
     95      18.5980      0.00000
     96      18.5980      0.00000
     97      19.1351      0.00000
     98      19.1351      0.00000
     99      19.7447      0.00000
    100      19.7447      0.00000
    101      20.0023      0.00000
    102      20.0023      0.00000
    103      20.2192      0.00000
    104      20.2192      0.00000
    105      20.6985      0.00000
    106      20.6985      0.00000
    107      21.0885      0.00000
    108      21.0885      0.00000
    109      21.6912      0.00000
    110      21.6912      0.00000
    111      22.2257      0.00000
    112      22.2257      0.00000
    113      22.6835      0.00000
    114      22.6835      0.00000
    115      23.0197      0.00000
    116      23.0197      0.00000
    117      23.3039      0.00000
    118      23.3039      0.00000
    119      23.6194      0.00000
    120      23.6194      0.00000
    121      24.0229      0.00000
    122      24.0229      0.00000
    123      24.5756      0.00000
    124      24.5756      0.00000
    125      24.9386      0.00000
    126      24.9386      0.00000
    127      25.4216      0.00000
    128      25.4216      0.00000
    129      25.6921      0.00000
    130      25.6921      0.00000
    131      25.9778      0.00000
    132      25.9778      0.00000
    133      26.3951      0.00000
    134      26.3951      0.00000
    135      26.7160      0.00000
    136      26.7160      0.00000
    137      27.0359      0.00000
    138      27.0359      0.00000
    139      27.3888      0.00000
    140      27.3888      0.00000

 k-point   138 :       0.1250    0.1250    0.5000
  band No.  band energies     occupation 
      1     -25.4512      2.00000
      2     -25.4512      2.00000
      3     -25.4383      2.00000
      4     -25.4383      2.00000
      5     -25.4088      2.00000
      6     -25.4088      2.00000
      7     -25.3862      2.00000
      8     -25.3862      2.00000
      9     -25.3808      2.00000
     10     -25.3808      2.00000
     11     -12.3302      2.00000
     12     -12.3302      2.00000
     13     -11.1970      2.00000
     14     -11.1970      2.00000
     15     -10.8456      2.00000
     16     -10.8456      2.00000
     17      -5.8942      2.00000
     18      -5.8942      2.00000
     19      -2.3767      2.00000
     20      -2.3767      2.00000
     21      -1.9842      2.00000
     22      -1.9842      2.00000
     23      -1.6742      2.00000
     24      -1.6742      2.00000
     25      -1.2639      2.00000
     26      -1.2639      2.00000
     27      -0.8315      2.00000
     28      -0.8315      2.00000
     29      -0.6305      2.00000
     30      -0.6305      2.00000
     31      -0.5134      2.00000
     32      -0.5134      2.00000
     33      -0.4439      2.00000
     34      -0.4439      2.00000
     35       0.5442      2.00000
     36       0.5442      2.00000
     37       0.5756      2.00000
     38       0.5756      2.00000
     39       0.6556      2.00000
     40       0.6556      2.00000
     41       0.7149      2.00000
     42       0.7149      2.00000
     43       0.9251      2.00000
     44       0.9251      2.00000
     45       1.0360      2.00000
     46       1.0360      2.00000
     47       1.5875      2.00000
     48       1.5875      2.00000
     49       1.9034      2.00000
     50       1.9034      2.00000
     51       2.5329      2.00000
     52       2.5329      2.00000
     53       2.8564      2.00000
     54       2.8564      2.00000
     55       5.1977      0.00000
     56       5.1977      0.00000
     57       6.6287      0.00000
     58       6.6287      0.00000
     59       7.9853      0.00000
     60       7.9853      0.00000
     61       8.6136      0.00000
     62       8.6136      0.00000
     63       9.2164      0.00000
     64       9.2164      0.00000
     65       9.6298      0.00000
     66       9.6298      0.00000
     67      10.1743      0.00000
     68      10.1743      0.00000
     69      10.5921      0.00000
     70      10.5921      0.00000
     71      10.9625      0.00000
     72      10.9625      0.00000
     73      11.6477      0.00000
     74      11.6477      0.00000
     75      12.3590      0.00000
     76      12.3590      0.00000
     77      13.1450      0.00000
     78      13.1450      0.00000
     79      13.4998      0.00000
     80      13.4998      0.00000
     81      13.9748      0.00000
     82      13.9748      0.00000
     83      14.5003      0.00000
     84      14.5003      0.00000
     85      14.8343      0.00000
     86      14.8343      0.00000
     87      15.3645      0.00000
     88      15.3645      0.00000
     89      15.8031      0.00000
     90      15.8031      0.00000
     91      16.4113      0.00000
     92      16.4113      0.00000
     93      17.8211      0.00000
     94      17.8211      0.00000
     95      18.5422      0.00000
     96      18.5422      0.00000
     97      19.0772      0.00000
     98      19.0772      0.00000
     99      19.6722      0.00000
    100      19.6722      0.00000
    101      19.9372      0.00000
    102      19.9372      0.00000
    103      20.2375      0.00000
    104      20.2375      0.00000
    105      20.6109      0.00000
    106      20.6109      0.00000
    107      20.9661      0.00000
    108      20.9661      0.00000
    109      21.7212      0.00000
    110      21.7212      0.00000
    111      22.2312      0.00000
    112      22.2312      0.00000
    113      22.6731      0.00000
    114      22.6731      0.00000
    115      23.0681      0.00000
    116      23.0681      0.00000
    117      23.2925      0.00000
    118      23.2925      0.00000
    119      23.6687      0.00000
    120      23.6687      0.00000
    121      24.0429      0.00000
    122      24.0429      0.00000
    123      24.6027      0.00000
    124      24.6027      0.00000
    125      24.9648      0.00000
    126      24.9648      0.00000
    127      25.4910      0.00000
    128      25.4910      0.00000
    129      25.7519      0.00000
    130      25.7519      0.00000
    131      25.9816      0.00000
    132      25.9816      0.00000
    133      26.3565      0.00000
    134      26.3565      0.00000
    135      26.7045      0.00000
    136      26.7045      0.00000
    137      27.0160      0.00000
    138      27.0160      0.00000
    139      27.3715      0.00000
    140      27.3715      0.00000

 k-point   139 :       0.1406    0.1406    0.5000
  band No.  band energies     occupation 
      1     -25.4514      2.00000
      2     -25.4514      2.00000
      3     -25.4384      2.00000
      4     -25.4384      2.00000
      5     -25.4090      2.00000
      6     -25.4090      2.00000
      7     -25.3863      2.00000
      8     -25.3863      2.00000
      9     -25.3809      2.00000
     10     -25.3809      2.00000
     11     -12.3245      2.00000
     12     -12.3245      2.00000
     13     -11.2026      2.00000
     14     -11.2026      2.00000
     15     -10.8502      2.00000
     16     -10.8502      2.00000
     17      -5.8890      2.00000
     18      -5.8890      2.00000
     19      -2.3862      2.00000
     20      -2.3862      2.00000
     21      -1.9819      2.00000
     22      -1.9819      2.00000
     23      -1.6597      2.00000
     24      -1.6597      2.00000
     25      -1.2444      2.00000
     26      -1.2444      2.00000
     27      -0.8427      2.00000
     28      -0.8427      2.00000
     29      -0.6322      2.00000
     30      -0.6322      2.00000
     31      -0.5126      2.00000
     32      -0.5126      2.00000
     33      -0.4426      2.00000
     34      -0.4426      2.00000
     35       0.5432      2.00000
     36       0.5432      2.00000
     37       0.5738      2.00000
     38       0.5738      2.00000
     39       0.6548      2.00000
     40       0.6548      2.00000
     41       0.7144      2.00000
     42       0.7144      2.00000
     43       0.9331      2.00000
     44       0.9331      2.00000
     45       1.0509      2.00000
     46       1.0509      2.00000
     47       1.5834      2.00000
     48       1.5834      2.00000
     49       1.9034      2.00000
     50       1.9034      2.00000
     51       2.4812      2.00000
     52       2.4812      2.00000
     53       2.8403      2.00000
     54       2.8403      2.00000
     55       5.2256      0.00000
     56       5.2256      0.00000
     57       6.6495      0.00000
     58       6.6495      0.00000
     59       7.9829      0.00000
     60       7.9829      0.00000
     61       8.6068      0.00000
     62       8.6068      0.00000
     63       9.1985      0.00000
     64       9.1985      0.00000
     65       9.6292      0.00000
     66       9.6292      0.00000
     67      10.1777      0.00000
     68      10.1777      0.00000
     69      10.5509      0.00000
     70      10.5509      0.00000
     71      10.9220      0.00000
     72      10.9220      0.00000
     73      11.6569      0.00000
     74      11.6569      0.00000
     75      12.3109      0.00000
     76      12.3109      0.00000
     77      13.1654      0.00000
     78      13.1654      0.00000
     79      13.4773      0.00000
     80      13.4773      0.00000
     81      13.9977      0.00000
     82      13.9977      0.00000
     83      14.5487      0.00000
     84      14.5487      0.00000
     85      14.9229      0.00000
     86      14.9229      0.00000
     87      15.4515      0.00000
     88      15.4515      0.00000
     89      15.8898      0.00000
     90      15.8898      0.00000
     91      16.4866      0.00000
     92      16.4866      0.00000
     93      17.8128      0.00000
     94      17.8128      0.00000
     95      18.4860      0.00000
     96      18.4860      0.00000
     97      19.0122      0.00000
     98      19.0122      0.00000
     99      19.5644      0.00000
    100      19.5644      0.00000
    101      19.8892      0.00000
    102      19.8892      0.00000
    103      20.2559      0.00000
    104      20.2559      0.00000
    105      20.5261      0.00000
    106      20.5261      0.00000
    107      20.8618      0.00000
    108      20.8618      0.00000
    109      21.7405      0.00000
    110      21.7405      0.00000
    111      22.2431      0.00000
    112      22.2431      0.00000
    113      22.6356      0.00000
    114      22.6356      0.00000
    115      23.0581      0.00000
    116      23.0581      0.00000
    117      23.3432      0.00000
    118      23.3432      0.00000
    119      23.7342      0.00000
    120      23.7342      0.00000
    121      24.0644      0.00000
    122      24.0644      0.00000
    123      24.6129      0.00000
    124      24.6129      0.00000
    125      24.9921      0.00000
    126      24.9921      0.00000
    127      25.5301      0.00000
    128      25.5301      0.00000
    129      25.7981      0.00000
    130      25.7981      0.00000
    131      26.0107      0.00000
    132      26.0107      0.00000
    133      26.3327      0.00000
    134      26.3327      0.00000
    135      26.7037      0.00000
    136      26.7037      0.00000
    137      27.0062      0.00000
    138      27.0062      0.00000
    139      27.3609      0.00000
    140      27.3610      0.00000

 k-point   140 :       0.1563    0.1563    0.5000
  band No.  band energies     occupation 
      1     -25.4515      2.00000
      2     -25.4515      2.00000
      3     -25.4386      2.00000
      4     -25.4386      2.00000
      5     -25.4091      2.00000
      6     -25.4091      2.00000
      7     -25.3865      2.00000
      8     -25.3865      2.00000
      9     -25.3811      2.00000
     10     -25.3811      2.00000
     11     -12.3182      2.00000
     12     -12.3182      2.00000
     13     -11.2089      2.00000
     14     -11.2089      2.00000
     15     -10.8552      2.00000
     16     -10.8552      2.00000
     17      -5.8833      2.00000
     18      -5.8833      2.00000
     19      -2.3960      2.00000
     20      -2.3960      2.00000
     21      -1.9789      2.00000
     22      -1.9789      2.00000
     23      -1.6435      2.00000
     24      -1.6435      2.00000
     25      -1.2257      2.00000
     26      -1.2257      2.00000
     27      -0.8540      2.00000
     28      -0.8540      2.00000
     29      -0.6340      2.00000
     30      -0.6340      2.00000
     31      -0.5117      2.00000
     32      -0.5117      2.00000
     33      -0.4413      2.00000
     34      -0.4413      2.00000
     35       0.5421      2.00000
     36       0.5421      2.00000
     37       0.5720      2.00000
     38       0.5720      2.00000
     39       0.6537      2.00000
     40       0.6537      2.00000
     41       0.7140      2.00000
     42       0.7140      2.00000
     43       0.9418      2.00000
     44       0.9418      2.00000
     45       1.0672      2.00000
     46       1.0672      2.00000
     47       1.5786      2.00000
     48       1.5786      2.00000
     49       1.9033      2.00000
     50       1.9033      2.00000
     51       2.4290      2.00000
     52       2.4290      2.00000
     53       2.8220      2.00000
     54       2.8220      2.00000
     55       5.2529      0.00000
     56       5.2529      0.00000
     57       6.6715      0.00000
     58       6.6715      0.00000
     59       7.9790      0.00000
     60       7.9790      0.00000
     61       8.5921      0.00000
     62       8.5921      0.00000
     63       9.1861      0.00000
     64       9.1861      0.00000
     65       9.6338      0.00000
     66       9.6338      0.00000
     67      10.1750      0.00000
     68      10.1750      0.00000
     69      10.5039      0.00000
     70      10.5039      0.00000
     71      10.8904      0.00000
     72      10.8904      0.00000
     73      11.6705      0.00000
     74      11.6705      0.00000
     75      12.2591      0.00000
     76      12.2591      0.00000
     77      13.1837      0.00000
     78      13.1837      0.00000
     79      13.4634      0.00000
     80      13.4634      0.00000
     81      14.0127      0.00000
     82      14.0127      0.00000
     83      14.6047      0.00000
     84      14.6047      0.00000
     85      15.0120      0.00000
     86      15.0120      0.00000
     87      15.5390      0.00000
     88      15.5390      0.00000
     89      15.9881      0.00000
     90      15.9881      0.00000
     91      16.5679      0.00000
     92      16.5679      0.00000
     93      17.8052      0.00000
     94      17.8052      0.00000
     95      18.4291      0.00000
     96      18.4291      0.00000
     97      18.9415      0.00000
     98      18.9415      0.00000
     99      19.4433      0.00000
    100      19.4433      0.00000
    101      19.8415      0.00000
    102      19.8415      0.00000
    103      20.2505      0.00000
    104      20.2505      0.00000
    105      20.4540      0.00000
    106      20.4540      0.00000
    107      20.7915      0.00000
    108      20.7915      0.00000
    109      21.7434      0.00000
    110      21.7434      0.00000
    111      22.2599      0.00000
    112      22.2599      0.00000
    113      22.5798      0.00000
    114      22.5798      0.00000
    115      23.0222      0.00000
    116      23.0222      0.00000
    117      23.4289      0.00000
    118      23.4289      0.00000
    119      23.7999      0.00000
    120      23.7999      0.00000
    121      24.0885      0.00000
    122      24.0885      0.00000
    123      24.6028      0.00000
    124      24.6028      0.00000
    125      25.0149      0.00000
    126      25.0149      0.00000
    127      25.5476      0.00000
    128      25.5476      0.00000
    129      25.8555      0.00000
    130      25.8555      0.00000
    131      26.0313      0.00000
    132      26.0313      0.00000
    133      26.3311      0.00000
    134      26.3311      0.00000
    135      26.7120      0.00000
    136      26.7120      0.00000
    137      27.0069      0.00000
    138      27.0069      0.00000
    139      27.3610      0.00000
    140      27.3611      0.00000

 k-point   141 :       0.1719    0.1719    0.5000
  band No.  band energies     occupation 
      1     -25.4517      2.00000
      2     -25.4517      2.00000
      3     -25.4388      2.00000
      4     -25.4388      2.00000
      5     -25.4093      2.00000
      6     -25.4093      2.00000
      7     -25.3867      2.00000
      8     -25.3867      2.00000
      9     -25.3813      2.00000
     10     -25.3813      2.00000
     11     -12.3114      2.00000
     12     -12.3114      2.00000
     13     -11.2156      2.00000
     14     -11.2156      2.00000
     15     -10.8605      2.00000
     16     -10.8605      2.00000
     17      -5.8772      2.00000
     18      -5.8772      2.00000
     19      -2.4060      2.00000
     20      -2.4060      2.00000
     21      -1.9753      2.00000
     22      -1.9753      2.00000
     23      -1.6257      2.00000
     24      -1.6257      2.00000
     25      -1.2087      2.00000
     26      -1.2087      2.00000
     27      -0.8648      2.00000
     28      -0.8648      2.00000
     29      -0.6359      2.00000
     30      -0.6359      2.00000
     31      -0.5105      2.00000
     32      -0.5105      2.00000
     33      -0.4401      2.00000
     34      -0.4401      2.00000
     35       0.5411      2.00000
     36       0.5411      2.00000
     37       0.5702      2.00000
     38       0.5702      2.00000
     39       0.6523      2.00000
     40       0.6523      2.00000
     41       0.7136      2.00000
     42       0.7136      2.00000
     43       0.9512      2.00000
     44       0.9512      2.00000
     45       1.0847      2.00000
     46       1.0847      2.00000
     47       1.5732      2.00000
     48       1.5732      2.00000
     49       1.9029      2.00000
     50       1.9029      2.00000
     51       2.3774      2.00000
     52       2.3774      2.00000
     53       2.8016      2.00000
     54       2.8016      2.00000
     55       5.2792      0.00000
     56       5.2792      0.00000
     57       6.6942      0.00000
     58       6.6942      0.00000
     59       7.9734      0.00000
     60       7.9734      0.00000
     61       8.5694      0.00000
     62       8.5694      0.00000
     63       9.1802      0.00000
     64       9.1802      0.00000
     65       9.6429      0.00000
     66       9.6429      0.00000
     67      10.1660      0.00000
     68      10.1660      0.00000
     69      10.4538      0.00000
     70      10.4538      0.00000
     71      10.8689      0.00000
     72      10.8689      0.00000
     73      11.6863      0.00000
     74      11.6863      0.00000
     75      12.2055      0.00000
     76      12.2055      0.00000
     77      13.1970      0.00000
     78      13.1970      0.00000
     79      13.4600      0.00000
     80      13.4600      0.00000
     81      14.0214      0.00000
     82      14.0214      0.00000
     83      14.6667      0.00000
     84      14.6667      0.00000
     85      15.0994      0.00000
     86      15.0994      0.00000
     87      15.6269      0.00000
     88      15.6269      0.00000
     89      16.0955      0.00000
     90      16.0955      0.00000
     91      16.6545      0.00000
     92      16.6545      0.00000
     93      17.7991      0.00000
     94      17.7991      0.00000
     95      18.3714      0.00000
     96      18.3714      0.00000
     97      18.8664      0.00000
     98      18.8664      0.00000
     99      19.3210      0.00000
    100      19.3210      0.00000
    101      19.7883      0.00000
    102      19.7883      0.00000
    103      20.1919      0.00000
    104      20.1919      0.00000
    105      20.4115      0.00000
    106      20.4115      0.00000
    107      20.7667      0.00000
    108      20.7667      0.00000
    109      21.7273      0.00000
    110      21.7273      0.00000
    111      22.2755      0.00000
    112      22.2755      0.00000
    113      22.5161      0.00000
    114      22.5161      0.00000
    115      22.9939      0.00000
    116      22.9939      0.00000
    117      23.5157      0.00000
    118      23.5157      0.00000
    119      23.8533      0.00000
    120      23.8533      0.00000
    121      24.1166      0.00000
    122      24.1166      0.00000
    123      24.5753      0.00000
    124      24.5753      0.00000
    125      25.0259      0.00000
    126      25.0259      0.00000
    127      25.5755      0.00000
    128      25.5755      0.00000
    129      25.9158      0.00000
    130      25.9158      0.00000
    131      26.0375      0.00000
    132      26.0375      0.00000
    133      26.3376      0.00000
    134      26.3376      0.00000
    135      26.7306      0.00000
    136      26.7306      0.00000
    137      27.0154      0.00000
    138      27.0154      0.00000
    139      27.3753      0.00000
    140      27.3754      0.00000

 k-point   142 :       0.1875    0.1875    0.5000
  band No.  band energies     occupation 
      1     -25.4518      2.00000
      2     -25.4518      2.00000
      3     -25.4389      2.00000
      4     -25.4389      2.00000
      5     -25.4094      2.00000
      6     -25.4094      2.00000
      7     -25.3868      2.00000
      8     -25.3868      2.00000
      9     -25.3814      2.00000
     10     -25.3814      2.00000
     11     -12.3041      2.00000
     12     -12.3041      2.00000
     13     -11.2228      2.00000
     14     -11.2228      2.00000
     15     -10.8662      2.00000
     16     -10.8662      2.00000
     17      -5.8707      2.00000
     18      -5.8707      2.00000
     19      -2.4160      2.00000
     20      -2.4160      2.00000
     21      -1.9710      2.00000
     22      -1.9710      2.00000
     23      -1.6066      2.00000
     24      -1.6066      2.00000
     25      -1.1940      2.00000
     26      -1.1940      2.00000
     27      -0.8746      2.00000
     28      -0.8746      2.00000
     29      -0.6379      2.00000
     30      -0.6379      2.00000
     31      -0.5092      2.00000
     32      -0.5092      2.00000
     33      -0.4389      2.00000
     34      -0.4389      2.00000
     35       0.5401      2.00000
     36       0.5401      2.00000
     37       0.5685      2.00000
     38       0.5685      2.00000
     39       0.6508      2.00000
     40       0.6508      2.00000
     41       0.7131      2.00000
     42       0.7131      2.00000
     43       0.9612      2.00000
     44       0.9612      2.00000
     45       1.1034      2.00000
     46       1.1034      2.00000
     47       1.5672      2.00000
     48       1.5672      2.00000
     49       1.9020      2.00000
     50       1.9020      2.00000
     51       2.3274      2.00000
     52       2.3274      2.00000
     53       2.7792      2.00000
     54       2.7792      2.00000
     55       5.3040      0.00000
     56       5.3040      0.00000
     57       6.7171      0.00000
     58       6.7171      0.00000
     59       7.9651      0.00000
     60       7.9651      0.00000
     61       8.5393      0.00000
     62       8.5393      0.00000
     63       9.1806      0.00000
     64       9.1806      0.00000
     65       9.6559      0.00000
     66       9.6559      0.00000
     67      10.1500      0.00000
     68      10.1500      0.00000
     69      10.4056      0.00000
     70      10.4056      0.00000
     71      10.8568      0.00000
     72      10.8568      0.00000
     73      11.7021      0.00000
     74      11.7021      0.00000
     75      12.1523      0.00000
     76      12.1523      0.00000
     77      13.2023      0.00000
     78      13.2023      0.00000
     79      13.4686      0.00000
     80      13.4686      0.00000
     81      14.0268      0.00000
     82      14.0268      0.00000
     83      14.7333      0.00000
     84      14.7333      0.00000
     85      15.1833      0.00000
     86      15.1833      0.00000
     87      15.7151      0.00000
     88      15.7151      0.00000
     89      16.2088      0.00000
     90      16.2088      0.00000
     91      16.7453      0.00000
     92      16.7453      0.00000
     93      17.7946      0.00000
     94      17.7946      0.00000
     95      18.3126      0.00000
     96      18.3126      0.00000
     97      18.7888      0.00000
     98      18.7888      0.00000
     99      19.2033      0.00000
    100      19.2033      0.00000
    101      19.7290      0.00000
    102      19.7290      0.00000
    103      20.0908      0.00000
    104      20.0908      0.00000
    105      20.3892      0.00000
    106      20.3892      0.00000
    107      20.7847      0.00000
    108      20.7847      0.00000
    109      21.6928      0.00000
    110      21.6928      0.00000
    111      22.2707      0.00000
    112      22.2707      0.00000
    113      22.4675      0.00000
    114      22.4675      0.00000
    115      22.9816      0.00000
    116      22.9816      0.00000
    117      23.5899      0.00000
    118      23.5899      0.00000
    119      23.8814      0.00000
    120      23.8814      0.00000
    121      24.1494      0.00000
    122      24.1494      0.00000
    123      24.5390      0.00000
    124      24.5390      0.00000
    125      25.0292      0.00000
    126      25.0292      0.00000
    127      25.6301      0.00000
    128      25.6301      0.00000
    129      25.9511      0.00000
    130      25.9511      0.00000
    131      26.0533      0.00000
    132      26.0533      0.00000
    133      26.3373      0.00000
    134      26.3373      0.00000
    135      26.7541      0.00000
    136      26.7541      0.00000
    137      27.0299      0.00000
    138      27.0299      0.00000
    139      27.3983      0.00000
    140      27.4042      0.00000

 k-point   143 :       0.2031    0.2031    0.5000
  band No.  band energies     occupation 
      1     -25.4520      2.00000
      2     -25.4520      2.00000
      3     -25.4391      2.00000
      4     -25.4391      2.00000
      5     -25.4096      2.00000
      6     -25.4096      2.00000
      7     -25.3870      2.00000
      8     -25.3870      2.00000
      9     -25.3816      2.00000
     10     -25.3816      2.00000
     11     -12.2965      2.00000
     12     -12.2965      2.00000
     13     -11.2304      2.00000
     14     -11.2304      2.00000
     15     -10.8721      2.00000
     16     -10.8721      2.00000
     17      -5.8638      2.00000
     18      -5.8638      2.00000
     19      -2.4257      2.00000
     20      -2.4257      2.00000
     21      -1.9660      2.00000
     22      -1.9660      2.00000
     23      -1.5864      2.00000
     24      -1.5864      2.00000
     25      -1.1827      2.00000
     26      -1.1827      2.00000
     27      -0.8827      2.00000
     28      -0.8827      2.00000
     29      -0.6399      2.00000
     30      -0.6399      2.00000
     31      -0.5076      2.00000
     32      -0.5076      2.00000
     33      -0.4378      2.00000
     34      -0.4378      2.00000
     35       0.5391      2.00000
     36       0.5391      2.00000
     37       0.5668      2.00000
     38       0.5668      2.00000
     39       0.6493      2.00000
     40       0.6493      2.00000
     41       0.7126      2.00000
     42       0.7126      2.00000
     43       0.9717      2.00000
     44       0.9717      2.00000
     45       1.1229      2.00000
     46       1.1229      2.00000
     47       1.5606      2.00000
     48       1.5606      2.00000
     49       1.9003      2.00000
     50       1.9003      2.00000
     51       2.2802      2.00000
     52       2.2802      2.00000
     53       2.7550      2.00000
     54       2.7550      2.00000
     55       5.3271      0.00000
     56       5.3271      0.00000
     57       6.7396      0.00000
     58       6.7396      0.00000
     59       7.9536      0.00000
     60       7.9536      0.00000
     61       8.5039      0.00000
     62       8.5039      0.00000
     63       9.1860      0.00000
     64       9.1860      0.00000
     65       9.6721      0.00000
     66       9.6721      0.00000
     67      10.1262      0.00000
     68      10.1262      0.00000
     69      10.3647      0.00000
     70      10.3647      0.00000
     71      10.8523      0.00000
     72      10.8523      0.00000
     73      11.7152      0.00000
     74      11.7152      0.00000
     75      12.1029      0.00000
     76      12.1029      0.00000
     77      13.1981      0.00000
     78      13.1981      0.00000
     79      13.4877      0.00000
     80      13.4877      0.00000
     81      14.0322      0.00000
     82      14.0322      0.00000
     83      14.8026      0.00000
     84      14.8026      0.00000
     85      15.2624      0.00000
     86      15.2624      0.00000
     87      15.8027      0.00000
     88      15.8027      0.00000
     89      16.3254      0.00000
     90      16.3254      0.00000
     91      16.8388      0.00000
     92      16.8388      0.00000
     93      17.7913      0.00000
     94      17.7913      0.00000
     95      18.2531      0.00000
     96      18.2531      0.00000
     97      18.7122      0.00000
     98      18.7122      0.00000
     99      19.0934      0.00000
    100      19.0934      0.00000
    101      19.6641      0.00000
    102      19.6641      0.00000
    103      19.9744      0.00000
    104      19.9744      0.00000
    105      20.3742      0.00000
    106      20.3742      0.00000
    107      20.8295      0.00000
    108      20.8295      0.00000
    109      21.6437      0.00000
    110      21.6437      0.00000
    111      22.2198      0.00000
    112      22.2198      0.00000
    113      22.4631      0.00000
    114      22.4631      0.00000
    115      22.9845      0.00000
    116      22.9845      0.00000
    117      23.6431      0.00000
    118      23.6431      0.00000
    119      23.8754      0.00000
    120      23.8754      0.00000
    121      24.1833      0.00000
    122      24.1833      0.00000
    123      24.5064      0.00000
    124      24.5064      0.00000
    125      25.0403      0.00000
    126      25.0403      0.00000
    127      25.7028      0.00000
    128      25.7028      0.00000
    129      25.9503      0.00000
    130      25.9503      0.00000
    131      26.0859      0.00000
    132      26.0859      0.00000
    133      26.3370      0.00000
    134      26.3370      0.00000
    135      26.7659      0.00000
    136      26.7659      0.00000
    137      27.0542      0.00000
    138      27.0542      0.00000
    139      27.4054      0.00000
    140      27.4056      0.00000

 k-point   144 :       0.2188    0.2188    0.5000
  band No.  band energies     occupation 
      1     -25.4522      2.00000
      2     -25.4522      2.00000
      3     -25.4393      2.00000
      4     -25.4393      2.00000
      5     -25.4098      2.00000
      6     -25.4098      2.00000
      7     -25.3872      2.00000
      8     -25.3872      2.00000
      9     -25.3818      2.00000
     10     -25.3818      2.00000
     11     -12.2884      2.00000
     12     -12.2884      2.00000
     13     -11.2384      2.00000
     14     -11.2384      2.00000
     15     -10.8782      2.00000
     16     -10.8782      2.00000
     17      -5.8567      2.00000
     18      -5.8567      2.00000
     19      -2.4351      2.00000
     20      -2.4351      2.00000
     21      -1.9603      2.00000
     22      -1.9603      2.00000
     23      -1.5655      2.00000
     24      -1.5655      2.00000
     25      -1.1753      2.00000
     26      -1.1753      2.00000
     27      -0.8886      2.00000
     28      -0.8886      2.00000
     29      -0.6418      2.00000
     30      -0.6418      2.00000
     31      -0.5059      2.00000
     32      -0.5059      2.00000
     33      -0.4367      2.00000
     34      -0.4367      2.00000
     35       0.5381      2.00000
     36       0.5381      2.00000
     37       0.5652      2.00000
     38       0.5652      2.00000
     39       0.6478      2.00000
     40       0.6478      2.00000
     41       0.7118      2.00000
     42       0.7118      2.00000
     43       0.9826      2.00000
     44       0.9826      2.00000
     45       1.1430      2.00000
     46       1.1430      2.00000
     47       1.5534      2.00000
     48       1.5534      2.00000
     49       1.8976      2.00000
     50       1.8976      2.00000
     51       2.2368      2.00000
     52       2.2368      2.00000
     53       2.7292      2.00000
     54       2.7292      2.00000
     55       5.3483      0.00000
     56       5.3483      0.00000
     57       6.7613      0.00000
     58       6.7613      0.00000
     59       7.9376      0.00000
     60       7.9376      0.00000
     61       8.4657      0.00000
     62       8.4657      0.00000
     63       9.1949      0.00000
     64       9.1949      0.00000
     65       9.6902      0.00000
     66       9.6902      0.00000
     67      10.0945      0.00000
     68      10.0945      0.00000
     69      10.3357      0.00000
     70      10.3357      0.00000
     71      10.8539      0.00000
     72      10.8539      0.00000
     73      11.7220      0.00000
     74      11.7220      0.00000
     75      12.0619      0.00000
     76      12.0619      0.00000
     77      13.1854      0.00000
     78      13.1854      0.00000
     79      13.5134      0.00000
     80      13.5134      0.00000
     81      14.0416      0.00000
     82      14.0416      0.00000
     83      14.8726      0.00000
     84      14.8726      0.00000
     85      15.3357      0.00000
     86      15.3357      0.00000
     87      15.8890      0.00000
     88      15.8890      0.00000
     89      16.4428      0.00000
     90      16.4428      0.00000
     91      16.9328      0.00000
     92      16.9328      0.00000
     93      17.7868      0.00000
     94      17.7868      0.00000
     95      18.1947      0.00000
     96      18.1947      0.00000
     97      18.6418      0.00000
     98      18.6418      0.00000
     99      18.9928      0.00000
    100      18.9928      0.00000
    101      19.5939      0.00000
    102      19.5939      0.00000
    103      19.8568      0.00000
    104      19.8568      0.00000
    105      20.3666      0.00000
    106      20.3666      0.00000
    107      20.8836      0.00000
    108      20.8836      0.00000
    109      21.5870      0.00000
    110      21.5870      0.00000
    111      22.1353      0.00000
    112      22.1353      0.00000
    113      22.4926      0.00000
    114      22.4926      0.00000
    115      22.9987      0.00000
    116      22.9987      0.00000
    117      23.6594      0.00000
    118      23.6594      0.00000
    119      23.8459      0.00000
    120      23.8459      0.00000
    121      24.2109      0.00000
    122      24.2109      0.00000
    123      24.4888      0.00000
    124      24.4888      0.00000
    125      25.0721      0.00000
    126      25.0721      0.00000
    127      25.7702      0.00000
    128      25.7702      0.00000
    129      25.9401      0.00000
    130      25.9401      0.00000
    131      26.1029      0.00000
    132      26.1029      0.00000
    133      26.3618      0.00000
    134      26.3618      0.00000
    135      26.7526      0.00000
    136      26.7526      0.00000
    137      27.0870      0.00000
    138      27.0870      0.00000
    139      27.3682      0.00000
    140      27.3686      0.00000

 k-point   145 :       0.2344    0.2344    0.5000
  band No.  band energies     occupation 
      1     -25.4524      2.00000
      2     -25.4524      2.00000
      3     -25.4395      2.00000
      4     -25.4395      2.00000
      5     -25.4100      2.00000
      6     -25.4100      2.00000
      7     -25.3874      2.00000
      8     -25.3874      2.00000
      9     -25.3820      2.00000
     10     -25.3820      2.00000
     11     -12.2800      2.00000
     12     -12.2800      2.00000
     13     -11.2467      2.00000
     14     -11.2467      2.00000
     15     -10.8844      2.00000
     16     -10.8844      2.00000
     17      -5.8493      2.00000
     18      -5.8493      2.00000
     19      -2.4440      2.00000
     20      -2.4440      2.00000
     21      -1.9539      2.00000
     22      -1.9539      2.00000
     23      -1.5443      2.00000
     24      -1.5443      2.00000
     25      -1.1722      2.00000
     26      -1.1722      2.00000
     27      -0.8921      2.00000
     28      -0.8921      2.00000
     29      -0.6434      2.00000
     30      -0.6434      2.00000
     31      -0.5041      2.00000
     32      -0.5041      2.00000
     33      -0.4356      2.00000
     34      -0.4356      2.00000
     35       0.5371      2.00000
     36       0.5371      2.00000
     37       0.5637      2.00000
     38       0.5637      2.00000
     39       0.6463      2.00000
     40       0.6463      2.00000
     41       0.7109      2.00000
     42       0.7109      2.00000
     43       0.9939      2.00000
     44       0.9939      2.00000
     45       1.1631      2.00000
     46       1.1631      2.00000
     47       1.5459      2.00000
     48       1.5459      2.00000
     49       1.8934      2.00000
     50       1.8934      2.00000
     51       2.1982      2.00000
     52       2.1982      2.00000
     53       2.7019      2.00000
     54       2.7019      2.00000
     55       5.3675      0.00000
     56       5.3675      0.00000
     57       6.7816      0.00000
     58       6.7816      0.00000
     59       7.9162      0.00000
     60       7.9162      0.00000
     61       8.4274      0.00000
     62       8.4274      0.00000
     63       9.2057      0.00000
     64       9.2057      0.00000
     65       9.7085      0.00000
     66       9.7085      0.00000
     67      10.0572      0.00000
     68      10.0572      0.00000
     69      10.3202      0.00000
     70      10.3202      0.00000
     71      10.8601      0.00000
     72      10.8601      0.00000
     73      11.7179      0.00000
     74      11.7179      0.00000
     75      12.0347      0.00000
     76      12.0347      0.00000
     77      13.1652      0.00000
     78      13.1652      0.00000
     79      13.5402      0.00000
     80      13.5402      0.00000
     81      14.0592      0.00000
     82      14.0592      0.00000
     83      14.9409      0.00000
     84      14.9409      0.00000
     85      15.4033      0.00000
     86      15.4033      0.00000
     87      15.9723      0.00000
     88      15.9723      0.00000
     89      16.5590      0.00000
     90      16.5590      0.00000
     91      17.0244      0.00000
     92      17.0244      0.00000
     93      17.7756      0.00000
     94      17.7756      0.00000
     95      18.1424      0.00000
     96      18.1424      0.00000
     97      18.5830      0.00000
     98      18.5830      0.00000
     99      18.9022      0.00000
    100      18.9022      0.00000
    101      19.5180      0.00000
    102      19.5180      0.00000
    103      19.7468      0.00000
    104      19.7468      0.00000
    105      20.3680      0.00000
    106      20.3680      0.00000
    107      20.9309      0.00000
    108      20.9309      0.00000
    109      21.5329      0.00000
    110      21.5329      0.00000
    111      22.0398      0.00000
    112      22.0398      0.00000
    113      22.5356      0.00000
    114      22.5356      0.00000
    115      23.0183      0.00000
    116      23.0183      0.00000
    117      23.6113      0.00000
    118      23.6113      0.00000
    119      23.8303      0.00000
    120      23.8303      0.00000
    121      24.2249      0.00000
    122      24.2249      0.00000
    123      24.4895      0.00000
    124      24.4895      0.00000
    125      25.1279      0.00000
    126      25.1279      0.00000
    127      25.7944      0.00000
    128      25.7944      0.00000
    129      25.9483      0.00000
    130      25.9483      0.00000
    131      26.0952      0.00000
    132      26.0952      0.00000
    133      26.4272      0.00000
    134      26.4272      0.00000
    135      26.7145      0.00000
    136      26.7145      0.00000
    137      27.1081      0.00000
    138      27.1081      0.00000
    139      27.3065      0.00000
    140      27.3067      0.00000

 k-point   146 :       0.2500    0.2500    0.5000
  band No.  band energies     occupation 
      1     -25.4526      2.00000
      2     -25.4526      2.00000
      3     -25.4397      2.00000
      4     -25.4397      2.00000
      5     -25.4102      2.00000
      6     -25.4102      2.00000
      7     -25.3876      2.00000
      8     -25.3876      2.00000
      9     -25.3822      2.00000
     10     -25.3822      2.00000
     11     -12.2714      2.00000
     12     -12.2714      2.00000
     13     -11.2552      2.00000
     14     -11.2552      2.00000
     15     -10.8907      2.00000
     16     -10.8907      2.00000
     17      -5.8418      2.00000
     18      -5.8418      2.00000
     19      -2.4523      2.00000
     20      -2.4523      2.00000
     21      -1.9469      2.00000
     22      -1.9469      2.00000
     23      -1.5232      2.00000
     24      -1.5232      2.00000
     25      -1.1733      2.00000
     26      -1.1733      2.00000
     27      -0.8932      2.00000
     28      -0.8932      2.00000
     29      -0.6446      2.00000
     30      -0.6446      2.00000
     31      -0.5022      2.00000
     32      -0.5022      2.00000
     33      -0.4345      2.00000
     34      -0.4345      2.00000
     35       0.5359      2.00000
     36       0.5359      2.00000
     37       0.5625      2.00000
     38       0.5625      2.00000
     39       0.6451      2.00000
     40       0.6451      2.00000
     41       0.7097      2.00000
     42       0.7097      2.00000
     43       1.0054      2.00000
     44       1.0054      2.00000
     45       1.1828      2.00000
     46       1.1828      2.00000
     47       1.5383      2.00000
     48       1.5383      2.00000
     49       1.8875      2.00000
     50       1.8875      2.00000
     51       2.1654      2.00000
     52       2.1654      2.00000
     53       2.6734      2.00000
     54       2.6734      2.00000
     55       5.3847      0.00000
     56       5.3847      0.00000
     57       6.8001      0.00000
     58       6.8001      0.00000
     59       7.8886      0.00000
     60       7.8886      0.00000
     61       8.3917      0.00000
     62       8.3917      0.00000
     63       9.2172      0.00000
     64       9.2172      0.00000
     65       9.7248      0.00000
     66       9.7248      0.00000
     67      10.0181      0.00000
     68      10.0181      0.00000
     69      10.3176      0.00000
     70      10.3176      0.00000
     71      10.8702      0.00000
     72      10.8702      0.00000
     73      11.6999      0.00000
     74      11.6999      0.00000
     75      12.0258      0.00000
     76      12.0258      0.00000
     77      13.1389      0.00000
     78      13.1389      0.00000
     79      13.5635      0.00000
     80      13.5635      0.00000
     81      14.0884      0.00000
     82      14.0884      0.00000
     83      15.0045      0.00000
     84      15.0045      0.00000
     85      15.4658      0.00000
     86      15.4658      0.00000
     87      16.0514      0.00000
     88      16.0514      0.00000
     89      16.6722      0.00000
     90      16.6722      0.00000
     91      17.1104      0.00000
     92      17.1104      0.00000
     93      17.7498      0.00000
     94      17.7498      0.00000
     95      18.1042      0.00000
     96      18.1042      0.00000
     97      18.5396      0.00000
     98      18.5396      0.00000
     99      18.8228      0.00000
    100      18.8228      0.00000
    101      19.4354      0.00000
    102      19.4354      0.00000
    103      19.6516      0.00000
    104      19.6516      0.00000
    105      20.3782      0.00000
    106      20.3782      0.00000
    107      20.9552      0.00000
    108      20.9552      0.00000
    109      21.4939      0.00000
    110      21.4939      0.00000
    111      21.9460      0.00000
    112      21.9460      0.00000
    113      22.5829      0.00000
    114      22.5829      0.00000
    115      23.0347      0.00000
    116      23.0347      0.00000
    117      23.5115      0.00000
    118      23.5115      0.00000
    119      23.8359      0.00000
    120      23.8359      0.00000
    121      24.2228      0.00000
    122      24.2228      0.00000
    123      24.5049      0.00000
    124      24.5049      0.00000
    125      25.2015      0.00000
    126      25.2015      0.00000
    127      25.7635      0.00000
    128      25.7635      0.00000
    129      25.9654      0.00000
    130      25.9654      0.00000
    131      26.0890      0.00000
    132      26.0890      0.00000
    133      26.5216      0.00000
    134      26.5216      0.00000
    135      26.6612      0.00000
    136      26.6612      0.00000
    137      27.0860      0.00000
    138      27.0860      0.00000
    139      27.2620      0.00000
    140      27.2620      0.00000

 k-point   147 :       0.2656    0.2656    0.5000
  band No.  band energies     occupation 
      1     -25.4528      2.00000
      2     -25.4528      2.00000
      3     -25.4399      2.00000
      4     -25.4399      2.00000
      5     -25.4104      2.00000
      6     -25.4104      2.00000
      7     -25.3877      2.00000
      8     -25.3877      2.00000
      9     -25.3823      2.00000
     10     -25.3823      2.00000
     11     -12.2626      2.00000
     12     -12.2626      2.00000
     13     -11.2639      2.00000
     14     -11.2639      2.00000
     15     -10.8970      2.00000
     16     -10.8970      2.00000
     17      -5.8342      2.00000
     18      -5.8342      2.00000
     19      -2.4598      2.00000
     20      -2.4598      2.00000
     21      -1.9392      2.00000
     22      -1.9392      2.00000
     23      -1.5029      2.00000
     24      -1.5029      2.00000
     25      -1.1779      2.00000
     26      -1.1779      2.00000
     27      -0.8925      2.00000
     28      -0.8925      2.00000
     29      -0.6453      2.00000
     30      -0.6453      2.00000
     31      -0.5003      2.00000
     32      -0.5003      2.00000
     33      -0.4332      2.00000
     34      -0.4332      2.00000
     35       0.5346      2.00000
     36       0.5346      2.00000
     37       0.5616      2.00000
     38       0.5616      2.00000
     39       0.6442      2.00000
     40       0.6442      2.00000
     41       0.7082      2.00000
     42       0.7082      2.00000
     43       1.0170      2.00000
     44       1.0170      2.00000
     45       1.2014      2.00000
     46       1.2014      2.00000
     47       1.5310      2.00000
     48       1.5310      2.00000
     49       1.8797      2.00000
     50       1.8797      2.00000
     51       2.1389      2.00000
     52       2.1389      2.00000
     53       2.6439      2.00000
     54       2.6439      2.00000
     55       5.3999      0.00000
     56       5.3999      0.00000
     57       6.8166      0.00000
     58       6.8166      0.00000
     59       7.8543      0.00000
     60       7.8543      0.00000
     61       8.3602      0.00000
     62       8.3602      0.00000
     63       9.2282      0.00000
     64       9.2282      0.00000
     65       9.7364      0.00000
     66       9.7364      0.00000
     67       9.9818      0.00000
     68       9.9818      0.00000
     69      10.3266      0.00000
     70      10.3266      0.00000
     71      10.8831      0.00000
     72      10.8831      0.00000
     73      11.6696      0.00000
     74      11.6696      0.00000
     75      12.0347      0.00000
     76      12.0347      0.00000
     77      13.1068      0.00000
     78      13.1068      0.00000
     79      13.5807      0.00000
     80      13.5807      0.00000
     81      14.1313      0.00000
     82      14.1313      0.00000
     83      15.0600      0.00000
     84      15.0600      0.00000
     85      15.5247      0.00000
     86      15.5247      0.00000
     87      16.1247      0.00000
     88      16.1247      0.00000
     89      16.7806      0.00000
     90      16.7806      0.00000
     91      17.1876      0.00000
     92      17.1876      0.00000
     93      17.7052      0.00000
     94      17.7052      0.00000
     95      18.0855      0.00000
     96      18.0855      0.00000
     97      18.5110      0.00000
     98      18.5110      0.00000
     99      18.7578      0.00000
    100      18.7578      0.00000
    101      19.3468      0.00000
    102      19.3468      0.00000
    103      19.5775      0.00000
    104      19.5775      0.00000
    105      20.3951      0.00000
    106      20.3951      0.00000
    107      20.9442      0.00000
    108      20.9442      0.00000
    109      21.4761      0.00000
    110      21.4761      0.00000
    111      21.8652      0.00000
    112      21.8652      0.00000
    113      22.6288      0.00000
    114      22.6288      0.00000
    115      23.0322      0.00000
    116      23.0322      0.00000
    117      23.4048      0.00000
    118      23.4048      0.00000
    119      23.8453      0.00000
    120      23.8453      0.00000
    121      24.2080      0.00000
    122      24.2080      0.00000
    123      24.5278      0.00000
    124      24.5278      0.00000
    125      25.2805      0.00000
    126      25.2805      0.00000
    127      25.7051      0.00000
    128      25.7051      0.00000
    129      25.9501      0.00000
    130      25.9501      0.00000
    131      26.1082      0.00000
    132      26.1082      0.00000
    133      26.5671      0.00000
    134      26.5671      0.00000
    135      26.6622      0.00000
    136      26.6622      0.00000
    137      27.0265      0.00000
    138      27.0265      0.00000
    139      27.2338      0.00000
    140      27.2338      0.00000

 k-point   148 :       0.2812    0.2812    0.5000
  band No.  band energies     occupation 
      1     -25.4530      2.00000
      2     -25.4530      2.00000
      3     -25.4400      2.00000
      4     -25.4400      2.00000
      5     -25.4105      2.00000
      6     -25.4105      2.00000
      7     -25.3879      2.00000
      8     -25.3879      2.00000
      9     -25.3825      2.00000
     10     -25.3825      2.00000
     11     -12.2537      2.00000
     12     -12.2537      2.00000
     13     -11.2727      2.00000
     14     -11.2727      2.00000
     15     -10.9033      2.00000
     16     -10.9033      2.00000
     17      -5.8266      2.00000
     18      -5.8266      2.00000
     19      -2.4666      2.00000
     20      -2.4666      2.00000
     21      -1.9308      2.00000
     22      -1.9308      2.00000
     23      -1.4841      2.00000
     24      -1.4841      2.00000
     25      -1.1847      2.00000
     26      -1.1847      2.00000
     27      -0.8908      2.00000
     28      -0.8908      2.00000
     29      -0.6451      2.00000
     30      -0.6451      2.00000
     31      -0.4986      2.00000
     32      -0.4986      2.00000
     33      -0.4318      2.00000
     34      -0.4318      2.00000
     35       0.5332      2.00000
     36       0.5332      2.00000
     37       0.5610      2.00000
     38       0.5610      2.00000
     39       0.6435      2.00000
     40       0.6435      2.00000
     41       0.7065      2.00000
     42       0.7065      2.00000
     43       1.0285      2.00000
     44       1.0285      2.00000
     45       1.2182      2.00000
     46       1.2182      2.00000
     47       1.5247      2.00000
     48       1.5247      2.00000
     49       1.8702      2.00000
     50       1.8702      2.00000
     51       2.1188      2.00000
     52       2.1188      2.00000
     53       2.6135      2.00000
     54       2.6135      2.00000
     55       5.4132      0.00000
     56       5.4132      0.00000
     57       6.8309      0.00000
     58       6.8309      0.00000
     59       7.8138      0.00000
     60       7.8138      0.00000
     61       8.3339      0.00000
     62       8.3339      0.00000
     63       9.2383      0.00000
     64       9.2383      0.00000
     65       9.7407      0.00000
     66       9.7407      0.00000
     67       9.9522      0.00000
     68       9.9522      0.00000
     69      10.3458      0.00000
     70      10.3458      0.00000
     71      10.8982      0.00000
     72      10.8982      0.00000
     73      11.6321      0.00000
     74      11.6321      0.00000
     75      12.0579      0.00000
     76      12.0579      0.00000
     77      13.0695      0.00000
     78      13.0695      0.00000
     79      13.5913      0.00000
     80      13.5913      0.00000
     81      14.1876      0.00000
     82      14.1876      0.00000
     83      15.1034      0.00000
     84      15.1034      0.00000
     85      15.5816      0.00000
     86      15.5816      0.00000
     87      16.1913      0.00000
     88      16.1913      0.00000
     89      16.8823      0.00000
     90      16.8823      0.00000
     91      17.2524      0.00000
     92      17.2524      0.00000
     93      17.6486      0.00000
     94      17.6486      0.00000
     95      18.0830      0.00000
     96      18.0830      0.00000
     97      18.4898      0.00000
     98      18.4898      0.00000
     99      18.7127      0.00000
    100      18.7127      0.00000
    101      19.2564      0.00000
    102      19.2564      0.00000
    103      19.5287      0.00000
    104      19.5287      0.00000
    105      20.4144      0.00000
    106      20.4144      0.00000
    107      20.9003      0.00000
    108      20.9003      0.00000
    109      21.4651      0.00000
    110      21.4651      0.00000
    111      21.8155      0.00000
    112      21.8155      0.00000
    113      22.6634      0.00000
    114      22.6634      0.00000
    115      22.9910      0.00000
    116      22.9910      0.00000
    117      23.3326      0.00000
    118      23.3326      0.00000
    119      23.8518      0.00000
    120      23.8518      0.00000
    121      24.1856      0.00000
    122      24.1856      0.00000
    123      24.5507      0.00000
    124      24.5507      0.00000
    125      25.3443      0.00000
    126      25.3443      0.00000
    127      25.6438      0.00000
    128      25.6438      0.00000
    129      25.9066      0.00000
    130      25.9066      0.00000
    131      26.1358      0.00000
    132      26.1358      0.00000
    133      26.5118      0.00000
    134      26.5118      0.00000
    135      26.7547      0.00000
    136      26.7547      0.00000
    137      26.9617      0.00000
    138      26.9617      0.00000
    139      27.2138      0.00000
    140      27.2138      0.00000

 k-point   149 :       0.2969    0.2969    0.5000
  band No.  band energies     occupation 
      1     -25.4531      2.00000
      2     -25.4531      2.00000
      3     -25.4402      2.00000
      4     -25.4402      2.00000
      5     -25.4107      2.00000
      6     -25.4107      2.00000
      7     -25.3881      2.00000
      8     -25.3881      2.00000
      9     -25.3827      2.00000
     10     -25.3827      2.00000
     11     -12.2447      2.00000
     12     -12.2447      2.00000
     13     -11.2816      2.00000
     14     -11.2816      2.00000
     15     -10.9094      2.00000
     16     -10.9094      2.00000
     17      -5.8191      2.00000
     18      -5.8191      2.00000
     19      -2.4726      2.00000
     20      -2.4726      2.00000
     21      -1.9218      2.00000
     22      -1.9218      2.00000
     23      -1.4678      2.00000
     24      -1.4678      2.00000
     25      -1.1922      2.00000
     26      -1.1922      2.00000
     27      -0.8890      2.00000
     28      -0.8890      2.00000
     29      -0.6441      2.00000
     30      -0.6441      2.00000
     31      -0.4971      2.00000
     32      -0.4971      2.00000
     33      -0.4302      2.00000
     34      -0.4302      2.00000
     35       0.5315      2.00000
     36       0.5315      2.00000
     37       0.5608      2.00000
     38       0.5608      2.00000
     39       0.6431      2.00000
     40       0.6431      2.00000
     41       0.7045      2.00000
     42       0.7045      2.00000
     43       1.0396      2.00000
     44       1.0396      2.00000
     45       1.2323      2.00000
     46       1.2323      2.00000
     47       1.5203      2.00000
     48       1.5203      2.00000
     49       1.8594      2.00000
     50       1.8594      2.00000
     51       2.1046      2.00000
     52       2.1046      2.00000
     53       2.5828      2.00000
     54       2.5828      2.00000
     55       5.4245      0.00000
     56       5.4245      0.00000
     57       6.8428      0.00000
     58       6.8428      0.00000
     59       7.7681      0.00000
     60       7.7681      0.00000
     61       8.3128      0.00000
     62       8.3128      0.00000
     63       9.2471      0.00000
     64       9.2471      0.00000
     65       9.7358      0.00000
     66       9.7358      0.00000
     67       9.9318      0.00000
     68       9.9318      0.00000
     69      10.3735      0.00000
     70      10.3735      0.00000
     71      10.9148      0.00000
     72      10.9148      0.00000
     73      11.5927      0.00000
     74      11.5927      0.00000
     75      12.0914      0.00000
     76      12.0914      0.00000
     77      13.0274      0.00000
     78      13.0274      0.00000
     79      13.5962      0.00000
     80      13.5962      0.00000
     81      14.2551      0.00000
     82      14.2551      0.00000
     83      15.1313      0.00000
     84      15.1313      0.00000
     85      15.6380      0.00000
     86      15.6380      0.00000
     87      16.2507      0.00000
     88      16.2507      0.00000
     89      16.9745      0.00000
     90      16.9745      0.00000
     91      17.2994      0.00000
     92      17.2994      0.00000
     93      17.5954      0.00000
     94      17.5954      0.00000
     95      18.0896      0.00000
     96      18.0896      0.00000
     97      18.4662      0.00000
     98      18.4662      0.00000
     99      18.6898      0.00000
    100      18.6898      0.00000
    101      19.1707      0.00000
    102      19.1707      0.00000
    103      19.5099      0.00000
    104      19.5099      0.00000
    105      20.4281      0.00000
    106      20.4281      0.00000
    107      20.8397      0.00000
    108      20.8397      0.00000
    109      21.4346      0.00000
    110      21.4346      0.00000
    111      21.8149      0.00000
    112      21.8149      0.00000
    113      22.6579      0.00000
    114      22.6579      0.00000
    115      22.9324      0.00000
    116      22.9324      0.00000
    117      23.3069      0.00000
    118      23.3069      0.00000
    119      23.8534      0.00000
    120      23.8534      0.00000
    121      24.1607      0.00000
    122      24.1607      0.00000
    123      24.5675      0.00000
    124      24.5675      0.00000
    125      25.3564      0.00000
    126      25.3564      0.00000
    127      25.6125      0.00000
    128      25.6125      0.00000
    129      25.8449      0.00000
    130      25.8449      0.00000
    131      26.1478      0.00000
    132      26.1478      0.00000
    133      26.4720      0.00000
    134      26.4720      0.00000
    135      26.7965      0.00000
    136      26.7965      0.00000
    137      26.9080      0.00000
    138      26.9080      0.00000
    139      27.2428      0.00000
    140      27.2428      0.00000

 k-point   150 :       0.3125    0.3125    0.5000
  band No.  band energies     occupation 
      1     -25.4533      2.00000
      2     -25.4533      2.00000
      3     -25.4404      2.00000
      4     -25.4404      2.00000
      5     -25.4109      2.00000
      6     -25.4109      2.00000
      7     -25.3883      2.00000
      8     -25.3883      2.00000
      9     -25.3829      2.00000
     10     -25.3829      2.00000
     11     -12.2359      2.00000
     12     -12.2359      2.00000
     13     -11.2903      2.00000
     14     -11.2903      2.00000
     15     -10.9154      2.00000
     16     -10.9154      2.00000
     17      -5.8118      2.00000
     18      -5.8118      2.00000
     19      -2.4777      2.00000
     20      -2.4777      2.00000
     21      -1.9122      2.00000
     22      -1.9122      2.00000
     23      -1.4552      2.00000
     24      -1.4552      2.00000
     25      -1.1985      2.00000
     26      -1.1985      2.00000
     27      -0.8879      2.00000
     28      -0.8879      2.00000
     29      -0.6420      2.00000
     30      -0.6420      2.00000
     31      -0.4958      2.00000
     32      -0.4958      2.00000
     33      -0.4283      2.00000
     34      -0.4283      2.00000
     35       0.5297      2.00000
     36       0.5297      2.00000
     37       0.5610      2.00000
     38       0.5610      2.00000
     39       0.6430      2.00000
     40       0.6430      2.00000
     41       0.7022      2.00000
     42       0.7022      2.00000
     43       1.0502      2.00000
     44       1.0502      2.00000
     45       1.2430      2.00000
     46       1.2430      2.00000
     47       1.5187      2.00000
     48       1.5187      2.00000
     49       1.8482      2.00000
     50       1.8482      2.00000
     51       2.0955      2.00000
     52       2.0955      2.00000
     53       2.5519      2.00000
     54       2.5519      2.00000
     55       5.4341      0.00000
     56       5.4341      0.00000
     57       6.8522      0.00000
     58       6.8522      0.00000
     59       7.7190      0.00000
     60       7.7190      0.00000
     61       8.2964      0.00000
     62       8.2964      0.00000
     63       9.2543      0.00000
     64       9.2543      0.00000
     65       9.7224      0.00000
     66       9.7224      0.00000
     67       9.9208      0.00000
     68       9.9208      0.00000
     69      10.4075      0.00000
     70      10.4075      0.00000
     71      10.9322      0.00000
     72      10.9322      0.00000
     73      11.5555      0.00000
     74      11.5555      0.00000
     75      12.1322      0.00000
     76      12.1322      0.00000
     77      12.9815      0.00000
     78      12.9815      0.00000
     79      13.5973      0.00000
     80      13.5973      0.00000
     81      14.3309      0.00000
     82      14.3309      0.00000
     83      15.1412      0.00000
     84      15.1412      0.00000
     85      15.6948      0.00000
     86      15.6948      0.00000
     87      16.3028      0.00000
     88      16.3028      0.00000
     89      17.0530      0.00000
     90      17.0530      0.00000
     91      17.3204      0.00000
     92      17.3204      0.00000
     93      17.5638      0.00000
     94      17.5638      0.00000
     95      18.1000      0.00000
     96      18.1000      0.00000
     97      18.4399      0.00000
     98      18.4399      0.00000
     99      18.6791      0.00000
    100      18.6791      0.00000
    101      19.0961      0.00000
    102      19.0961      0.00000
    103      19.5267      0.00000
    104      19.5267      0.00000
    105      20.4237      0.00000
    106      20.4237      0.00000
    107      20.7825      0.00000
    108      20.7825      0.00000
    109      21.3830      0.00000
    110      21.3830      0.00000
    111      21.8562      0.00000
    112      21.8562      0.00000
    113      22.5735      0.00000
    114      22.5735      0.00000
    115      22.9219      0.00000
    116      22.9219      0.00000
    117      23.3041      0.00000
    118      23.3041      0.00000
    119      23.8487      0.00000
    120      23.8487      0.00000
    121      24.1367      0.00000
    122      24.1367      0.00000
    123      24.5742      0.00000
    124      24.5742      0.00000
    125      25.2991      0.00000
    126      25.2991      0.00000
    127      25.6193      0.00000
    128      25.6193      0.00000
    129      25.7726      0.00000
    130      25.7726      0.00000
    131      26.1292      0.00000
    132      26.1292      0.00000
    133      26.4713      0.00000
    134      26.4713      0.00000
    135      26.7738      0.00000
    136      26.7738      0.00000
    137      26.8663      0.00000
    138      26.8663      0.00000
    139      27.3407      0.00000
    140      27.3507      0.00000

 k-point   151 :       0.3281    0.3281    0.5000
  band No.  band energies     occupation 
      1     -25.4535      2.00000
      2     -25.4535      2.00000
      3     -25.4406      2.00000
      4     -25.4406      2.00000
      5     -25.4111      2.00000
      6     -25.4111      2.00000
      7     -25.3884      2.00000
      8     -25.3884      2.00000
      9     -25.3830      2.00000
     10     -25.3830      2.00000
     11     -12.2272      2.00000
     12     -12.2272      2.00000
     13     -11.2989      2.00000
     14     -11.2989      2.00000
     15     -10.9211      2.00000
     16     -10.9211      2.00000
     17      -5.8047      2.00000
     18      -5.8046      2.00000
     19      -2.4821      2.00000
     20      -2.4821      2.00000
     21      -1.9021      2.00000
     22      -1.9021      2.00000
     23      -1.4476      2.00000
     24      -1.4476      2.00000
     25      -1.2018      2.00000
     26      -1.2018      2.00000
     27      -0.8881      2.00000
     28      -0.8881      2.00000
     29      -0.6389      2.00000
     30      -0.6389      2.00000
     31      -0.4950      2.00000
     32      -0.4950      2.00000
     33      -0.4262      2.00000
     34      -0.4262      2.00000
     35       0.5278      2.00000
     36       0.5278      2.00000
     37       0.5615      2.00000
     38       0.5615      2.00000
     39       0.6432      2.00000
     40       0.6432      2.00000
     41       0.6998      2.00000
     42       0.6998      2.00000
     43       1.0599      2.00000
     44       1.0599      2.00000
     45       1.2498      2.00000
     46       1.2498      2.00000
     47       1.5205      2.00000
     48       1.5205      2.00000
     49       1.8373      2.00000
     50       1.8373      2.00000
     51       2.0902      2.00000
     52       2.0902      2.00000
     53       2.5214      2.00000
     54       2.5214      2.00000
     55       5.4419      0.00000
     56       5.4419      0.00000
     57       6.8593      0.00000
     58       6.8593      0.00000
     59       7.6683      0.00000
     60       7.6683      0.00000
     61       8.2838      0.00000
     62       8.2838      0.00000
     63       9.2599      0.00000
     64       9.2599      0.00000
     65       9.7033      0.00000
     66       9.7033      0.00000
     67       9.9173      0.00000
     68       9.9173      0.00000
     69      10.4451      0.00000
     70      10.4451      0.00000
     71      10.9498      0.00000
     72      10.9498      0.00000
     73      11.5237      0.00000
     74      11.5237      0.00000
     75      12.1781      0.00000
     76      12.1781      0.00000
     77      12.9331      0.00000
     78      12.9331      0.00000
     79      13.5959      0.00000
     80      13.5959      0.00000
     81      14.4116      0.00000
     82      14.4116      0.00000
     83      15.1331      0.00000
     84      15.1331      0.00000
     85      15.7513      0.00000
     86      15.7513      0.00000
     87      16.3479      0.00000
     88      16.3479      0.00000
     89      17.1110      0.00000
     90      17.1110      0.00000
     91      17.3172      0.00000
     92      17.3172      0.00000
     93      17.5623      0.00000
     94      17.5623      0.00000
     95      18.1103      0.00000
     96      18.1103      0.00000
     97      18.4199      0.00000
     98      18.4199      0.00000
     99      18.6651      0.00000
    100      18.6651      0.00000
    101      19.0370      0.00000
    102      19.0370      0.00000
    103      19.5824      0.00000
    104      19.5824      0.00000
    105      20.3884      0.00000
    106      20.3884      0.00000
    107      20.7430      0.00000
    108      20.7430      0.00000
    109      21.3295      0.00000
    110      21.3295      0.00000
    111      21.9123      0.00000
    112      21.9123      0.00000
    113      22.4425      0.00000
    114      22.4425      0.00000
    115      22.9539      0.00000
    116      22.9539      0.00000
    117      23.3047      0.00000
    118      23.3047      0.00000
    119      23.8347      0.00000
    120      23.8347      0.00000
    121      24.1171      0.00000
    122      24.1171      0.00000
    123      24.5685      0.00000
    124      24.5685      0.00000
    125      25.2051      0.00000
    126      25.2051      0.00000
    127      25.5973      0.00000
    128      25.5973      0.00000
    129      25.7242      0.00000
    130      25.7242      0.00000
    131      26.0881      0.00000
    132      26.0881      0.00000
    133      26.4896      0.00000
    134      26.4896      0.00000
    135      26.7459      0.00000
    136      26.7459      0.00000
    137      26.8367      0.00000
    138      26.8367      0.00000
    139      27.4445      0.00000
    140      27.4487      0.00000


--------------------------------------------------------------------------------------------------------


 soft charge-density along one line, spin component           1
         0         1         2         3         4         5         6         7         8         9
 total charge-density along one line

 pseudopotential strength for first ion, spin component:           1
 -1.673  -0.003   0.000  -0.004   0.000  -5.936   0.002  -0.001
 -0.003  -1.678  -0.005  -0.003  -0.002   0.002  -5.933   0.002
  0.000  -0.005  -1.665  -0.003  -0.016  -0.001   0.002  -5.942
 -0.004  -0.003  -0.003  -1.651  -0.005   0.002   0.002   0.002
  0.000  -0.002  -0.016  -0.005  -1.674  -0.000   0.000   0.011
 -5.936   0.002  -0.001   0.002  -0.000  11.316  -0.001   0.001
  0.002  -5.933   0.002   0.002   0.000  -0.001  11.314  -0.001
 -0.001   0.002  -5.942   0.002   0.011   0.001  -0.001  11.320
  0.002   0.002   0.002  -5.952   0.004  -0.001  -0.001  -0.001
 -0.000   0.000   0.011   0.004  -5.936   0.000   0.001  -0.008
  0.001  -0.001  -0.001   0.001  -0.002  -0.001   0.001   0.000
  0.001  -0.002  -0.001   0.001  -0.004  -0.001   0.001   0.001
  0.008  -0.007   0.001   0.000   0.005  -0.004   0.003  -0.000
  0.000  -0.006   0.002   0.003  -0.000  -0.000   0.003  -0.001
 -0.003   0.000  -0.002  -0.007  -0.002   0.001  -0.000   0.001
  0.012  -0.010   0.001   0.001   0.007  -0.005   0.003  -0.000
  0.001  -0.008   0.006   0.004  -0.000  -0.000   0.003  -0.001
 -0.003   0.001  -0.002  -0.010  -0.005   0.000  -0.000   0.001
 total augmentation occupancy for first ion, spin component:           1
  1.964   0.001  -0.002  -0.003   0.000  -0.011  -0.000   0.002   0.003  -0.000   0.002  -0.001  -0.028  -0.006  -0.008  -0.005
  0.001   1.966  -0.007  -0.004  -0.008  -0.000  -0.010   0.006   0.003   0.007   0.002   0.003   0.021   0.016   0.001   0.002
 -0.002  -0.007   1.964  -0.001  -0.003   0.002   0.006  -0.008   0.001   0.002   0.005  -0.003   0.007  -0.024  -0.001   0.004
 -0.003  -0.004  -0.001   1.971  -0.001   0.003   0.003   0.001  -0.013   0.001   0.007  -0.001  -0.004   0.001   0.017  -0.000
  0.000  -0.008  -0.003  -0.001   1.964  -0.000   0.007   0.002   0.001  -0.009   0.002  -0.003  -0.012   0.002   0.024   0.004
 -0.011  -0.000   0.002   0.003  -0.000   0.017  -0.008  -0.001  -0.002  -0.002   0.002  -0.000   0.046   0.003   0.010  -0.005
 -0.000  -0.010   0.006   0.003   0.007  -0.008   0.012  -0.001  -0.001  -0.002  -0.007   0.001  -0.033  -0.005   0.001   0.004
  0.002   0.006  -0.008   0.001   0.002  -0.001  -0.001   0.025  -0.000  -0.001   0.006  -0.001  -0.008   0.062   0.003   0.001
  0.003   0.003   0.001  -0.013   0.001  -0.002  -0.001  -0.000   0.012   0.009   0.004  -0.001   0.002  -0.001  -0.034  -0.000
 -0.000   0.007   0.002   0.001  -0.009  -0.002  -0.002  -0.001   0.009   0.017   0.002  -0.000   0.001  -0.002  -0.049  -0.000
  0.002   0.002   0.005   0.007   0.002   0.002  -0.007   0.006   0.004   0.002   1.956  -0.361   0.029   0.019  -0.012  -0.004
 -0.001   0.003  -0.003  -0.001  -0.003  -0.000   0.001  -0.001  -0.001  -0.000  -0.361   0.070  -0.004  -0.002   0.001   0.001
 -0.028   0.021   0.007  -0.004  -0.012   0.046  -0.033  -0.008   0.002   0.001   0.029  -0.004   0.218  -0.008   0.004  -0.026
 -0.006   0.016  -0.024   0.001   0.002   0.003  -0.005   0.062  -0.001  -0.002   0.019  -0.002  -0.008   0.235   0.004   0.001
 -0.008   0.001  -0.001   0.017   0.024   0.010   0.001   0.003  -0.034  -0.049  -0.012   0.001   0.004   0.004   0.227  -0.000
 -0.005   0.002   0.004  -0.000   0.004  -0.005   0.004   0.001  -0.000  -0.000  -0.004   0.001  -0.026   0.001  -0.000   0.003
 -0.000  -0.003  -0.013   0.002   0.000  -0.000   0.000  -0.007  -0.000   0.000  -0.003   0.000   0.001  -0.027  -0.000  -0.000
 -0.006  -0.000  -0.002   0.002   0.010  -0.001  -0.000  -0.000   0.004   0.006   0.002  -0.000   0.000  -0.000  -0.026  -0.000


------------------------ aborting loop because EDIFF is reached ----------------------------------------



 optimized coefficients for linear combined projectors, energy window     -28.16     31.24
 species Cu NT=   1 L=   2     0.969    -0.446
 species Cu NT=   1 L=   0     0.586     0.946
 species Cu NT=   1 L=   1     0.788     0.930
 species Ge NT=   2 L=   2     0.997    -0.323
 species Ge NT=   2 L=   0     0.807     0.960
 species Ge NT=   2 L=   1     0.607     0.951
 species Se NT=   3 L=   0     0.866     0.962
 species Se NT=   3 L=   1     0.719     0.953
 species Se NT=   3 L=   2     0.792



 total charge

# of ion       s       p       d       tot
------------------------------------------
    1        0.340   0.319   9.364  10.023
    2        0.340   0.319   9.364  10.023
    3        0.337   0.311   9.367  10.015
    4        0.337   0.311   9.367  10.015
    5        1.112   1.093  10.099  12.304
    6        1.112   1.093  10.099  12.304
    7        1.459   2.418   0.054   3.931
    8        1.459   2.418   0.054   3.931
    9        1.457   2.424   0.054   3.936
   10        1.457   2.424   0.054   3.936
   11        1.472   2.368   0.048   3.888
   12        1.472   2.368   0.048   3.888
--------------------------------------------------
tot         12.353  17.866  57.974  88.193

    CHARGE:  cpu time      0.4987: real time      0.5008
    FORLOC:  cpu time      0.0053: real time      0.0053
    FORHF :  cpu time   4302.5430: real time   4319.8193
    FORNL :  cpu time      3.8461: real time      3.8590
    FORCOR:  cpu time      0.6819: real time      0.6845
    FORHAR:  cpu time      0.0170: real time      0.0171
    MIXING:  cpu time      0.0007: real time      0.0007
    OFIELD:  cpu time      0.0000: real time      0.0001

 VOLUME and BASIS-vectors are now :
 -----------------------------------------------------------------------------
  energy-cutoff  :      500.00
  volume of cell :      262.02
      direct lattice vectors                 reciprocal lattice vectors
     3.403488257  5.959540085  0.000000000     0.146908102  0.083899092  0.049463472
    -3.403488257  5.959540085  0.000000000    -0.146908102  0.083899092 -0.049463472
    -2.174765060  0.000000000  6.459122124     0.000000000 -0.000000000  0.154819801

  length of vectors
     6.862933071  6.862933071  6.815413537     0.176260271  0.176260271  0.154819801


 FORCES acting on ions
    electron-ion (+dipol)            ewald-force                    non-local-force                 convergence-correction
 -----------------------------------------------------------------------------------------------
   -.804E+01 -.621E+01 0.835E+01   0.748E+01 0.732E+01 -.754E+01   0.535E+00 -.110E+01 -.805E+00   0.867E-05 -.533E-05 0.883E-05
   -.804E+01 0.621E+01 0.835E+01   0.748E+01 -.732E+01 -.754E+01   0.535E+00 0.110E+01 -.805E+00   0.153E-04 0.320E-05 0.146E-04
   0.324E+02 -.525E+01 0.133E+02   -.306E+02 0.512E+01 -.126E+02   -.178E+01 0.108E+00 -.723E+00   -.209E-04 0.155E-03 0.281E-04
   0.324E+02 0.525E+01 0.133E+02   -.306E+02 -.512E+01 -.126E+02   -.178E+01 -.108E+00 -.723E+00   -.173E-04 -.153E-03 0.266E-04
   -.248E+02 0.796E+01 -.264E+02   0.230E+02 -.466E+01 0.236E+02   0.170E+01 -.304E+01 0.261E+01   0.319E-03 -.509E-03 0.272E-03
   -.248E+02 -.796E+01 -.264E+02   0.230E+02 0.466E+01 0.236E+02   0.170E+01 0.304E+01 0.261E+01   0.321E-03 0.511E-03 0.271E-03
   0.584E+02 -.113E+01 0.101E+02   -.604E+02 0.113E+01 -.106E+02   0.172E+01 -.429E-02 0.425E+00   -.245E-03 0.818E-04 0.608E-04
   0.584E+02 0.113E+01 0.101E+02   -.604E+02 -.113E+01 -.106E+02   0.172E+01 0.429E-02 0.425E+00   -.246E-03 -.795E-04 0.609E-04
   -.242E+02 0.283E+02 0.111E+02   0.251E+02 -.299E+02 -.118E+02   -.744E+00 0.131E+01 0.598E+00   0.259E-03 0.957E-04 -.149E-03
   -.242E+02 -.283E+02 0.111E+02   0.251E+02 0.299E+02 -.118E+02   -.744E+00 -.131E+01 0.598E+00   0.258E-03 -.971E-04 -.150E-03
   -.343E+02 0.200E+02 -.176E+02   0.354E+02 -.216E+02 0.189E+02   -.102E+01 0.136E+01 -.114E+01   -.367E-04 0.122E-03 0.304E-04
   -.343E+02 -.200E+02 -.176E+02   0.354E+02 0.216E+02 0.189E+02   -.102E+01 -.136E+01 -.114E+01   -.375E-04 -.123E-03 0.304E-04
 -----------------------------------------------------------------------------------------------
   -.106E+01 -.430E-06 -.223E+01   0.497E-13 0.178E-13 -.497E-13   0.824E+00 -.222E-15 0.192E+01   0.579E-03 0.235E-05 0.506E-03


 POSITION                                       TOTAL-FORCE (eV/Angst)
 -----------------------------------------------------------------------------------
     -0.55808      8.90599      0.03720        -0.010915     -0.019619     -0.005568
     -1.64546      3.01309      3.26676        -0.010915      0.019619     -0.005568
     -1.55463     10.88987      3.29081         0.000479     -0.004730     -0.015814
     -0.46724      1.02921      0.06125         0.000479      0.004730     -0.015814
     -1.69819      6.98279      3.13985        -0.035330      0.004496      0.032950
     -2.78557      4.93629      6.36941        -0.035330     -0.004496      0.032950
     -0.54266      1.00640      2.48129         0.037266     -0.003603      0.033208
     -1.63005     10.91268      5.71085         0.037266      0.003603      0.033208
     -1.60319      3.03581      5.67338         0.015322     -0.032975     -0.013661
     -0.51581      8.88327      2.44382         0.015322      0.032975     -0.013661
     -0.48212      4.99171      2.38555        -0.006822     -0.032814     -0.031115
     -1.56950      6.92737      5.61511        -0.006822      0.032814     -0.031115
 -----------------------------------------------------------------------------------
    total drift:                               -0.000077      0.000002      0.001583


--------------------------------------------------------------------------------------------------------



  FREE ENERGIE OF THE ION-ELECTRON SYSTEM (eV)
  ---------------------------------------------------
  free  energy   TOTEN  =       -56.18984044 eV

  energy  without entropy=      -56.18984044  energy(sigma->0) =      -56.18984044



--------------------------------------------------------------------------------------------------------


    POTLOK:  cpu time      0.4607: real time      0.6846


--------------------------------------------------------------------------------------------------------


 writing wavefunctions
     LOOP+:  cpu time 128533.4326: real time 129116.5835
    4ORBIT:  cpu time      0.0000: real time      0.0000

 optimized coefficients for linear combined projectors, energy window     -28.16     31.24
 species Cu NT=   1 L=   2     0.969    -0.446
 species Cu NT=   1 L=   0     0.586     0.946
 species Cu NT=   1 L=   1     0.788     0.930
 species Ge NT=   2 L=   2     0.997    -0.323
 species Ge NT=   2 L=   0     0.807     0.960
 species Ge NT=   2 L=   1     0.607     0.951
 species Se NT=   3 L=   0     0.866     0.962
 species Se NT=   3 L=   1     0.719     0.953
 species Se NT=   3 L=   2     0.792



 total charge

# of ion       s       p       d       tot
------------------------------------------
    1        0.340   0.319   9.364  10.023
    2        0.340   0.319   9.364  10.023
    3        0.337   0.311   9.367  10.015
    4        0.337   0.311   9.367  10.015
    5        1.112   1.093  10.099  12.304
    6        1.112   1.093  10.099  12.304
    7        1.459   2.418   0.054   3.931
    8        1.459   2.418   0.054   3.931
    9        1.457   2.424   0.054   3.936
   10        1.457   2.424   0.054   3.936
   11        1.472   2.368   0.048   3.888
   12        1.472   2.368   0.048   3.888
--------------------------------------------------
tot         12.353  17.866  57.974  88.193


 total amount of memory used by VASP MPI-rank0   778668. kBytes
=======================================================================

   base      :      30000. kBytes
   nonl-proj :     437686. kBytes
   fftplans  :       3940. kBytes
   grid      :      11536. kBytes
   one-center:        186. kBytes
   HF        :        194. kBytes
   nonlr-proj:       3369. kBytes
   wavefun   :     232709. kBytes
   fock_wrk  :      59048. kBytes

  
  
 General timing and accounting informations for this job:
 ========================================================
  
                  Total CPU time used (sec):   128564.234
                            User time (sec):   127961.486
                          System time (sec):      602.745
                         Elapsed time (sec):   129164.899
  
                   Maximum memory used (kb):     1499628.
                   Average memory used (kb):          N/A
  
                          Minor page faults:        76005
                          Major page faults:            2
                 Voluntary context switches:        37586
