Cd1 Te1                                 
   1.0000000000000000     
     0.0000000000000000    3.2703259999999998    3.2703259999999998
     3.2703259999999998    0.0000000000000000    3.2703259999999998
     3.2703259999999998    3.2703259999999998    0.0000000000000000
   Cd   Te
     1     1
Direct
  0.0000000000000000  0.0000000000000000  0.0000000000000000
  0.2500000000000000  0.2500000000000000  0.2500000000000000

  0.00000000E+00  0.00000000E+00  0.00000000E+00
  0.00000000E+00  0.00000000E+00  0.00000000E+00
