 vasp.6.4.1 05Apr23 (build May  9 2025 10:32:58) complex                         
 executed on        HPECrayEX_GCC date 2026.04.26  17:30:58
 running 2160 mpi-ranks, with    1 threads/rank, on   17 nodes
 distrk:  each k-point on   12 cores,  180 groups
 distr:  one band on NCORE=   4 cores,    3 groups


--------------------------------------------------------------------------------------------------------


 INCAR:
   ALGO = Normal
   EDIFF = 1e-06
   ENCUT = 450.0
   GGA = Ps
   ICHARG = 11
   ISMEAR = 0
   ISPIN = 1
   KSPACING = 0
   LASPH = True
   LMAXMIX = 4
   LORBIT = 14
   LREAL = False
   NEDOS = 2000
   NELM = 200
   NELMIN = 2
   NSW = 0
   PREC = Accurate
   SIGMA = 0.02
   NCORE = 4
   KPAR = 180

 POTCAR:    PAW_PBE Cd 06Sep2000                  
 POTCAR:    PAW_PBE Te 08Apr2002                  
 POTCAR:    PAW_PBE Cd 06Sep2000                  
   SHA256 =  8b7ca71966beae5276c8bb910adb3ecc013a3354c27473914c94cd54c83be4f7 Cd/POTCAR             
   COPYR  = (c) Copyright 06Sep2000 Georg Kresse                                                    
   COPYR  = This file is part of the software VASP. Any use, copying, and all other rights are regul
   COPYR  = If you do not have a valid VASP license, you may not use, copy or distribute this file. 
   VRHFIN =Cd : s2 d10                                                                              
   LEXCH  = PE                                                                                      
   EATOM  =  1293.1815 eV,   95.0462 Ry                                                             
                                                                                                    
   TITEL  = PAW_PBE Cd 06Sep2000                                                                    
   LULTRA =        F    use ultrasoft PP ?                                                          
   IUNSCR =        1    unscreen: 0-lin 1-nonlin 2-no                                               
   RPACOR =    2.000    partial core radius                                                         
   POMASS =  112.411; ZVAL   =   12.000    mass and valenz                                          
   RCORE  =    2.300    outmost cutoff radius                                                       
   RWIGS  =    2.980; RWIGS  =    1.577    wigner-seitz radius (au A)                               
   ENMAX  =  274.336; ENMIN  =  205.752 eV                                                          
   RCLOC  =    2.054    cutoff for local pot                                                        
   LCOR   =        T    correct aug charges                                                         
   LPAW   =        T    paw PP                                                                      
   EAUG   =  456.106                                                                                
   DEXC   =    0.000                                                                                
   RMAX   =    2.358    core radius for proj-oper                                                   
   RAUG   =    1.300    factor for augmentation sphere                                              
   RDEP   =    2.450    radius for radial grids                                                     
   RDEPT  =    1.955    core radius for aug-charge                                                  
                                                                                                    
   Atomic configuration                                                                             
   12 entries                                                                                       
     n  l   j            E        occ.                                                              
     1  0  0.50    -26519.7817   2.0000                                                             
     2  0  0.50     -3936.9612   2.0000                                                             
     2  1  1.50     -3532.2230   6.0000                                                             
     3  0  0.50      -733.7908   2.0000                                                             
     3  1  1.50      -601.0792   6.0000                                                             
     3  2  2.50      -393.5307  10.0000                                                             
     4  0  0.50      -105.8977   2.0000                                                             
     4  1  1.50       -66.9488   6.0000                                                             
     4  2  2.50       -11.7331  10.0000                                                             
     5  0  0.50        -5.6592   2.0000                                                             
     5  1  0.50        -1.3606   0.0000                                                             
     4  3  2.50        -1.3606   0.0000                                                             
   Description                                                                                      
     l       E           TYP  RCUT    TYP  RCUT                                                     
     2    -11.7331479     23  2.300                                                                 
     2    -13.0937305     23  2.300                                                                 
     0     -5.6591502     23  2.300                                                                 
     0     -1.5561433     23  2.300                                                                 
     1     -2.7211652     23  2.300                                                                 
     1      8.3548275     23  2.300                                                                 
  local pseudopotential read in
  partial core-charges read in
  partial kinetic energy density read in
  atomic valenz-charges read in
  non local Contribution for L=           2  read in
    real space projection operators read in
  non local Contribution for L=           2  read in
    real space projection operators read in
  non local Contribution for L=           0  read in
    real space projection operators read in
  non local Contribution for L=           0  read in
    real space projection operators read in
  non local Contribution for L=           1  read in
    real space projection operators read in
  non local Contribution for L=           1  read in
    real space projection operators read in
    PAW grid and wavefunctions read in

   number of l-projection  operators is LMAX  =           6
   number of lm-projection operators is LMMAX =          18

 POTCAR:    PAW_PBE Te 08Apr2002                  
   SHA256 =  e13b0861f25acb1fe6cdc17458a3647985498b67a429eb77ddc1eac05a1775b1 Te/POTCAR             
   COPYR  = (c) Copyright 08Apr2002 Georg Kresse                                                    
   COPYR  = This file is part of the software VASP. Any use, copying, and all other rights are regul
   COPYR  = If you do not have a valid VASP license, you may not use, copy or distribute this file. 
   VRHFIN =Te: s2p4                                                                                 
   LEXCH  = PE                                                                                      
   EATOM  =   223.2721 eV,   16.4100 Ry                                                             
                                                                                                    
   TITEL  = PAW_PBE Te 08Apr2002                                                                    
   LULTRA =        F    use ultrasoft PP ?                                                          
   IUNSCR =        1    unscreen: 0-lin 1-nonlin 2-no                                               
   RPACOR =    2.200    partial core radius                                                         
   POMASS =  127.600; ZVAL   =    6.000    mass and valenz                                          
   RCORE  =    2.300    outmost cutoff radius                                                       
   RWIGS  =    2.900; RWIGS  =    1.535    wigner-seitz radius (au A)                               
   ENMAX  =  174.982; ENMIN  =  131.236 eV                                                          
   ICORE  =        3    local potential                                                             
   LCOR   =        T    correct aug charges                                                         
   LPAW   =        T    paw PP                                                                      
   EAUG   =  368.792                                                                                
   DEXC   =    0.000                                                                                
   RMAX   =    2.345    core radius for proj-oper                                                   
   RAUG   =    1.300    factor for augmentation sphere                                              
   RDEP   =    2.397    radius for radial grids                                                     
   RDEPT  =    2.174    core radius for aug-charge                                                  
                                                                                                    
   Atomic configuration                                                                             
   13 entries                                                                                       
     n  l   j            E        occ.                                                              
     1  0  0.50    -31621.2075   2.0000                                                             
     2  0  0.50     -4848.7941   2.0000                                                             
     2  1  1.50     -4352.1960   6.0000                                                             
     3  0  0.50      -964.9612   2.0000                                                             
     3  1  1.50      -803.6179   6.0000                                                             
     3  2  2.50      -559.8710  10.0000                                                             
     4  0  0.50      -164.3522   2.0000                                                             
     4  1  1.50      -114.3756   6.0000                                                             
     4  2  2.50       -41.6483  10.0000                                                             
     5  0  0.50       -15.1072   2.0000                                                             
     5  1  0.50        -5.9526   4.0000                                                             
     5  2  1.50        -5.4423   0.0000                                                             
     4  3  2.50        -5.4423   0.0000                                                             
   Description                                                                                      
     l       E           TYP  RCUT    TYP  RCUT                                                     
     0    -15.1072389     23  2.300                                                                 
     0    -16.4678215     23  2.300                                                                 
     1     -5.9526306     23  2.300                                                                 
     1     -2.4873968     23  2.300                                                                 
     2     -5.4423304     23  2.300                                                                 
     3     -1.3605826     23  2.300                                                                 
  local pseudopotential read in
  partial core-charges read in
  partial kinetic energy density read in
  atomic valenz-charges read in
  non local Contribution for L=           0  read in
    real space projection operators read in
  non local Contribution for L=           0  read in
    real space projection operators read in
  non local Contribution for L=           1  read in
    real space projection operators read in
  non local Contribution for L=           1  read in
    real space projection operators read in
  non local Contribution for L=           2  read in
    real space projection operators read in
    PAW grid and wavefunctions read in

   number of l-projection  operators is LMAX  =           5
   number of lm-projection operators is LMMAX =          13

 -----------------------------------------------------------------------------
|                                                                             |
|               ----> ADVICE to this user running VASP <----                  |
|                                                                             |
|     You enforced a specific xc type in the INCAR file but a different       |
|     type was found in the POTCAR file.                                      |
|     I HOPE YOU KNOW WHAT YOU ARE DOING!                                     |
|                                                                             |
 -----------------------------------------------------------------------------

  PAW_PBE Cd 06Sep2000                  :
 energy of atom  1       EATOM=-1293.1815
 kinetic energy error for atom=    0.0084 (will be added to EATOM!!)
  PAW_PBE Te 08Apr2002                  :
 energy of atom  2       EATOM= -223.2721
 kinetic energy error for atom=    0.0008 (will be added to EATOM!!)


 POSCAR: Cd1 Te1
  positions in direct lattice
  No initial velocities read in
 exchange correlation table for  LEXCH =       14
   RHO(1)=    0.500       N(1)  =     2000
   RHO(2)=  100.500       N(2)  =     4000

 VTST: version 4.1, (05/19/21)

 CHAIN: initializing optimizer
 
 OPT: Using VASP Dynamics algorithm
 CHAIN: Read ICHAIN            0

 POSCAR: Cd1 Te1
  positions in direct lattice
  No initial velocities read in



--------------------------------------------------------------------------------------------------------


 ion  position               nearest neighbor table
   1  0.000  0.000  0.000-   2 2.83   2 2.83   2 2.83   2 2.83
   2  0.250  0.250  0.250-   1 2.83   1 2.83   1 2.83   1 2.83

  LATTYP: Found a face centered cubic cell.
 ALAT       =     6.5406520000
  
  Lattice vectors:
  
 A1 = (   0.0000000000,   3.2703260000,   3.2703260000)
 A2 = (   3.2703260000,   0.0000000000,   3.2703260000)
 A3 = (   3.2703260000,   3.2703260000,   0.0000000000)


Analysis of symmetry for initial positions (statically):
=====================================================================
 Subroutine PRICEL returns:
 Original cell was already a primitive cell.
 

 Routine SETGRP: Setting up the symmetry group for a 
 face centered cubic supercell.


 Subroutine GETGRP returns: Found 24 space group operations
 (whereof 24 operations were pure point group operations)
 out of a pool of 48 trial point group operations.


The static configuration has the point symmetry T_d .


Analysis of symmetry for dynamics (positions and initial velocities):
=====================================================================
 Subroutine PRICEL returns:
 Original cell was already a primitive cell.
 

 Routine SETGRP: Setting up the symmetry group for a 
 face centered cubic supercell.


 Subroutine GETGRP returns: Found 24 space group operations
 (whereof 24 operations were pure point group operations)
 out of a pool of 48 trial point group operations.


The dynamic configuration has the point symmetry T_d .


 Subroutine INISYM returns: Found 24 space group operations
 (whereof 24 operations are pure point group operations),
 and found     1 'primitive' translations


----------------------------------------------------------------------------------------

                                     Primitive cell                                     

  volume of cell :      69.9525

  direct lattice vectors                    reciprocal lattice vectors
     0.000000000  3.270326000  3.270326000    -0.152889957  0.152889957  0.152889957
     3.270326000  0.000000000  3.270326000     0.152889957 -0.152889957  0.152889957
     3.270326000  3.270326000  0.000000000     0.152889957  0.152889957 -0.152889957

  length of vectors
     4.624939383  4.624939383  4.624939383     0.264813173  0.264813173  0.264813173

  position of ions in fractional coordinates (direct lattice)
     0.000000000  0.000000000  0.000000000
     0.250000000  0.250000000  0.250000000

  ion indices of the primitive-cell ions
   primitive index   ion index
                 1           1
                 2           2

----------------------------------------------------------------------------------------



 KPOINTS: \Gamma -> L -> W -> X -> \Gamma         

Read explicit list of k-points.

 Found    179 k-points:

 Following reciprocal coordinates:
            Coordinates               Weight
  0.000000  0.000000  0.000000      0.005587
  0.010000  0.010000  0.010000      0.005587
  0.020000  0.020000  0.020000      0.005587
  0.030000  0.030000  0.030000      0.005587
  0.040000  0.040000  0.040000      0.005587
  0.050000  0.050000  0.050000      0.005587
  0.060000  0.060000  0.060000      0.005587
  0.070000  0.070000  0.070000      0.005587
  0.080000  0.080000  0.080000      0.005587
  0.090000  0.090000  0.090000      0.005587
  0.100000  0.100000  0.100000      0.005587
  0.110000  0.110000  0.110000      0.005587
  0.120000  0.120000  0.120000      0.005587
  0.130000  0.130000  0.130000      0.005587
  0.140000  0.140000  0.140000      0.005587
  0.150000  0.150000  0.150000      0.005587
  0.160000  0.160000  0.160000      0.005587
  0.170000  0.170000  0.170000      0.005587
  0.180000  0.180000  0.180000      0.005587
  0.190000  0.190000  0.190000      0.005587
  0.200000  0.200000  0.200000      0.005587
  0.210000  0.210000  0.210000      0.005587
  0.220000  0.220000  0.220000      0.005587
  0.230000  0.230000  0.230000      0.005587
  0.240000  0.240000  0.240000      0.005587
  0.250000  0.250000  0.250000      0.005587
  0.260000  0.260000  0.260000      0.005587
  0.270000  0.270000  0.270000      0.005587
  0.280000  0.280000  0.280000      0.005587
  0.290000  0.290000  0.290000      0.005587
  0.300000  0.300000  0.300000      0.005587
  0.310000  0.310000  0.310000      0.005587
  0.320000  0.320000  0.320000      0.005587
  0.330000  0.330000  0.330000      0.005587
  0.340000  0.340000  0.340000      0.005587
  0.350000  0.350000  0.350000      0.005587
  0.360000  0.360000  0.360000      0.005587
  0.370000  0.370000  0.370000      0.005587
  0.380000  0.380000  0.380000      0.005587
  0.390000  0.390000  0.390000      0.005587
  0.400000  0.400000  0.400000      0.005587
  0.410000  0.410000  0.410000      0.005587
  0.420000  0.420000  0.420000      0.005587
  0.430000  0.430000  0.430000      0.005587
  0.440000  0.440000  0.440000      0.005587
  0.450000  0.450000  0.450000      0.005587
  0.460000  0.460000  0.460000      0.005587
  0.470000  0.470000  0.470000      0.005587
  0.480000  0.480000  0.480000      0.005587
  0.490000  0.490000  0.490000      0.005587
  0.500000  0.500000  0.500000      0.005587
  0.500000  0.493902  0.506098      0.005587
  0.500000  0.487805  0.512195      0.005587
  0.500000  0.481707  0.518293      0.005587
  0.500000  0.475610  0.524390      0.005587
  0.500000  0.469512  0.530488      0.005587
  0.500000  0.463415  0.536585      0.005587
  0.500000  0.457317  0.542683      0.005587
  0.500000  0.451220  0.548780      0.005587
  0.500000  0.445122  0.554878      0.005587
  0.500000  0.439024  0.560976      0.005587
  0.500000  0.432927  0.567073      0.005587
  0.500000  0.426829  0.573171      0.005587
  0.500000  0.420732  0.579268      0.005587
  0.500000  0.414634  0.585366      0.005587
  0.500000  0.408537  0.591463      0.005587
  0.500000  0.402439  0.597561      0.005587
  0.500000  0.396341  0.603659      0.005587
  0.500000  0.390244  0.609756      0.005587
  0.500000  0.384146  0.615854      0.005587
  0.500000  0.378049  0.621951      0.005587
  0.500000  0.371951  0.628049      0.005587
  0.500000  0.365854  0.634146      0.005587
  0.500000  0.359756  0.640244      0.005587
  0.500000  0.353659  0.646341      0.005587
  0.500000  0.347561  0.652439      0.005587
  0.500000  0.341463  0.658537      0.005587
  0.500000  0.335366  0.664634      0.005587
  0.500000  0.329268  0.670732      0.005587
  0.500000  0.323171  0.676829      0.005587
  0.500000  0.317073  0.682927      0.005587
  0.500000  0.310976  0.689024      0.005587
  0.500000  0.304878  0.695122      0.005587
  0.500000  0.298780  0.701220      0.005587
  0.500000  0.292683  0.707317      0.005587
  0.500000  0.286585  0.713415      0.005587
  0.500000  0.280488  0.719512      0.005587
  0.500000  0.274390  0.725610      0.005587
  0.500000  0.268293  0.731707      0.005587
  0.500000  0.262195  0.737805      0.005587
  0.500000  0.256098  0.743902      0.005587
  0.500000  0.250000  0.750000      0.005587
  0.500000  0.241379  0.741379      0.005587
  0.500000  0.232759  0.732759      0.005587
  0.500000  0.224138  0.724138      0.005587
  0.500000  0.215517  0.715517      0.005587
  0.500000  0.206897  0.706897      0.005587
  0.500000  0.198276  0.698276      0.005587
  0.500000  0.189655  0.689655      0.005587
  0.500000  0.181034  0.681034      0.005587
  0.500000  0.172414  0.672414      0.005587
  0.500000  0.163793  0.663793      0.005587
  0.500000  0.155172  0.655172      0.005587
  0.500000  0.146552  0.646552      0.005587
  0.500000  0.137931  0.637931      0.005587
  0.500000  0.129310  0.629310      0.005587
  0.500000  0.120690  0.620690      0.005587
  0.500000  0.112069  0.612069      0.005587
  0.500000  0.103448  0.603448      0.005587
  0.500000  0.094828  0.594828      0.005587
  0.500000  0.086207  0.586207      0.005587
  0.500000  0.077586  0.577586      0.005587
  0.500000  0.068966  0.568966      0.005587
  0.500000  0.060345  0.560345      0.005587
  0.500000  0.051724  0.551724      0.005587
  0.500000  0.043103  0.543103      0.005587
  0.500000  0.034483  0.534483      0.005587
  0.500000  0.025862  0.525862      0.005587
  0.500000  0.017241  0.517241      0.005587
  0.500000  0.008621  0.508621      0.005587
  0.500000  0.000000  0.500000      0.005587
  0.491379  0.000000  0.491379      0.005587
  0.482759  0.000000  0.482759      0.005587
  0.474138  0.000000  0.474138      0.005587
  0.465517  0.000000  0.465517      0.005587
  0.456897  0.000000  0.456897      0.005587
  0.448276  0.000000  0.448276      0.005587
  0.439655  0.000000  0.439655      0.005587
  0.431034  0.000000  0.431034      0.005587
  0.422414  0.000000  0.422414      0.005587
  0.413793  0.000000  0.413793      0.005587
  0.405172  0.000000  0.405172      0.005587
  0.396552  0.000000  0.396552      0.005587
  0.387931  0.000000  0.387931      0.005587
  0.379310  0.000000  0.379310      0.005587
  0.370690  0.000000  0.370690      0.005587
  0.362069  0.000000  0.362069      0.005587
  0.353448  0.000000  0.353448      0.005587
  0.344828  0.000000  0.344828      0.005587
  0.336207  0.000000  0.336207      0.005587
  0.327586  0.000000  0.327586      0.005587
  0.318966  0.000000  0.318966      0.005587
  0.310345  0.000000  0.310345      0.005587
  0.301724  0.000000  0.301724      0.005587
  0.293103  0.000000  0.293103      0.005587
  0.284483  0.000000  0.284483      0.005587
  0.275862  0.000000  0.275862      0.005587
  0.267241  0.000000  0.267241      0.005587
  0.258621  0.000000  0.258621      0.005587
  0.250000  0.000000  0.250000      0.005587
  0.241379  0.000000  0.241379      0.005587
  0.232759  0.000000  0.232759      0.005587
  0.224138  0.000000  0.224138      0.005587
  0.215517  0.000000  0.215517      0.005587
  0.206897  0.000000  0.206897      0.005587
  0.198276  0.000000  0.198276      0.005587
  0.189655  0.000000  0.189655      0.005587
  0.181034  0.000000  0.181034      0.005587
  0.172414  0.000000  0.172414      0.005587
  0.163793  0.000000  0.163793      0.005587
  0.155172  0.000000  0.155172      0.005587
  0.146552  0.000000  0.146552      0.005587
  0.137931  0.000000  0.137931      0.005587
  0.129310  0.000000  0.129310      0.005587
  0.120690  0.000000  0.120690      0.005587
  0.112069  0.000000  0.112069      0.005587
  0.103448  0.000000  0.103448      0.005587
  0.094828  0.000000  0.094828      0.005587
  0.086207  0.000000  0.086207      0.005587
  0.077586  0.000000  0.077586      0.005587
  0.068966  0.000000  0.068966      0.005587
  0.060345  0.000000  0.060345      0.005587
  0.051724  0.000000  0.051724      0.005587
  0.043103  0.000000  0.043103      0.005587
  0.034483  0.000000  0.034483      0.005587
  0.025862  0.000000  0.025862      0.005587
  0.017241  0.000000  0.017241      0.005587
  0.008621  0.000000  0.008621      0.005587
  0.000000  0.000000  0.000000      0.005587

 Following cartesian coordinates:
            Coordinates               Weight
  0.000000  0.000000  0.000000      0.005587
  0.001529  0.001529  0.001529      0.005587
  0.003058  0.003058  0.003058      0.005587
  0.004587  0.004587  0.004587      0.005587
  0.006116  0.006116  0.006116      0.005587
  0.007644  0.007644  0.007644      0.005587
  0.009173  0.009173  0.009173      0.005587
  0.010702  0.010702  0.010702      0.005587
  0.012231  0.012231  0.012231      0.005587
  0.013760  0.013760  0.013760      0.005587
  0.015289  0.015289  0.015289      0.005587
  0.016818  0.016818  0.016818      0.005587
  0.018347  0.018347  0.018347      0.005587
  0.019876  0.019876  0.019876      0.005587
  0.021405  0.021405  0.021405      0.005587
  0.022933  0.022933  0.022933      0.005587
  0.024462  0.024462  0.024462      0.005587
  0.025991  0.025991  0.025991      0.005587
  0.027520  0.027520  0.027520      0.005587
  0.029049  0.029049  0.029049      0.005587
  0.030578  0.030578  0.030578      0.005587
  0.032107  0.032107  0.032107      0.005587
  0.033636  0.033636  0.033636      0.005587
  0.035165  0.035165  0.035165      0.005587
  0.036694  0.036694  0.036694      0.005587
  0.038222  0.038222  0.038222      0.005587
  0.039751  0.039751  0.039751      0.005587
  0.041280  0.041280  0.041280      0.005587
  0.042809  0.042809  0.042809      0.005587
  0.044338  0.044338  0.044338      0.005587
  0.045867  0.045867  0.045867      0.005587
  0.047396  0.047396  0.047396      0.005587
  0.048925  0.048925  0.048925      0.005587
  0.050454  0.050454  0.050454      0.005587
  0.051983  0.051983  0.051983      0.005587
  0.053511  0.053511  0.053511      0.005587
  0.055040  0.055040  0.055040      0.005587
  0.056569  0.056569  0.056569      0.005587
  0.058098  0.058098  0.058098      0.005587
  0.059627  0.059627  0.059627      0.005587
  0.061156  0.061156  0.061156      0.005587
  0.062685  0.062685  0.062685      0.005587
  0.064214  0.064214  0.064214      0.005587
  0.065743  0.065743  0.065743      0.005587
  0.067272  0.067272  0.067272      0.005587
  0.068800  0.068800  0.068800      0.005587
  0.070329  0.070329  0.070329      0.005587
  0.071858  0.071858  0.071858      0.005587
  0.073387  0.073387  0.073387      0.005587
  0.074916  0.074916  0.074916      0.005587
  0.076445  0.076445  0.076445      0.005587
  0.076445  0.078309  0.074580      0.005587
  0.076445  0.080174  0.072716      0.005587
  0.076445  0.082039  0.070851      0.005587
  0.076445  0.083903  0.068987      0.005587
  0.076445  0.085768  0.067122      0.005587
  0.076445  0.087632  0.065258      0.005587
  0.076445  0.089497  0.063393      0.005587
  0.076445  0.091361  0.061529      0.005587
  0.076445  0.093226  0.059664      0.005587
  0.076445  0.095090  0.057800      0.005587
  0.076445  0.096955  0.055935      0.005587
  0.076445  0.098819  0.054071      0.005587
  0.076445  0.100684  0.052206      0.005587
  0.076445  0.102548  0.050342      0.005587
  0.076445  0.104413  0.048477      0.005587
  0.076445  0.106277  0.046613      0.005587
  0.076445  0.108142  0.044748      0.005587
  0.076445  0.110006  0.042884      0.005587
  0.076445  0.111871  0.041019      0.005587
  0.076445  0.113735  0.039155      0.005587
  0.076445  0.115600  0.037290      0.005587
  0.076445  0.117464  0.035426      0.005587
  0.076445  0.119329  0.033561      0.005587
  0.076445  0.121193  0.031697      0.005587
  0.076445  0.123058  0.029832      0.005587
  0.076445  0.124922  0.027968      0.005587
  0.076445  0.126787  0.026103      0.005587
  0.076445  0.128651  0.024239      0.005587
  0.076445  0.130516  0.022374      0.005587
  0.076445  0.132380  0.020510      0.005587
  0.076445  0.134245  0.018645      0.005587
  0.076445  0.136109  0.016781      0.005587
  0.076445  0.137974  0.014916      0.005587
  0.076445  0.139838  0.013052      0.005587
  0.076445  0.141703  0.011187      0.005587
  0.076445  0.143567  0.009323      0.005587
  0.076445  0.145432  0.007458      0.005587
  0.076445  0.147296  0.005594      0.005587
  0.076445  0.149161  0.003729      0.005587
  0.076445  0.151025  0.001865      0.005587
  0.076445  0.152890  0.000000      0.005587
  0.073809  0.152890 -0.000000      0.005587
  0.071173  0.152890 -0.000000      0.005587
  0.068537  0.152890 -0.000000      0.005587
  0.065901  0.152890 -0.000000      0.005587
  0.063265  0.152890  0.000000      0.005587
  0.060629  0.152890 -0.000000      0.005587
  0.057993  0.152890  0.000000      0.005587
  0.055357  0.152890  0.000000      0.005587
  0.052721  0.152890  0.000000      0.005587
  0.050085  0.152890  0.000000      0.005587
  0.047449  0.152890  0.000000      0.005587
  0.044813  0.152890 -0.000000      0.005587
  0.042177  0.152890 -0.000000      0.005587
  0.039541  0.152890  0.000000      0.005587
  0.036904  0.152890 -0.000000      0.005587
  0.034268  0.152890  0.000000      0.005587
  0.031632  0.152890  0.000000      0.005587
  0.028996  0.152890  0.000000      0.005587
  0.026360  0.152890 -0.000000      0.005587
  0.023724  0.152890 -0.000000      0.005587
  0.021088  0.152890 -0.000000      0.005587
  0.018452  0.152890 -0.000000      0.005587
  0.015816  0.152890 -0.000000      0.005587
  0.013180  0.152890 -0.000000      0.005587
  0.010544  0.152890 -0.000000      0.005587
  0.007908  0.152890  0.000000      0.005587
  0.005272  0.152890 -0.000000      0.005587
  0.002636  0.152890  0.000000      0.005587
  0.000000  0.152890  0.000000      0.005587
 -0.000000  0.150254  0.000000      0.005587
 -0.000000  0.147618  0.000000      0.005587
  0.000000  0.144982 -0.000000      0.005587
  0.000000  0.142346 -0.000000      0.005587
  0.000000  0.139710 -0.000000      0.005587
 -0.000000  0.137074  0.000000      0.005587
  0.000000  0.134438 -0.000000      0.005587
  0.000000  0.131802 -0.000000      0.005587
 -0.000000  0.129166  0.000000      0.005587
  0.000000  0.126530 -0.000000      0.005587
  0.000000  0.123894 -0.000000      0.005587
  0.000000  0.121258 -0.000000      0.005587
 -0.000000  0.118622  0.000000      0.005587
  0.000000  0.115985 -0.000000      0.005587
  0.000000  0.113349 -0.000000      0.005587
  0.000000  0.110713 -0.000000      0.005587
 -0.000000  0.108077  0.000000      0.005587
 -0.000000  0.105441  0.000000      0.005587
 -0.000000  0.102805  0.000000      0.005587
  0.000000  0.100169 -0.000000      0.005587
  0.000000  0.097533 -0.000000      0.005587
 -0.000000  0.094897  0.000000      0.005587
 -0.000000  0.092261  0.000000      0.005587
 -0.000000  0.089625  0.000000      0.005587
  0.000000  0.086989 -0.000000      0.005587
  0.000000  0.084353 -0.000000      0.005587
 -0.000000  0.081717  0.000000      0.005587
 -0.000000  0.079081  0.000000      0.005587
  0.000000  0.076445  0.000000      0.005587
  0.000000  0.073809 -0.000000      0.005587
  0.000000  0.071173 -0.000000      0.005587
 -0.000000  0.068537  0.000000      0.005587
 -0.000000  0.065901  0.000000      0.005587
  0.000000  0.063265 -0.000000      0.005587
  0.000000  0.060629 -0.000000      0.005587
  0.000000  0.057993 -0.000000      0.005587
  0.000000  0.055357 -0.000000      0.005587
 -0.000000  0.052721  0.000000      0.005587
  0.000000  0.050085 -0.000000      0.005587
  0.000000  0.047449 -0.000000      0.005587
 -0.000000  0.044813  0.000000      0.005587
 -0.000000  0.042177  0.000000      0.005587
 -0.000000  0.039541  0.000000      0.005587
 -0.000000  0.036904  0.000000      0.005587
 -0.000000  0.034268  0.000000      0.005587
 -0.000000  0.031632  0.000000      0.005587
  0.000000  0.028996 -0.000000      0.005587
  0.000000  0.026360 -0.000000      0.005587
 -0.000000  0.023724  0.000000      0.005587
  0.000000  0.021088 -0.000000      0.005587
 -0.000000  0.018452  0.000000      0.005587
 -0.000000  0.015816  0.000000      0.005587
  0.000000  0.013180 -0.000000      0.005587
  0.000000  0.010544 -0.000000      0.005587
 -0.000000  0.007908  0.000000      0.005587
  0.000000  0.005272 -0.000000      0.005587
 -0.000000  0.002636  0.000000      0.005587
  0.000000  0.000000  0.000000      0.005587



--------------------------------------------------------------------------------------------------------




 Dimension of arrays:
   k-points           NKPTS =    179   k-points in BZ     NKDIM =    179   number of bands    NBANDS=     15
   number of dos      NEDOS =   2000   number of ions     NIONS =      2
   non local maximal  LDIM  =      6   non local SUM 2l+1 LMDIM =     18
   total plane-waves  NPLWV =  32768
   max r-space proj   IRMAX =      1   max aug-charges    IRDMAX=  27442
   dimension x,y,z NGX =    32 NGY =   32 NGZ =   32
   dimension x,y,z NGXF=    64 NGYF=   64 NGZF=   64
   support grid    NGXF=    64 NGYF=   64 NGZF=   64
   ions per type =               1   1
   NGX,Y,Z   is equivalent  to a cutoff of  11.50, 11.50, 11.50 a.u.
   NGXF,Y,Z  is equivalent  to a cutoff of  23.01, 23.01, 23.01 a.u.

 SYSTEM =  unknown system                          
 POSCAR =  Cd1 Te1                                 

 Startparameter for this run:
   NWRITE =      2    write-flag & timer
   PREC   = accura    normal or accurate (medium, high low for compatibility)
   ISTART =      0    job   : 0-new  1-cont  2-samecut
   ICHARG =     11    charge: 1-file 2-atom 10-const
   ISPIN  =      1    spin polarized calculation?
   LNONCOLLINEAR =      F non collinear calculations
   LSORBIT =      F    spin-orbit coupling
   INIWAV =      1    electr: 0-lowe 1-rand  2-diag
   LASPH  =      T    aspherical Exc in radial PAW
 Electronic Relaxation 1
   ENCUT  =  450.0 eV  33.07 Ry    5.75 a.u.   8.00  8.00  8.00*2*pi/ulx,y,z
   ENINI  =  450.0     initial cutoff
   ENAUG  =  456.1 eV  augmentation charge cutoff
   NELM   =    200;   NELMIN=  2; NELMDL= -5     # of ELM steps 
   EDIFF  = 0.1E-05   stopping-criterion for ELM
   LREAL  =      F    real-space projection
   NLSPLINE    = F    spline interpolate recip. space projectors
   LCOMPAT=      F    compatible to vasp.4.4
   GGA_COMPAT  = T    GGA compatible to vasp.4.4-vasp.4.6
   LMAXPAW     = -100 max onsite density
   LMAXMIX     =    4 max onsite mixed and CHGCAR
   VOSKOWN=      0    Vosko Wilk Nusair interpolation
   ROPT   =    0.00000   0.00000
 Ionic relaxation
   EDIFFG = 0.1E-04   stopping-criterion for IOM
   NSW    =      0    number of steps for IOM
   NBLOCK =      1;   KBLOCK =      1    inner block; outer block 
   IBRION =     -1    ionic relax: 0-MD 1-quasi-New 2-CG
   NFREE  =      0    steps in history (QN), initial steepest desc. (CG)
   ISIF   =      2    stress and relaxation
   IWAVPR =     10    prediction:  0-non 1-charg 2-wave 3-comb
   ISYM   =      2    0-nonsym 1-usesym 2-fastsym
   LCORR  =      T    Harris-Foulkes like correction to forces

   POTIM  = 0.5000    time-step for ionic-motion
   TEIN   =    0.0    initial temperature
   TEBEG  =    0.0;   TEEND  =   0.0 temperature during run
   SMASS  =  -3.00    Nose mass-parameter (am)
   estimated Nose-frequenzy (Omega)   =  0.10E-29 period in steps = 0.13E+47 mass=  -0.489E-27a.u.
   SCALEE = 1.0000    scale energy and forces
   NPACO  =    256;   APACO  = 10.0  distance and # of slots for P.C.
   PSTRESS=    0.0 pullay stress

  Mass of Ions in am
   POMASS = 112.41127.60
  Ionic Valenz
   ZVAL   =  12.00  6.00
  Atomic Wigner-Seitz radii
   RWIGS  =  -1.00 -1.00
  virtual crystal weights 
   VCA    =   1.00  1.00
   NELECT =      18.0000    total number of electrons
   NUPDOWN=      -1.0000    fix difference up-down

 DOS related values:
   EMIN   =  10.00;   EMAX   =-10.00  energy-range for DOS
   EFERMI =   0.00;   METHOD = LEGACY      
   ISMEAR =     0;   SIGMA  =   0.02  broadening in eV -4-tet -1-fermi 0-gaus

 Electronic relaxation 2 (details)
   IALGO  =     38    algorithm
   LDIAG  =      T    sub-space diagonalisation (order eigenvalues)
   LSUBROT=      F    optimize rotation matrix (better conditioning)
   TURBO    =      0    0=normal 1=particle mesh
   IRESTART =      0    0=no restart 2=restart with 2 vectors
   NREBOOT  =      0    no. of reboots
   NMIN     =      0    reboot dimension
   EREF     =   0.00    reference energy to select bands
   IMIX   =      4    mixing-type and parameters
     AMIX     =   0.40;   BMIX     =  1.00
     AMIX_MAG =   1.60;   BMIX_MAG =  1.00
     AMIN     =   0.10
     WC   =   100.;   INIMIX=   1;  MIXPRE=   1;  MAXMIX= -45

 Intra band minimization:
   WEIMIN = 0.0000     energy-eigenvalue tresh-hold
   EBREAK =  0.17E-07  absolut break condition
   DEPER  =   0.30     relativ break condition  

   TIME   =   0.40     timestep for ELM

  volume/ion in A,a.u.               =      34.98       236.03
  Fermi-wavevector in a.u.,A,eV,Ry     =   1.041273  1.967721 14.752110  1.084250
  Thomas-Fermi vector in A             =   2.175886

 Write flags
   LWAVE        =      T    write WAVECAR
   LDOWNSAMPLE  =      F    k-point downsampling of WAVECAR
   LCHARG       =      T    write CHGCAR
   LVTOT        =      F    write LOCPOT, total local potential
   LVHAR        =      F    write LOCPOT, Hartree potential only
   LELF         =      F    write electronic localiz. function (ELF)
   LORBIT       =     14    0 simple, 1 ext, 2 COOP (PROOUT), +10 PAW based schemes


 Dipole corrections
   LMONO  =      F    monopole corrections only (constant potential shift)
   LDIPOL =      F    correct potential (dipole corrections)
   IDIPOL =      0    1-x, 2-y, 3-z, 4-all directions 
   EPSILON=  1.0000000 bulk dielectric constant

 Exchange correlation treatment:
   GGA     =    PS    GGA type
   LEXCH   =    14    internal setting for exchange type
   LIBXC   =     F    Libxc                    
   VOSKOWN =     0    Vosko Wilk Nusair interpolation
   LHFCALC =     F    Hartree Fock is set to
   LHFONE  =     F    Hartree Fock one center treatment
   AEXX    =    0.0000 exact exchange contribution

 Linear response parameters
   LEPSILON=     F    determine dielectric tensor
   LRPA    =     F    only Hartree local field effects (RPA)
   LNABLA  =     F    use nabla operator in PAW spheres
   LVEL    =     F    velocity operator in full k-point grid
   CSHIFT  =0.1000    complex shift for real part using Kramers Kronig
   OMEGAMAX=  -1.0    maximum frequency
   DEG_THRESHOLD= 0.2000000E-02 threshold for treating states as degnerate
   RTIME   =   -0.100 relaxation time in fs
  (WPLASMAI=    0.000 imaginary part of plasma frequency in eV, 0.658/RTIME)
   DFIELD  = 0.0000000 0.0000000 0.0000000 field for delta impulse in time

  Optional k-point grid parameters
   LKPOINTS_OPT  =     F    use optional k-point grid
   KPOINTS_OPT_MODE=     1    mode for optional k-point grid

 Orbital magnetization related:
   ORBITALMAG=     F  switch on orbital magnetization
   LCHIMAG   =     F  perturbation theory with respect to B field
   DQ        =  0.001000  dq finite difference perturbation B field
   LLRAUG    =     F  two centre corrections for induced B field
   LBONE     =     F  B-component reconstruction in AE one-centre
   LVGVCALC  =     T  calculate vGv susceptibility
   LVGVAPPL  =     F  apply vGv susceptibility instead of pGv for G=0

 Random number generation:
   RANDOM_GENERATOR = DEFAULT
   PCG_SEED         = not used


--------------------------------------------------------------------------------------------------------


 Static calculation
 charge density and potential remain constant during run
 non-spin polarized calculation
 Variant of blocked Davidson
 Davidson routine will perform the subspace rotation
 perform sub-space diagonalisation
    after iterative eigenvector-optimisation
 no mixing
 using additional bands            6
 reciprocal scheme for non local part
 use partial core corrections
 calculate Harris-corrections to forces   (improved forces if not selfconsistent)
 use gradient corrections 
 WARNING: stress and forces are not correct
  (second derivative of E(xc) not defined)
 use of overlap-Matrix (Vanderbilt PP)
 Gauss-broadening in eV      SIGMA  =   0.02


--------------------------------------------------------------------------------------------------------


  energy-cutoff  :      450.00
  volume of cell :       69.95
      direct lattice vectors                 reciprocal lattice vectors
     0.000000000  3.270326000  3.270326000    -0.152889957  0.152889957  0.152889957
     3.270326000  0.000000000  3.270326000     0.152889957 -0.152889957  0.152889957
     3.270326000  3.270326000  0.000000000     0.152889957  0.152889957 -0.152889957

  length of vectors
     4.624939383  4.624939383  4.624939383     0.264813173  0.264813173  0.264813173



 k-points in units of 2pi/SCALE and weight: \Gamma -> L -> W -> X -> \Gamma         
   0.00000000  0.00000000  0.00000000       0.006
   0.00152890  0.00152890  0.00152890       0.006
   0.00305780  0.00305780  0.00305780       0.006
   0.00458670  0.00458670  0.00458670       0.006
   0.00611560  0.00611560  0.00611560       0.006
   0.00764450  0.00764450  0.00764450       0.006
   0.00917340  0.00917340  0.00917340       0.006
   0.01070230  0.01070230  0.01070230       0.006
   0.01223120  0.01223120  0.01223120       0.006
   0.01376010  0.01376010  0.01376010       0.006
   0.01528900  0.01528900  0.01528900       0.006
   0.01681790  0.01681790  0.01681790       0.006
   0.01834679  0.01834679  0.01834679       0.006
   0.01987569  0.01987569  0.01987569       0.006
   0.02140459  0.02140459  0.02140459       0.006
   0.02293349  0.02293349  0.02293349       0.006
   0.02446239  0.02446239  0.02446239       0.006
   0.02599129  0.02599129  0.02599129       0.006
   0.02752019  0.02752019  0.02752019       0.006
   0.02904909  0.02904909  0.02904909       0.006
   0.03057799  0.03057799  0.03057799       0.006
   0.03210689  0.03210689  0.03210689       0.006
   0.03363579  0.03363579  0.03363579       0.006
   0.03516469  0.03516469  0.03516469       0.006
   0.03669359  0.03669359  0.03669359       0.006
   0.03822249  0.03822249  0.03822249       0.006
   0.03975139  0.03975139  0.03975139       0.006
   0.04128029  0.04128029  0.04128029       0.006
   0.04280919  0.04280919  0.04280919       0.006
   0.04433809  0.04433809  0.04433809       0.006
   0.04586699  0.04586699  0.04586699       0.006
   0.04739589  0.04739589  0.04739589       0.006
   0.04892479  0.04892479  0.04892479       0.006
   0.05045369  0.05045369  0.05045369       0.006
   0.05198259  0.05198259  0.05198259       0.006
   0.05351148  0.05351148  0.05351148       0.006
   0.05504038  0.05504038  0.05504038       0.006
   0.05656928  0.05656928  0.05656928       0.006
   0.05809818  0.05809818  0.05809818       0.006
   0.05962708  0.05962708  0.05962708       0.006
   0.06115598  0.06115598  0.06115598       0.006
   0.06268488  0.06268488  0.06268488       0.006
   0.06421378  0.06421378  0.06421378       0.006
   0.06574268  0.06574268  0.06574268       0.006
   0.06727158  0.06727158  0.06727158       0.006
   0.06880048  0.06880048  0.06880048       0.006
   0.07032938  0.07032938  0.07032938       0.006
   0.07185828  0.07185828  0.07185828       0.006
   0.07338718  0.07338718  0.07338718       0.006
   0.07491608  0.07491608  0.07491608       0.006
   0.07644498  0.07644498  0.07644498       0.006
   0.07644498  0.07830949  0.07458047       0.006
   0.07644498  0.08017400  0.07271595       0.006
   0.07644498  0.08203851  0.07085144       0.006
   0.07644498  0.08390302  0.06898693       0.006
   0.07644498  0.08576754  0.06712242       0.006
   0.07644498  0.08763205  0.06525791       0.006
   0.07644498  0.08949656  0.06339340       0.006
   0.07644498  0.09136107  0.06152888       0.006
   0.07644498  0.09322558  0.05966437       0.006
   0.07644498  0.09509009  0.05779986       0.006
   0.07644498  0.09695461  0.05593535       0.006
   0.07644498  0.09881912  0.05407084       0.006
   0.07644498  0.10068363  0.05220633       0.006
   0.07644498  0.10254814  0.05034181       0.006
   0.07644498  0.10441265  0.04847730       0.006
   0.07644498  0.10627716  0.04661279       0.006
   0.07644498  0.10814168  0.04474828       0.006
   0.07644498  0.11000619  0.04288377       0.006
   0.07644498  0.11187070  0.04101926       0.006
   0.07644498  0.11373521  0.03915474       0.006
   0.07644498  0.11559972  0.03729023       0.006
   0.07644498  0.11746423  0.03542572       0.006
   0.07644498  0.11932875  0.03356121       0.006
   0.07644498  0.12119326  0.03169670       0.006
   0.07644498  0.12305777  0.02983219       0.006
   0.07644498  0.12492228  0.02796767       0.006
   0.07644498  0.12678679  0.02610316       0.006
   0.07644498  0.12865130  0.02423865       0.006
   0.07644498  0.13051582  0.02237414       0.006
   0.07644498  0.13238033  0.02050963       0.006
   0.07644498  0.13424484  0.01864512       0.006
   0.07644498  0.13610935  0.01678060       0.006
   0.07644498  0.13797386  0.01491609       0.006
   0.07644498  0.13983837  0.01305158       0.006
   0.07644498  0.14170289  0.01118707       0.006
   0.07644498  0.14356740  0.00932256       0.006
   0.07644498  0.14543191  0.00745805       0.006
   0.07644498  0.14729642  0.00559353       0.006
   0.07644498  0.14916093  0.00372902       0.006
   0.07644498  0.15102544  0.00186451       0.006
   0.07644498  0.15288996  0.00000000       0.006
   0.07380894  0.15288996 -0.00000000       0.006
   0.07117291  0.15288996 -0.00000000       0.006
   0.06853688  0.15288996 -0.00000000       0.006
   0.06590084  0.15288996 -0.00000000       0.006
   0.06326481  0.15288996  0.00000000       0.006
   0.06062878  0.15288996 -0.00000000       0.006
   0.05799274  0.15288996  0.00000000       0.006
   0.05535671  0.15288996  0.00000000       0.006
   0.05272067  0.15288996  0.00000000       0.006
   0.05008464  0.15288996  0.00000000       0.006
   0.04744861  0.15288996  0.00000000       0.006
   0.04481257  0.15288996 -0.00000000       0.006
   0.04217654  0.15288996 -0.00000000       0.006
   0.03954051  0.15288996  0.00000000       0.006
   0.03690447  0.15288996  0.00000000       0.006
   0.03426844  0.15288996  0.00000000       0.006
   0.03163240  0.15288996  0.00000000       0.006
   0.02899637  0.15288996  0.00000000       0.006
   0.02636034  0.15288996 -0.00000000       0.006
   0.02372430  0.15288996 -0.00000000       0.006
   0.02108827  0.15288996 -0.00000000       0.006
   0.01845224  0.15288996 -0.00000000       0.006
   0.01581620  0.15288996 -0.00000000       0.006
   0.01318017  0.15288996 -0.00000000       0.006
   0.01054413  0.15288996 -0.00000000       0.006
   0.00790810  0.15288996  0.00000000       0.006
   0.00527207  0.15288996 -0.00000000       0.006
   0.00263603  0.15288996  0.00000000       0.006
   0.00000000  0.15288996  0.00000000       0.006
  -0.00000000  0.15025392  0.00000000       0.006
  -0.00000000  0.14761789  0.00000000       0.006
   0.00000000  0.14498186 -0.00000000       0.006
   0.00000000  0.14234582 -0.00000000       0.006
   0.00000000  0.13970979 -0.00000000       0.006
  -0.00000000  0.13707375  0.00000000       0.006
   0.00000000  0.13443772 -0.00000000       0.006
   0.00000000  0.13180169 -0.00000000       0.006
  -0.00000000  0.12916565  0.00000000       0.006
   0.00000000  0.12652962 -0.00000000       0.006
   0.00000000  0.12389359 -0.00000000       0.006
   0.00000000  0.12125755 -0.00000000       0.006
  -0.00000000  0.11862152  0.00000000       0.006
   0.00000000  0.11598548 -0.00000000       0.006
   0.00000000  0.11334945 -0.00000000       0.006
   0.00000000  0.11071342 -0.00000000       0.006
  -0.00000000  0.10807738  0.00000000       0.006
  -0.00000000  0.10544135  0.00000000       0.006
  -0.00000000  0.10280532  0.00000000       0.006
   0.00000000  0.10016928 -0.00000000       0.006
   0.00000000  0.09753325 -0.00000000       0.006
  -0.00000000  0.09489721  0.00000000       0.006
  -0.00000000  0.09226118  0.00000000       0.006
  -0.00000000  0.08962515  0.00000000       0.006
   0.00000000  0.08698911 -0.00000000       0.006
   0.00000000  0.08435308 -0.00000000       0.006
  -0.00000000  0.08171705  0.00000000       0.006
  -0.00000000  0.07908101  0.00000000       0.006
   0.00000000  0.07644498  0.00000000       0.006
   0.00000000  0.07380894 -0.00000000       0.006
   0.00000000  0.07117291 -0.00000000       0.006
  -0.00000000  0.06853688  0.00000000       0.006
  -0.00000000  0.06590084  0.00000000       0.006
   0.00000000  0.06326481 -0.00000000       0.006
   0.00000000  0.06062878 -0.00000000       0.006
   0.00000000  0.05799274 -0.00000000       0.006
   0.00000000  0.05535671 -0.00000000       0.006
  -0.00000000  0.05272067  0.00000000       0.006
   0.00000000  0.05008464 -0.00000000       0.006
   0.00000000  0.04744861 -0.00000000       0.006
  -0.00000000  0.04481257  0.00000000       0.006
  -0.00000000  0.04217654  0.00000000       0.006
  -0.00000000  0.03954051  0.00000000       0.006
  -0.00000000  0.03690447  0.00000000       0.006
  -0.00000000  0.03426844  0.00000000       0.006
  -0.00000000  0.03163240  0.00000000       0.006
   0.00000000  0.02899637 -0.00000000       0.006
   0.00000000  0.02636034 -0.00000000       0.006
  -0.00000000  0.02372430  0.00000000       0.006
   0.00000000  0.02108827 -0.00000000       0.006
  -0.00000000  0.01845224  0.00000000       0.006
  -0.00000000  0.01581620  0.00000000       0.006
   0.00000000  0.01318017 -0.00000000       0.006
   0.00000000  0.01054413 -0.00000000       0.006
  -0.00000000  0.00790810  0.00000000       0.006
   0.00000000  0.00527207 -0.00000000       0.006
  -0.00000000  0.00263603  0.00000000       0.006
   0.00000000  0.00000000  0.00000000       0.006

 k-points in reciprocal lattice and weights: \Gamma -> L -> W -> X -> \Gamma         
   0.00000000  0.00000000  0.00000000       0.006
   0.01000000  0.01000000  0.01000000       0.006
   0.02000000  0.02000000  0.02000000       0.006
   0.03000000  0.03000000  0.03000000       0.006
   0.04000000  0.04000000  0.04000000       0.006
   0.05000000  0.05000000  0.05000000       0.006
   0.06000000  0.06000000  0.06000000       0.006
   0.07000000  0.07000000  0.07000000       0.006
   0.08000000  0.08000000  0.08000000       0.006
   0.09000000  0.09000000  0.09000000       0.006
   0.10000000  0.10000000  0.10000000       0.006
   0.11000000  0.11000000  0.11000000       0.006
   0.12000000  0.12000000  0.12000000       0.006
   0.13000000  0.13000000  0.13000000       0.006
   0.14000000  0.14000000  0.14000000       0.006
   0.15000000  0.15000000  0.15000000       0.006
   0.16000000  0.16000000  0.16000000       0.006
   0.17000000  0.17000000  0.17000000       0.006
   0.18000000  0.18000000  0.18000000       0.006
   0.19000000  0.19000000  0.19000000       0.006
   0.20000000  0.20000000  0.20000000       0.006
   0.21000000  0.21000000  0.21000000       0.006
   0.22000000  0.22000000  0.22000000       0.006
   0.23000000  0.23000000  0.23000000       0.006
   0.24000000  0.24000000  0.24000000       0.006
   0.25000000  0.25000000  0.25000000       0.006
   0.26000000  0.26000000  0.26000000       0.006
   0.27000000  0.27000000  0.27000000       0.006
   0.28000000  0.28000000  0.28000000       0.006
   0.29000000  0.29000000  0.29000000       0.006
   0.30000000  0.30000000  0.30000000       0.006
   0.31000000  0.31000000  0.31000000       0.006
   0.32000000  0.32000000  0.32000000       0.006
   0.33000000  0.33000000  0.33000000       0.006
   0.34000000  0.34000000  0.34000000       0.006
   0.35000000  0.35000000  0.35000000       0.006
   0.36000000  0.36000000  0.36000000       0.006
   0.37000000  0.37000000  0.37000000       0.006
   0.38000000  0.38000000  0.38000000       0.006
   0.39000000  0.39000000  0.39000000       0.006
   0.40000000  0.40000000  0.40000000       0.006
   0.41000000  0.41000000  0.41000000       0.006
   0.42000000  0.42000000  0.42000000       0.006
   0.43000000  0.43000000  0.43000000       0.006
   0.44000000  0.44000000  0.44000000       0.006
   0.45000000  0.45000000  0.45000000       0.006
   0.46000000  0.46000000  0.46000000       0.006
   0.47000000  0.47000000  0.47000000       0.006
   0.48000000  0.48000000  0.48000000       0.006
   0.49000000  0.49000000  0.49000000       0.006
   0.50000000  0.50000000  0.50000000       0.006
   0.50000000  0.49390244  0.50609756       0.006
   0.50000000  0.48780488  0.51219512       0.006
   0.50000000  0.48170732  0.51829268       0.006
   0.50000000  0.47560976  0.52439024       0.006
   0.50000000  0.46951220  0.53048780       0.006
   0.50000000  0.46341463  0.53658537       0.006
   0.50000000  0.45731707  0.54268293       0.006
   0.50000000  0.45121951  0.54878049       0.006
   0.50000000  0.44512195  0.55487805       0.006
   0.50000000  0.43902439  0.56097561       0.006
   0.50000000  0.43292683  0.56707317       0.006
   0.50000000  0.42682927  0.57317073       0.006
   0.50000000  0.42073171  0.57926829       0.006
   0.50000000  0.41463415  0.58536585       0.006
   0.50000000  0.40853659  0.59146341       0.006
   0.50000000  0.40243902  0.59756098       0.006
   0.50000000  0.39634146  0.60365854       0.006
   0.50000000  0.39024390  0.60975610       0.006
   0.50000000  0.38414634  0.61585366       0.006
   0.50000000  0.37804878  0.62195122       0.006
   0.50000000  0.37195122  0.62804878       0.006
   0.50000000  0.36585366  0.63414634       0.006
   0.50000000  0.35975610  0.64024390       0.006
   0.50000000  0.35365854  0.64634146       0.006
   0.50000000  0.34756098  0.65243902       0.006
   0.50000000  0.34146341  0.65853659       0.006
   0.50000000  0.33536585  0.66463415       0.006
   0.50000000  0.32926829  0.67073171       0.006
   0.50000000  0.32317073  0.67682927       0.006
   0.50000000  0.31707317  0.68292683       0.006
   0.50000000  0.31097561  0.68902439       0.006
   0.50000000  0.30487805  0.69512195       0.006
   0.50000000  0.29878049  0.70121951       0.006
   0.50000000  0.29268293  0.70731707       0.006
   0.50000000  0.28658537  0.71341463       0.006
   0.50000000  0.28048780  0.71951220       0.006
   0.50000000  0.27439024  0.72560976       0.006
   0.50000000  0.26829268  0.73170732       0.006
   0.50000000  0.26219512  0.73780488       0.006
   0.50000000  0.25609756  0.74390244       0.006
   0.50000000  0.25000000  0.75000000       0.006
   0.50000000  0.24137931  0.74137931       0.006
   0.50000000  0.23275862  0.73275862       0.006
   0.50000000  0.22413793  0.72413793       0.006
   0.50000000  0.21551724  0.71551724       0.006
   0.50000000  0.20689655  0.70689655       0.006
   0.50000000  0.19827586  0.69827586       0.006
   0.50000000  0.18965517  0.68965517       0.006
   0.50000000  0.18103448  0.68103448       0.006
   0.50000000  0.17241379  0.67241379       0.006
   0.50000000  0.16379310  0.66379310       0.006
   0.50000000  0.15517241  0.65517241       0.006
   0.50000000  0.14655172  0.64655172       0.006
   0.50000000  0.13793103  0.63793103       0.006
   0.50000000  0.12931034  0.62931034       0.006
   0.50000000  0.12068966  0.62068966       0.006
   0.50000000  0.11206897  0.61206897       0.006
   0.50000000  0.10344828  0.60344828       0.006
   0.50000000  0.09482759  0.59482759       0.006
   0.50000000  0.08620690  0.58620690       0.006
   0.50000000  0.07758621  0.57758621       0.006
   0.50000000  0.06896552  0.56896552       0.006
   0.50000000  0.06034483  0.56034483       0.006
   0.50000000  0.05172414  0.55172414       0.006
   0.50000000  0.04310345  0.54310345       0.006
   0.50000000  0.03448276  0.53448276       0.006
   0.50000000  0.02586207  0.52586207       0.006
   0.50000000  0.01724138  0.51724138       0.006
   0.50000000  0.00862069  0.50862069       0.006
   0.50000000  0.00000000  0.50000000       0.006
   0.49137931  0.00000000  0.49137931       0.006
   0.48275862  0.00000000  0.48275862       0.006
   0.47413793  0.00000000  0.47413793       0.006
   0.46551724  0.00000000  0.46551724       0.006
   0.45689655  0.00000000  0.45689655       0.006
   0.44827586  0.00000000  0.44827586       0.006
   0.43965517  0.00000000  0.43965517       0.006
   0.43103448  0.00000000  0.43103448       0.006
   0.42241379  0.00000000  0.42241379       0.006
   0.41379310  0.00000000  0.41379310       0.006
   0.40517241  0.00000000  0.40517241       0.006
   0.39655172  0.00000000  0.39655172       0.006
   0.38793103  0.00000000  0.38793103       0.006
   0.37931034  0.00000000  0.37931034       0.006
   0.37068966  0.00000000  0.37068966       0.006
   0.36206897  0.00000000  0.36206897       0.006
   0.35344828  0.00000000  0.35344828       0.006
   0.34482759  0.00000000  0.34482759       0.006
   0.33620690  0.00000000  0.33620690       0.006
   0.32758621  0.00000000  0.32758621       0.006
   0.31896552  0.00000000  0.31896552       0.006
   0.31034483  0.00000000  0.31034483       0.006
   0.30172414  0.00000000  0.30172414       0.006
   0.29310345  0.00000000  0.29310345       0.006
   0.28448276  0.00000000  0.28448276       0.006
   0.27586207  0.00000000  0.27586207       0.006
   0.26724138  0.00000000  0.26724138       0.006
   0.25862069  0.00000000  0.25862069       0.006
   0.25000000  0.00000000  0.25000000       0.006
   0.24137931  0.00000000  0.24137931       0.006
   0.23275862  0.00000000  0.23275862       0.006
   0.22413793  0.00000000  0.22413793       0.006
   0.21551724  0.00000000  0.21551724       0.006
   0.20689655  0.00000000  0.20689655       0.006
   0.19827586  0.00000000  0.19827586       0.006
   0.18965517  0.00000000  0.18965517       0.006
   0.18103448  0.00000000  0.18103448       0.006
   0.17241379  0.00000000  0.17241379       0.006
   0.16379310  0.00000000  0.16379310       0.006
   0.15517241  0.00000000  0.15517241       0.006
   0.14655172  0.00000000  0.14655172       0.006
   0.13793103  0.00000000  0.13793103       0.006
   0.12931034  0.00000000  0.12931034       0.006
   0.12068966  0.00000000  0.12068966       0.006
   0.11206897  0.00000000  0.11206897       0.006
   0.10344828  0.00000000  0.10344828       0.006
   0.09482759  0.00000000  0.09482759       0.006
   0.08620690  0.00000000  0.08620690       0.006
   0.07758621  0.00000000  0.07758621       0.006
   0.06896552  0.00000000  0.06896552       0.006
   0.06034483  0.00000000  0.06034483       0.006
   0.05172414  0.00000000  0.05172414       0.006
   0.04310345  0.00000000  0.04310345       0.006
   0.03448276  0.00000000  0.03448276       0.006
   0.02586207  0.00000000  0.02586207       0.006
   0.01724138  0.00000000  0.01724138       0.006
   0.00862069  0.00000000  0.00862069       0.006
   0.00000000  0.00000000  0.00000000       0.006

 position of ions in fractional coordinates (direct lattice) 
   0.00000000  0.00000000  0.00000000
   0.25000000  0.25000000  0.25000000

 position of ions in cartesian coordinates  (Angst):
   0.00000000  0.00000000  0.00000000
   1.63516300  1.63516300  1.63516300



--------------------------------------------------------------------------------------------------------


 k-point   1 :   0.0000 0.0000 0.0000  plane waves:    1459
 k-point   2 :   0.0100 0.0100 0.0100  plane waves:    1462
 k-point   3 :   0.0200 0.0200 0.0200  plane waves:    1462
 k-point   4 :   0.0300 0.0300 0.0300  plane waves:    1462
 k-point   5 :   0.0400 0.0400 0.0400  plane waves:    1462
 k-point   6 :   0.0500 0.0500 0.0500  plane waves:    1462
 k-point   7 :   0.0600 0.0600 0.0600  plane waves:    1462
 k-point   8 :   0.0700 0.0700 0.0700  plane waves:    1462
 k-point   9 :   0.0800 0.0800 0.0800  plane waves:    1465
 k-point  10 :   0.0900 0.0900 0.0900  plane waves:    1471
 k-point  11 :   0.1000 0.1000 0.1000  plane waves:    1471
 k-point  12 :   0.1100 0.1100 0.1100  plane waves:    1483
 k-point  13 :   0.1200 0.1200 0.1200  plane waves:    1495
 k-point  14 :   0.1300 0.1300 0.1300  plane waves:    1492
 k-point  15 :   0.1400 0.1400 0.1400  plane waves:    1492
 k-point  16 :   0.1500 0.1500 0.1500  plane waves:    1495
 k-point  17 :   0.1600 0.1600 0.1600  plane waves:    1495
 k-point  18 :   0.1700 0.1700 0.1700  plane waves:    1495
 k-point  19 :   0.1800 0.1800 0.1800  plane waves:    1507
 k-point  20 :   0.1900 0.1900 0.1900  plane waves:    1504
 k-point  21 :   0.2000 0.2000 0.2000  plane waves:    1504
 k-point  22 :   0.2100 0.2100 0.2100  plane waves:    1513
 k-point  23 :   0.2200 0.2200 0.2200  plane waves:    1513
 k-point  24 :   0.2300 0.2300 0.2300  plane waves:    1513
 k-point  25 :   0.2400 0.2400 0.2400  plane waves:    1513
 k-point  26 :   0.2500 0.2500 0.2500  plane waves:    1507
 k-point  27 :   0.2600 0.2600 0.2600  plane waves:    1513
 k-point  28 :   0.2700 0.2700 0.2700  plane waves:    1507
 k-point  29 :   0.2800 0.2800 0.2800  plane waves:    1507
 k-point  30 :   0.2900 0.2900 0.2900  plane waves:    1507
 k-point  31 :   0.3000 0.3000 0.3000  plane waves:    1513
 k-point  32 :   0.3100 0.3100 0.3100  plane waves:    1513
 k-point  33 :   0.3200 0.3200 0.3200  plane waves:    1513
 k-point  34 :   0.3300 0.3300 0.3300  plane waves:    1501
 k-point  35 :   0.3400 0.3400 0.3400  plane waves:    1504
 k-point  36 :   0.3500 0.3500 0.3500  plane waves:    1510
 k-point  37 :   0.3600 0.3600 0.3600  plane waves:    1510
 k-point  38 :   0.3700 0.3700 0.3700  plane waves:    1504
 k-point  39 :   0.3800 0.3800 0.3800  plane waves:    1504
 k-point  40 :   0.3900 0.3900 0.3900  plane waves:    1504
 k-point  41 :   0.4000 0.4000 0.4000  plane waves:    1504
 k-point  42 :   0.4100 0.4100 0.4100  plane waves:    1504
 k-point  43 :   0.4200 0.4200 0.4200  plane waves:    1501
 k-point  44 :   0.4300 0.4300 0.4300  plane waves:    1501
 k-point  45 :   0.4400 0.4400 0.4400  plane waves:    1501
 k-point  46 :   0.4500 0.4500 0.4500  plane waves:    1501
 k-point  47 :   0.4600 0.4600 0.4600  plane waves:    1501
 k-point  48 :   0.4700 0.4700 0.4700  plane waves:    1502
 k-point  49 :   0.4800 0.4800 0.4800  plane waves:    1502
 k-point  50 :   0.4900 0.4900 0.4900  plane waves:    1502
 k-point  51 :   0.5000 0.5000 0.5000  plane waves:    1502
 k-point  52 :   0.5000 0.4939 0.5061  plane waves:    1502
 k-point  53 :   0.5000 0.4878 0.5122  plane waves:    1504
 k-point  54 :   0.5000 0.4817 0.5183  plane waves:    1510
 k-point  55 :   0.5000 0.4756 0.5244  plane waves:    1516
 k-point  56 :   0.5000 0.4695 0.5305  plane waves:    1512
 k-point  57 :   0.5000 0.4634 0.5366  plane waves:    1512
 k-point  58 :   0.5000 0.4573 0.5427  plane waves:    1510
 k-point  59 :   0.5000 0.4512 0.5488  plane waves:    1512
 k-point  60 :   0.5000 0.4451 0.5549  plane waves:    1514
 k-point  61 :   0.5000 0.4390 0.5610  plane waves:    1512
 k-point  62 :   0.5000 0.4329 0.5671  plane waves:    1510
 k-point  63 :   0.5000 0.4268 0.5732  plane waves:    1514
 k-point  64 :   0.5000 0.4207 0.5793  plane waves:    1514
 k-point  65 :   0.5000 0.4146 0.5854  plane waves:    1514
 k-point  66 :   0.5000 0.4085 0.5915  plane waves:    1516
 k-point  67 :   0.5000 0.4024 0.5976  plane waves:    1510
 k-point  68 :   0.5000 0.3963 0.6037  plane waves:    1516
 k-point  69 :   0.5000 0.3902 0.6098  plane waves:    1522
 k-point  70 :   0.5000 0.3841 0.6159  plane waves:    1522
 k-point  71 :   0.5000 0.3780 0.6220  plane waves:    1526
 k-point  72 :   0.5000 0.3720 0.6280  plane waves:    1526
 k-point  73 :   0.5000 0.3659 0.6341  plane waves:    1526
 k-point  74 :   0.5000 0.3598 0.6402  plane waves:    1524
 k-point  75 :   0.5000 0.3537 0.6463  plane waves:    1526
 k-point  76 :   0.5000 0.3476 0.6524  plane waves:    1526
 k-point  77 :   0.5000 0.3415 0.6585  plane waves:    1520
 k-point  78 :   0.5000 0.3354 0.6646  plane waves:    1518
 k-point  79 :   0.5000 0.3293 0.6707  plane waves:    1518
 k-point  80 :   0.5000 0.3232 0.6768  plane waves:    1522
 k-point  81 :   0.5000 0.3171 0.6829  plane waves:    1522
 k-point  82 :   0.5000 0.3110 0.6890  plane waves:    1516
 k-point  83 :   0.5000 0.3049 0.6951  plane waves:    1518
 k-point  84 :   0.5000 0.2988 0.7012  plane waves:    1518
 k-point  85 :   0.5000 0.2927 0.7073  plane waves:    1520
 k-point  86 :   0.5000 0.2866 0.7134  plane waves:    1520
 k-point  87 :   0.5000 0.2805 0.7195  plane waves:    1528
 k-point  88 :   0.5000 0.2744 0.7256  plane waves:    1530
 k-point  89 :   0.5000 0.2683 0.7317  plane waves:    1528
 k-point  90 :   0.5000 0.2622 0.7378  plane waves:    1540
 k-point  91 :   0.5000 0.2561 0.7439  plane waves:    1540
 k-point  92 :   0.5000 0.2500 0.7500  plane waves:    1540
 k-point  93 :   0.5000 0.2414 0.7414  plane waves:    1540
 k-point  94 :   0.5000 0.2328 0.7328  plane waves:    1540
 k-point  95 :   0.5000 0.2241 0.7241  plane waves:    1532
 k-point  96 :   0.5000 0.2155 0.7155  plane waves:    1520
 k-point  97 :   0.5000 0.2069 0.7069  plane waves:    1524
 k-point  98 :   0.5000 0.1983 0.6983  plane waves:    1524
 k-point  99 :   0.5000 0.1897 0.6897  plane waves:    1524
 k-point 100 :   0.5000 0.1810 0.6810  plane waves:    1524
 k-point 101 :   0.5000 0.1724 0.6724  plane waves:    1526
 k-point 102 :   0.5000 0.1638 0.6638  plane waves:    1522
 k-point 103 :   0.5000 0.1552 0.6552  plane waves:    1530
 k-point 104 :   0.5000 0.1466 0.6466  plane waves:    1530
 k-point 105 :   0.5000 0.1379 0.6379  plane waves:    1526
 k-point 106 :   0.5000 0.1293 0.6293  plane waves:    1520
 k-point 107 :   0.5000 0.1207 0.6207  plane waves:    1524
 k-point 108 :   0.5000 0.1121 0.6121  plane waves:    1524
 k-point 109 :   0.5000 0.1034 0.6034  plane waves:    1524
 k-point 110 :   0.5000 0.0948 0.5948  plane waves:    1528
 k-point 111 :   0.5000 0.0862 0.5862  plane waves:    1532
 k-point 112 :   0.5000 0.0776 0.5776  plane waves:    1532
 k-point 113 :   0.5000 0.0690 0.5690  plane waves:    1536
 k-point 114 :   0.5000 0.0603 0.5603  plane waves:    1532
 k-point 115 :   0.5000 0.0517 0.5517  plane waves:    1534
 k-point 116 :   0.5000 0.0431 0.5431  plane waves:    1536
 k-point 117 :   0.5000 0.0345 0.5345  plane waves:    1536
 k-point 118 :   0.5000 0.0259 0.5259  plane waves:    1528
 k-point 119 :   0.5000 0.0172 0.5172  plane waves:    1524
 k-point 120 :   0.5000 0.0086 0.5086  plane waves:    1524
 k-point 121 :   0.5000 0.0000 0.5000  plane waves:    1524
 k-point 122 :   0.4914 0.0000 0.4914  plane waves:    1524
 k-point 123 :   0.4828 0.0000 0.4828  plane waves:    1524
 k-point 124 :   0.4741 0.0000 0.4741  plane waves:    1528
 k-point 125 :   0.4655 0.0000 0.4655  plane waves:    1528
 k-point 126 :   0.4569 0.0000 0.4569  plane waves:    1536
 k-point 127 :   0.4483 0.0000 0.4483  plane waves:    1536
 k-point 128 :   0.4397 0.0000 0.4397  plane waves:    1536
 k-point 129 :   0.4310 0.0000 0.4310  plane waves:    1532
 k-point 130 :   0.4224 0.0000 0.4224  plane waves:    1532
 k-point 131 :   0.4138 0.0000 0.4138  plane waves:    1524
 k-point 132 :   0.4052 0.0000 0.4052  plane waves:    1524
 k-point 133 :   0.3966 0.0000 0.3966  plane waves:    1524
 k-point 134 :   0.3879 0.0000 0.3879  plane waves:    1524
 k-point 135 :   0.3793 0.0000 0.3793  plane waves:    1524
 k-point 136 :   0.3707 0.0000 0.3707  plane waves:    1524
 k-point 137 :   0.3621 0.0000 0.3621  plane waves:    1524
 k-point 138 :   0.3534 0.0000 0.3534  plane waves:    1520
 k-point 139 :   0.3448 0.0000 0.3448  plane waves:    1528
 k-point 140 :   0.3362 0.0000 0.3362  plane waves:    1527
 k-point 141 :   0.3276 0.0000 0.3276  plane waves:    1527
 k-point 142 :   0.3190 0.0000 0.3190  plane waves:    1527
 k-point 143 :   0.3103 0.0000 0.3103  plane waves:    1519
 k-point 144 :   0.3017 0.0000 0.3017  plane waves:    1511
 k-point 145 :   0.2931 0.0000 0.2931  plane waves:    1511
 k-point 146 :   0.2845 0.0000 0.2845  plane waves:    1515
 k-point 147 :   0.2759 0.0000 0.2759  plane waves:    1507
 k-point 148 :   0.2672 0.0000 0.2672  plane waves:    1499
 k-point 149 :   0.2586 0.0000 0.2586  plane waves:    1495
 k-point 150 :   0.2500 0.0000 0.2500  plane waves:    1491
 k-point 151 :   0.2414 0.0000 0.2414  plane waves:    1491
 k-point 152 :   0.2328 0.0000 0.2328  plane waves:    1495
 k-point 153 :   0.2241 0.0000 0.2241  plane waves:    1495
 k-point 154 :   0.2155 0.0000 0.2155  plane waves:    1495
 k-point 155 :   0.2069 0.0000 0.2069  plane waves:    1495
 k-point 156 :   0.1983 0.0000 0.1983  plane waves:    1491
 k-point 157 :   0.1897 0.0000 0.1897  plane waves:    1499
 k-point 158 :   0.1810 0.0000 0.1810  plane waves:    1499
 k-point 159 :   0.1724 0.0000 0.1724  plane waves:    1507
 k-point 160 :   0.1638 0.0000 0.1638  plane waves:    1507
 k-point 161 :   0.1552 0.0000 0.1552  plane waves:    1499
 k-point 162 :   0.1466 0.0000 0.1466  plane waves:    1499
 k-point 163 :   0.1379 0.0000 0.1379  plane waves:    1499
 k-point 164 :   0.1293 0.0000 0.1293  plane waves:    1499
 k-point 165 :   0.1207 0.0000 0.1207  plane waves:    1491
 k-point 166 :   0.1121 0.0000 0.1121  plane waves:    1495
 k-point 167 :   0.1034 0.0000 0.1034  plane waves:    1487
 k-point 168 :   0.0948 0.0000 0.0948  plane waves:    1483
 k-point 169 :   0.0862 0.0000 0.0862  plane waves:    1483
 k-point 170 :   0.0776 0.0000 0.0776  plane waves:    1471
 k-point 171 :   0.0690 0.0000 0.0690  plane waves:    1471
 k-point 172 :   0.0603 0.0000 0.0603  plane waves:    1463
 k-point 173 :   0.0517 0.0000 0.0517  plane waves:    1463
 k-point 174 :   0.0431 0.0000 0.0431  plane waves:    1463
 k-point 175 :   0.0345 0.0000 0.0345  plane waves:    1463
 k-point 176 :   0.0259 0.0000 0.0259  plane waves:    1463
 k-point 177 :   0.0172 0.0000 0.0172  plane waves:    1463
 k-point 178 :   0.0086 0.0000 0.0086  plane waves:    1463
 k-point 179 :   0.0000 0.0000 0.0000  plane waves:    1459

 maximum and minimum number of plane-waves per node :       395      362

 maximum number of plane-waves:      1540
 maximum index in each direction: 
   IXMAX=    7   IYMAX=    7   IZMAX=    7
   IXMIN=   -8   IYMIN=   -8   IZMIN=   -8


 parallel 3D FFT for wavefunctions:
    minimum data exchange during FFTs selected (reduces bandwidth)
 parallel 3D FFT for charge:
    minimum data exchange during FFTs selected (reduces bandwidth)


 total amount of memory used by VASP MPI-rank0    58381. kBytes
=======================================================================

   base      :      30000. kBytes
   nonl-proj :      19808. kBytes
   fftplans  :       1064. kBytes
   grid      :       1738. kBytes
   one-center:         15. kBytes
   wavefun   :       5756. kBytes

     INWAV:  cpu time      0.0000: real time      0.0000
 initial charge density was supplied:
 number of electron      18.0000003 magnetization 
 keeping initial charge density in first step


--------------------------------------------------------------------------------------------------------


 Maximum index for augmentation-charges         2172 (set IRDMAX)


--------------------------------------------------------------------------------------------------------


 First call to EWALD:  gamma=   0.430
 Maximum number of real-space cells 3x 3x 3
 Maximum number of reciprocal cells 3x 3x 3

    FEWALD:  cpu time      0.2734: real time      0.2736


--------------------------------------- Ionic step        1  -------------------------------------------




--------------------------------------- Iteration      1(   1)  ---------------------------------------


    POTLOK:  cpu time      0.0203: real time      0.0207
    SETDIJ:  cpu time      0.1750: real time      0.1753
     EDDAV:  cpu time      7.0632: real time     14.2871
       DOS:  cpu time      0.0115: real time      0.0117
    --------------------------------------------
      LOOP:  cpu time      7.2700: real time     14.4947

 eigenvalue-minimisations  :  5388
 total energy-change (2. order) : 0.9361921E+02  (-0.7749381E+03)
 number of electron      18.0000003 magnetization 
 augmentation part       18.0000003 magnetization 

 Free energy of the ion-electron system (eV)
  ---------------------------------------------------
  alpha Z        PSCENC =        48.85038211
  Ewald energy   TEWEN  =     -1035.57388720
  -Hartree energ DENC   =      -511.46217349
  -exchange      EXHF   =         0.00000000
  -V(xc)+E(xc)   XCENC  =       -20.55403187
  PAW double counting   =      3271.44012768    -3199.51374537
  entropy T*S    EENTRO =        -0.00033306
  eigenvalues    EBANDS =        24.22964083
  atomic energy  EATOM  =      1516.20323374
  Solvation  Ediel_sol  =         0.00000000
  ---------------------------------------------------
  free energy    TOTEN  =        93.61921336 eV

  energy without entropy =       93.61954641  energy(sigma->0) =       93.61937989


--------------------------------------------------------------------------------------------------------




--------------------------------------- Iteration      1(   2)  ---------------------------------------


     EDDAV:  cpu time      0.0346: real time      0.0437
       DOS:  cpu time      0.0022: real time      0.0022
    --------------------------------------------
      LOOP:  cpu time      0.0367: real time      0.0458

 eigenvalue-minimisations  :  6180
 total energy-change (2. order) :-0.9375351E+02  (-0.8805818E+02)
 number of electron      18.0000003 magnetization 
 augmentation part       18.0000003 magnetization 

 Free energy of the ion-electron system (eV)
  ---------------------------------------------------
  alpha Z        PSCENC =        48.85038211
  Ewald energy   TEWEN  =     -1035.57388720
  -Hartree energ DENC   =      -511.46217349
  -exchange      EXHF   =         0.00000000
  -V(xc)+E(xc)   XCENC  =       -20.55403187
  PAW double counting   =      3271.44012768    -3199.51374537
  entropy T*S    EENTRO =        -0.00003519
  eigenvalues    EBANDS =       -69.52417115
  atomic energy  EATOM  =      1516.20323374
  Solvation  Ediel_sol  =         0.00000000
  ---------------------------------------------------
  free energy    TOTEN  =        -0.13430075 eV

  energy without entropy =       -0.13426556  energy(sigma->0) =       -0.13428316


--------------------------------------------------------------------------------------------------------




--------------------------------------- Iteration      1(   3)  ---------------------------------------


     EDDAV:  cpu time      0.0330: real time      0.0395
       DOS:  cpu time      0.0017: real time      0.0017
    --------------------------------------------
      LOOP:  cpu time      0.0347: real time      0.0412

 eigenvalue-minimisations  :  6372
 total energy-change (2. order) :-0.3485035E+01  (-0.3422963E+01)
 number of electron      18.0000003 magnetization 
 augmentation part       18.0000003 magnetization 

 Free energy of the ion-electron system (eV)
  ---------------------------------------------------
  alpha Z        PSCENC =        48.85038211
  Ewald energy   TEWEN  =     -1035.57388720
  -Hartree energ DENC   =      -511.46217349
  -exchange      EXHF   =         0.00000000
  -V(xc)+E(xc)   XCENC  =       -20.55403187
  PAW double counting   =      3271.44012768    -3199.51374537
  entropy T*S    EENTRO =        -0.00000000
  eigenvalues    EBANDS =       -73.00924138
  atomic energy  EATOM  =      1516.20323374
  Solvation  Ediel_sol  =         0.00000000
  ---------------------------------------------------
  free energy    TOTEN  =        -3.61933579 eV

  energy without entropy =       -3.61933579  energy(sigma->0) =       -3.61933579


--------------------------------------------------------------------------------------------------------




--------------------------------------- Iteration      1(   4)  ---------------------------------------


     EDDAV:  cpu time      0.0422: real time      0.0423
       DOS:  cpu time      0.0016: real time      0.0016
    --------------------------------------------
      LOOP:  cpu time      0.0438: real time      0.0439

 eigenvalue-minimisations  :  7878
 total energy-change (2. order) :-0.3478042E-01  (-0.3477472E-01)
 number of electron      18.0000003 magnetization 
 augmentation part       18.0000003 magnetization 

 Free energy of the ion-electron system (eV)
  ---------------------------------------------------
  alpha Z        PSCENC =        48.85038211
  Ewald energy   TEWEN  =     -1035.57388720
  -Hartree energ DENC   =      -511.46217349
  -exchange      EXHF   =         0.00000000
  -V(xc)+E(xc)   XCENC  =       -20.55403187
  PAW double counting   =      3271.44012768    -3199.51374537
  entropy T*S    EENTRO =        -0.00000000
  eigenvalues    EBANDS =       -73.04402181
  atomic energy  EATOM  =      1516.20323374
  Solvation  Ediel_sol  =         0.00000000
  ---------------------------------------------------
  free energy    TOTEN  =        -3.65411622 eV

  energy without entropy =       -3.65411622  energy(sigma->0) =       -3.65411622


--------------------------------------------------------------------------------------------------------




--------------------------------------- Iteration      1(   5)  ---------------------------------------


     EDDAV:  cpu time      0.0313: real time      0.0401
       DOS:  cpu time      0.0017: real time      0.0017
    --------------------------------------------
      LOOP:  cpu time      0.0329: real time      0.0418

 eigenvalue-minimisations  :  6852
 total energy-change (2. order) :-0.1797942E-03  (-0.1797921E-03)
 number of electron      18.0000003 magnetization 
 augmentation part       18.0000003 magnetization 

 Free energy of the ion-electron system (eV)
  ---------------------------------------------------
  alpha Z        PSCENC =        48.85038211
  Ewald energy   TEWEN  =     -1035.57388720
  -Hartree energ DENC   =      -511.46217349
  -exchange      EXHF   =         0.00000000
  -V(xc)+E(xc)   XCENC  =       -20.55403187
  PAW double counting   =      3271.44012768    -3199.51374537
  entropy T*S    EENTRO =        -0.00000000
  eigenvalues    EBANDS =       -73.04420160
  atomic energy  EATOM  =      1516.20323374
  Solvation  Ediel_sol  =         0.00000000
  ---------------------------------------------------
  free energy    TOTEN  =        -3.65429601 eV

  energy without entropy =       -3.65429601  energy(sigma->0) =       -3.65429601


--------------------------------------------------------------------------------------------------------




--------------------------------------- Iteration      1(   6)  ---------------------------------------


     EDDAV:  cpu time      0.0299: real time      0.0410
       DOS:  cpu time      0.0017: real time      0.0017
    --------------------------------------------
      LOOP:  cpu time      0.0315: real time      0.0427

 eigenvalue-minimisations  :  7887
 total energy-change (2. order) :-0.6449160E-05  (-0.6449179E-05)
 number of electron      18.0000003 magnetization 
 augmentation part       18.0000003 magnetization 

 Free energy of the ion-electron system (eV)
  ---------------------------------------------------
  alpha Z        PSCENC =        48.85038211
  Ewald energy   TEWEN  =     -1035.57388720
  -Hartree energ DENC   =      -511.46217349
  -exchange      EXHF   =         0.00000000
  -V(xc)+E(xc)   XCENC  =       -20.55403187
  PAW double counting   =      3271.44012768    -3199.51374537
  entropy T*S    EENTRO =        -0.00000000
  eigenvalues    EBANDS =       -73.04420805
  atomic energy  EATOM  =      1516.20323374
  Solvation  Ediel_sol  =         0.00000000
  ---------------------------------------------------
  free energy    TOTEN  =        -3.65430246 eV

  energy without entropy =       -3.65430246  energy(sigma->0) =       -3.65430246


--------------------------------------------------------------------------------------------------------




--------------------------------------- Iteration      1(   7)  ---------------------------------------


     EDDAV:  cpu time      0.0400: real time      0.0401
       DOS:  cpu time      0.0015: real time      0.0015
    --------------------------------------------
      LOOP:  cpu time      0.0416: real time      0.0417

 eigenvalue-minimisations  :  5505
 total energy-change (2. order) :-0.9057067E-07  (-0.9043683E-07)
 number of electron      18.0000003 magnetization 
 augmentation part       18.0000003 magnetization 

 Free energy of the ion-electron system (eV)
  ---------------------------------------------------
  alpha Z        PSCENC =        48.85038211
  Ewald energy   TEWEN  =     -1035.57388720
  -Hartree energ DENC   =      -511.46217349
  -exchange      EXHF   =         0.00000000
  -V(xc)+E(xc)   XCENC  =       -20.55403187
  PAW double counting   =      3271.44012768    -3199.51374537
  entropy T*S    EENTRO =        -0.00000000
  eigenvalues    EBANDS =       -73.04420814
  atomic energy  EATOM  =      1516.20323374
  Solvation  Ediel_sol  =         0.00000000
  ---------------------------------------------------
  free energy    TOTEN  =        -3.65430255 eV

  energy without entropy =       -3.65430255  energy(sigma->0) =       -3.65430255


--------------------------------------------------------------------------------------------------------




 average (electrostatic) potential at core
  the test charge radii are     1.0698  1.1897
  (the norm of the test charge is              1.0000)
       1 -38.7424       2 -91.4052



 E-fermi :   2.1389     XC(G=0):  -8.6246     alpha+bet : -7.2271

 Fermi energy:         2.1388839429

 k-point     1 :       0.0000    0.0000    0.0000
  band No.  band energies     occupation 
      1      -9.0204      2.00000
      2      -5.9368      2.00000
      3      -5.9368      2.00000
      4      -5.9368      2.00000
      5      -5.6806      2.00000
      6      -5.6806      2.00000
      7       2.0528      2.00000
      8       2.0528      2.00000
      9       2.0528      2.00000
     10       2.6014      0.00000
     11       6.5672      0.00000
     12       6.5672      0.00000
     13       6.5672      0.00000
     14       9.2824      0.00000
     15      11.3012      0.00000

 k-point     2 :       0.0100    0.0100    0.0100
  band No.  band energies     occupation 
      1      -9.0201      2.00000
      2      -5.9368      2.00000
      3      -5.9368      2.00000
      4      -5.9366      2.00000
      5      -5.6806      2.00000
      6      -5.6806      2.00000
      7       2.0294      2.00000
      8       2.0518      2.00000
      9       2.0519      2.00000
     10       2.6228      0.00000
     11       6.5658      0.00000
     12       6.5687      0.00000
     13       6.5687      0.00000
     14       9.2887      0.00000
     15      11.2870      0.00000

 k-point     3 :       0.0200    0.0200    0.0200
  band No.  band energies     occupation 
      1      -9.0189      2.00000
      2      -5.9365      2.00000
      3      -5.9365      2.00000
      4      -5.9358      2.00000
      5      -5.6806      2.00000
      6      -5.6806      2.00000
      7       1.9679      2.00000
      8       2.0490      2.00000
      9       2.0490      2.00000
     10       2.6788      0.00000
     11       6.5617      0.00000
     12       6.5732      0.00000
     13       6.5732      0.00000
     14       9.3074      0.00000
     15      11.2485      0.00000

 k-point     4 :       0.0300    0.0300    0.0300
  band No.  band energies     occupation 
      1      -9.0170      2.00000
      2      -5.9362      2.00000
      3      -5.9362      2.00000
      4      -5.9345      2.00000
      5      -5.6807      2.00000
      6      -5.6807      2.00000
      7       1.8828      2.00000
      8       2.0443      2.00000
      9       2.0443      2.00000
     10       2.7543      0.00000
     11       6.5553      0.00000
     12       6.5806      0.00000
     13       6.5806      0.00000
     14       9.3383      0.00000
     15      11.1934      0.00000

 k-point     5 :       0.0400    0.0400    0.0400
  band No.  band energies     occupation 
      1      -9.0143      2.00000
      2      -5.9356      2.00000
      3      -5.9356      2.00000
      4      -5.9328      2.00000
      5      -5.6807      2.00000
      6      -5.6807      2.00000
      7       1.7846      2.00000
      8       2.0378      2.00000
      9       2.0378      2.00000
     10       2.8391      0.00000
     11       6.5471      0.00000
     12       6.5910      0.00000
     13       6.5910      0.00000
     14       9.3806      0.00000
     15      11.1289      0.00000

 k-point     6 :       0.0500    0.0500    0.0500
  band No.  band energies     occupation 
      1      -9.0108      2.00000
      2      -5.9350      2.00000
      3      -5.9350      2.00000
      4      -5.9304      2.00000
      5      -5.6808      2.00000
      6      -5.6808      2.00000
      7       1.6786      2.00000
      8       2.0295      2.00000
      9       2.0295      2.00000
     10       2.9277      0.00000
     11       6.5378      0.00000
     12       6.6041      0.00000
     13       6.6041      0.00000
     14       9.4335      0.00000
     15      11.0598      0.00000

 k-point     7 :       0.0600    0.0600    0.0600
  band No.  band energies     occupation 
      1      -9.0066      2.00000
      2      -5.9342      2.00000
      3      -5.9342      2.00000
      4      -5.9276      2.00000
      5      -5.6809      2.00000
      6      -5.6809      2.00000
      7       1.5677      2.00000
      8       2.0196      2.00000
      9       2.0196      2.00000
     10       3.0169      0.00000
     11       6.5283      0.00000
     12       6.6198      0.00000
     13       6.6198      0.00000
     14       9.4960      0.00000
     15      10.9892      0.00000

 k-point     8 :       0.0700    0.0700    0.0700
  band No.  band energies     occupation 
      1      -9.0017      2.00000
      2      -5.9332      2.00000
      3      -5.9332      2.00000
      4      -5.9242      2.00000
      5      -5.6809      2.00000
      6      -5.6809      2.00000
      7       1.4536      2.00000
      8       2.0079      2.00000
      9       2.0079      2.00000
     10       3.1049      0.00000
     11       6.5196      0.00000
     12       6.6381      0.00000
     13       6.6381      0.00000
     14       9.5669      0.00000
     15      10.9189      0.00000

 k-point     9 :       0.0800    0.0800    0.0800
  band No.  band energies     occupation 
      1      -8.9961      2.00000
      2      -5.9322      2.00000
      3      -5.9322      2.00000
      4      -5.9202      2.00000
      5      -5.6810      2.00000
      6      -5.6810      2.00000
      7       1.3372      2.00000
      8       1.9947      2.00000
      9       1.9947      2.00000
     10       3.1906      0.00000
     11       6.5124      0.00000
     12       6.6587      0.00000
     13       6.6587      0.00000
     14       9.6448      0.00000
     15      10.8501      0.00000

 k-point    10 :       0.0900    0.0900    0.0900
  band No.  band energies     occupation 
      1      -8.9897      2.00000
      2      -5.9310      2.00000
      3      -5.9310      2.00000
      4      -5.9158      2.00000
      5      -5.6811      2.00000
      6      -5.6811      2.00000
      7       1.2193      2.00000
      8       1.9801      2.00000
      9       1.9801      2.00000
     10       3.2730      0.00000
     11       6.5079      0.00000
     12       6.6813      0.00000
     13       6.6813      0.00000
     14       9.7281      0.00000
     15      10.7837      0.00000

 k-point    11 :       0.1000    0.1000    0.1000
  band No.  band energies     occupation 
      1      -8.9827      2.00000
      2      -5.9296      2.00000
      3      -5.9296      2.00000
      4      -5.9107      2.00000
      5      -5.6812      2.00000
      6      -5.6812      2.00000
      7       1.1003      2.00000
      8       1.9640      2.00000
      9       1.9640      2.00000
     10       3.3515      0.00000
     11       6.5069      0.00000
     12       6.7059      0.00000
     13       6.7059      0.00000
     14       9.8149      0.00000
     15      10.7204      0.00000

 k-point    12 :       0.1100    0.1100    0.1100
  band No.  band energies     occupation 
      1      -8.9751      2.00000
      2      -5.9282      2.00000
      3      -5.9282      2.00000
      4      -5.9050      2.00000
      5      -5.6814      2.00000
      6      -5.6814      2.00000
      7       0.9805      2.00000
      8       1.9468      2.00000
      9       1.9468      2.00000
     10       3.4254      0.00000
     11       6.5103      0.00000
     12       6.7321      0.00000
     13       6.7321      0.00000
     14       9.9031      0.00000
     15      10.6605      0.00000

 k-point    13 :       0.1200    0.1200    0.1200
  band No.  band energies     occupation 
      1      -8.9669      2.00000
      2      -5.9267      2.00000
      3      -5.9267      2.00000
      4      -5.8987      2.00000
      5      -5.6815      2.00000
      6      -5.6815      2.00000
      7       0.8602      2.00000
      8       1.9283      2.00000
      9       1.9283      2.00000
     10       3.4942      0.00000
     11       6.5189      0.00000
     12       6.7596      0.00000
     13       6.7596      0.00000
     14       9.9900      0.00000
     15      10.6047      0.00000

 k-point    14 :       0.1300    0.1300    0.1300
  band No.  band energies     occupation 
      1      -8.9580      2.00000
      2      -5.9251      2.00000
      3      -5.9251      2.00000
      4      -5.8918      2.00000
      5      -5.6816      2.00000
      6      -5.6816      2.00000
      7       0.7397      2.00000
      8       1.9088      2.00000
      9       1.9088      2.00000
     10       3.5576      0.00000
     11       6.5334      0.00000
     12       6.7882      0.00000
     13       6.7882      0.00000
     14      10.0723      0.00000
     15      10.5531      0.00000

 k-point    15 :       0.1400    0.1400    0.1400
  band No.  band energies     occupation 
      1      -8.9487      2.00000
      2      -5.9234      2.00000
      3      -5.9234      2.00000
      4      -5.8842      2.00000
      5      -5.6817      2.00000
      6      -5.6817      2.00000
      7       0.6192      2.00000
      8       1.8884      2.00000
      9       1.8884      2.00000
     10       3.6152      0.00000
     11       6.5544      0.00000
     12       6.8176      0.00000
     13       6.8176      0.00000
     14      10.1465      0.00000
     15      10.5062      0.00000

 k-point    16 :       0.1500    0.1500    0.1500
  band No.  band energies     occupation 
      1      -8.9388      2.00000
      2      -5.9216      2.00000
      3      -5.9216      2.00000
      4      -5.8760      2.00000
      5      -5.6818      2.00000
      6      -5.6818      2.00000
      7       0.4989      2.00000
      8       1.8672      2.00000
      9       1.8672      2.00000
     10       3.6669      0.00000
     11       6.5822      0.00000
     12       6.8474      0.00000
     13       6.8474      0.00000
     14      10.2089      0.00000
     15      10.4642      0.00000

 k-point    17 :       0.1600    0.1600    0.1600
  band No.  band energies     occupation 
      1      -8.9284      2.00000
      2      -5.9197      2.00000
      3      -5.9197      2.00000
      4      -5.8670      2.00000
      5      -5.6818      2.00000
      6      -5.6818      2.00000
      7       0.3789      2.00000
      8       1.8453      2.00000
      9       1.8453      2.00000
     10       3.7125      0.00000
     11       6.6173      0.00000
     12       6.8774      0.00000
     13       6.8774      0.00000
     14      10.2564      0.00000
     15      10.4275      0.00000

 k-point    18 :       0.1700    0.1700    0.1700
  band No.  band energies     occupation 
      1      -8.9176      2.00000
      2      -5.9178      2.00000
      3      -5.9178      2.00000
      4      -5.8574      2.00000
      5      -5.6818      2.00000
      6      -5.6818      2.00000
      7       0.2594      2.00000
      8       1.8228      2.00000
      9       1.8228      2.00000
     10       3.7520      0.00000
     11       6.6597      0.00000
     12       6.9072      0.00000
     13       6.9072      0.00000
     14      10.2874      0.00000
     15      10.3963      0.00000

 k-point    19 :       0.1800    0.1800    0.1800
  band No.  band energies     occupation 
      1      -8.9064      2.00000
      2      -5.9158      2.00000
      3      -5.9158      2.00000
      4      -5.8472      2.00000
      5      -5.6819      2.00000
      6      -5.6819      2.00000
      7       0.1406      2.00000
      8       1.7998      2.00000
      9       1.7998      2.00000
     10       3.7856      0.00000
     11       6.7095      0.00000
     12       6.9365      0.00000
     13       6.9365      0.00000
     14      10.3041      0.00000
     15      10.3709      0.00000

 k-point    20 :       0.1900    0.1900    0.1900
  band No.  band energies     occupation 
      1      -8.8948      2.00000
      2      -5.9138      2.00000
      3      -5.9138      2.00000
      4      -5.8361      2.00000
      5      -5.6818      2.00000
      6      -5.6818      2.00000
      7       0.0226      2.00000
      8       1.7765      2.00000
      9       1.7765      2.00000
     10       3.8135      0.00000
     11       6.7666      0.00000
     12       6.9650      0.00000
     13       6.9650      0.00000
     14      10.3034      0.00000
     15      10.3515      0.00000

 k-point    21 :       0.2000    0.2000    0.2000
  band No.  band energies     occupation 
      1      -8.8830      2.00000
      2      -5.9118      2.00000
      3      -5.9118      2.00000
      4      -5.8244      2.00000
      5      -5.6818      2.00000
      6      -5.6818      2.00000
      7      -0.0944      2.00000
      8       1.7529      2.00000
      9       1.7529      2.00000
     10       3.8359      0.00000
     11       6.8307      0.00000
     12       6.9924      0.00000
     13       6.9924      0.00000
     14      10.2912      0.00000
     15      10.3385      0.00000

 k-point    22 :       0.2100    0.2100    0.2100
  band No.  band energies     occupation 
      1      -8.8708      2.00000
      2      -5.9097      2.00000
      3      -5.9097      2.00000
      4      -5.8119      2.00000
      5      -5.6817      2.00000
      6      -5.6817      2.00000
      7      -0.2104      2.00000
      8       1.7291      2.00000
      9       1.7291      2.00000
     10       3.8534      0.00000
     11       6.9014      0.00000
     12       7.0184      0.00000
     13       7.0184      0.00000
     14      10.2706      0.00000
     15      10.3319      0.00000

 k-point    23 :       0.2200    0.2200    0.2200
  band No.  band energies     occupation 
      1      -8.8585      2.00000
      2      -5.9077      2.00000
      3      -5.9077      2.00000
      4      -5.7987      2.00000
      5      -5.6816      2.00000
      6      -5.6816      2.00000
      7      -0.3250      2.00000
      8       1.7053      2.00000
      9       1.7053      2.00000
     10       3.8664      0.00000
     11       6.9783      0.00000
     12       7.0429      0.00000
     13       7.0429      0.00000
     14      10.2437      0.00000
     15      10.3319      0.00000

 k-point    24 :       0.2300    0.2300    0.2300
  band No.  band energies     occupation 
      1      -8.8460      2.00000
      2      -5.9056      2.00000
      3      -5.9056      2.00000
      4      -5.7847      2.00000
      5      -5.6814      2.00000
      6      -5.6814      2.00000
      7      -0.4383      2.00000
      8       1.6816      2.00000
      9       1.6816      2.00000
     10       3.8752      0.00000
     11       7.0609      0.00000
     12       7.0654      0.00000
     13       7.0654      0.00000
     14      10.2130      0.00000
     15      10.3387      0.00000

 k-point    25 :       0.2400    0.2400    0.2400
  band No.  band energies     occupation 
      1      -8.8334      2.00000
      2      -5.9036      2.00000
      3      -5.9036      2.00000
      4      -5.7700      2.00000
      5      -5.6813      2.00000
      6      -5.6813      2.00000
      7      -0.5500      2.00000
      8       1.6579      2.00000
      9       1.6579      2.00000
     10       3.8804      0.00000
     11       7.0861      0.00000
     12       7.0861      0.00000
     13       7.1487      0.00000
     14      10.1798      0.00000
     15      10.3524      0.00000

 k-point    26 :       0.2500    0.2500    0.2500
  band No.  band energies     occupation 
      1      -8.8208      2.00000
      2      -5.9016      2.00000
      3      -5.9016      2.00000
      4      -5.7546      2.00000
      5      -5.6810      2.00000
      6      -5.6810      2.00000
      7      -0.6600      2.00000
      8       1.6345      2.00000
      9       1.6345      2.00000
     10       3.8825      0.00000
     11       7.1045      0.00000
     12       7.1045      0.00000
     13       7.2411      0.00000
     14      10.1454      0.00000
     15      10.3729      0.00000

 k-point    27 :       0.2600    0.2600    0.2600
  band No.  band energies     occupation 
      1      -8.8081      2.00000
      2      -5.8996      2.00000
      3      -5.8996      2.00000
      4      -5.7385      2.00000
      5      -5.6808      2.00000
      6      -5.6808      2.00000
      7      -0.7682      2.00000
      8       1.6114      2.00000
      9       1.6114      2.00000
     10       3.8818      0.00000
     11       7.1209      0.00000
     12       7.1209      0.00000
     13       7.3375      0.00000
     14      10.1109      0.00000
     15      10.4004      0.00000

 k-point    28 :       0.2700    0.2700    0.2700
  band No.  band energies     occupation 
      1      -8.7955      2.00000
      2      -5.8976      2.00000
      3      -5.8976      2.00000
      4      -5.7217      2.00000
      5      -5.6804      2.00000
      6      -5.6804      2.00000
      7      -0.8743      2.00000
      8       1.5887      2.00000
      9       1.5887      2.00000
     10       3.8789      0.00000
     11       7.1350      0.00000
     12       7.1350      0.00000
     13       7.4373      0.00000
     14      10.0772      0.00000
     15      10.4347      0.00000

 k-point    29 :       0.2800    0.2800    0.2800
  band No.  band energies     occupation 
      1      -8.7829      2.00000
      2      -5.8957      2.00000
      3      -5.8957      2.00000
      4      -5.7042      2.00000
      5      -5.6801      2.00000
      6      -5.6801      2.00000
      7      -0.9783      2.00000
      8       1.5664      2.00000
      9       1.5664      2.00000
     10       3.8741      0.00000
     11       7.1469      0.00000
     12       7.1469      0.00000
     13       7.5398      0.00000
     14      10.0449      0.00000
     15      10.4757      0.00000

 k-point    30 :       0.2900    0.2900    0.2900
  band No.  band energies     occupation 
      1      -8.7705      2.00000
      2      -5.8939      2.00000
      3      -5.8939      2.00000
      4      -5.6861      2.00000
      5      -5.6797      2.00000
      6      -5.6797      2.00000
      7      -1.0799      2.00000
      8       1.5446      2.00000
      9       1.5446      2.00000
     10       3.8678      0.00000
     11       7.1566      0.00000
     12       7.1566      0.00000
     13       7.6444      0.00000
     14      10.0148      0.00000
     15      10.5232      0.00000

 k-point    31 :       0.3000    0.3000    0.3000
  band No.  band energies     occupation 
      1      -8.7583      2.00000
      2      -5.8921      2.00000
      3      -5.8921      2.00000
      4      -5.6793      2.00000
      5      -5.6793      2.00000
      6      -5.6676      2.00000
      7      -1.1790      2.00000
      8       1.5235      2.00000
      9       1.5235      2.00000
     10       3.8602      0.00000
     11       7.1644      0.00000
     12       7.1644      0.00000
     13       7.7503      0.00000
     14       9.9875      0.00000
     15      10.5772      0.00000

 k-point    32 :       0.3100    0.3100    0.3100
  band No.  band energies     occupation 
      1      -8.7464      2.00000
      2      -5.8904      2.00000
      3      -5.8904      2.00000
      4      -5.6789      2.00000
      5      -5.6789      2.00000
      6      -5.6485      2.00000
      7      -1.2755      2.00000
      8       1.5030      2.00000
      9       1.5030      2.00000
     10       3.8518      0.00000
     11       7.1702      0.00000
     12       7.1702      0.00000
     13       7.8567      0.00000
     14       9.9635      0.00000
     15      10.6373      0.00000

 k-point    33 :       0.3200    0.3200    0.3200
  band No.  band energies     occupation 
      1      -8.7347      2.00000
      2      -5.8888      2.00000
      3      -5.8888      2.00000
      4      -5.6784      2.00000
      5      -5.6784      2.00000
      6      -5.6290      2.00000
      7      -1.3690      2.00000
      8       1.4832      2.00000
      9       1.4832      2.00000
     10       3.8426      0.00000
     11       7.1744      0.00000
     12       7.1744      0.00000
     13       7.9629      0.00000
     14       9.9435      0.00000
     15      10.7032      0.00000

 k-point    34 :       0.3300    0.3300    0.3300
  band No.  band energies     occupation 
      1      -8.7234      2.00000
      2      -5.8872      2.00000
      3      -5.8872      2.00000
      4      -5.6779      2.00000
      5      -5.6779      2.00000
      6      -5.6091      2.00000
      7      -1.4595      2.00000
      8       1.4642      2.00000
      9       1.4642      2.00000
     10       3.8331      0.00000
     11       7.1769      0.00000
     12       7.1769      0.00000
     13       8.0679      0.00000
     14       9.9281      0.00000
     15      10.7747      0.00000

 k-point    35 :       0.3400    0.3400    0.3400
  band No.  band energies     occupation 
      1      -8.7125      2.00000
      2      -5.8858      2.00000
      3      -5.8858      2.00000
      4      -5.6774      2.00000
      5      -5.6774      2.00000
      6      -5.5890      2.00000
      7      -1.5467      2.00000
      8       1.4460      2.00000
      9       1.4460      2.00000
     10       3.8233      0.00000
     11       7.1780      0.00000
     12       7.1780      0.00000
     13       8.1706      0.00000
     14       9.9182      0.00000
     15      10.8514      0.00000

 k-point    36 :       0.3500    0.3500    0.3500
  band No.  band energies     occupation 
      1      -8.7020      2.00000
      2      -5.8844      2.00000
      3      -5.8844      2.00000
      4      -5.6768      2.00000
      5      -5.6768      2.00000
      6      -5.5689      2.00000
      7      -1.6305      2.00000
      8       1.4286      2.00000
      9       1.4286      2.00000
     10       3.8134      0.00000
     11       7.1780      0.00000
     12       7.1780      0.00000
     13       8.2700      0.00000
     14       9.9144      0.00000
     15      10.9330      0.00000

 k-point    37 :       0.3600    0.3600    0.3600
  band No.  band energies     occupation 
      1      -8.6920      2.00000
      2      -5.8831      2.00000
      3      -5.8831      2.00000
      4      -5.6763      2.00000
      5      -5.6763      2.00000
      6      -5.5488      2.00000
      7      -1.7105      2.00000
      8       1.4122      2.00000
      9       1.4122      2.00000
     10       3.8037      0.00000
     11       7.1770      0.00000
     12       7.1770      0.00000
     13       8.3647      0.00000
     14       9.9175      0.00000
     15      11.0192      0.00000

 k-point    38 :       0.3700    0.3700    0.3700
  band No.  band energies     occupation 
      1      -8.6825      2.00000
      2      -5.8819      2.00000
      3      -5.8819      2.00000
      4      -5.6758      2.00000
      5      -5.6758      2.00000
      6      -5.5288      2.00000
      7      -1.7866      2.00000
      8       1.3968      2.00000
      9       1.3968      2.00000
     10       3.7941      0.00000
     11       7.1751      0.00000
     12       7.1751      0.00000
     13       8.4535      0.00000
     14       9.9285      0.00000
     15      11.1094      0.00000

 k-point    39 :       0.3800    0.3800    0.3800
  band No.  band energies     occupation 
      1      -8.6735      2.00000
      2      -5.8808      2.00000
      3      -5.8808      2.00000
      4      -5.6752      2.00000
      5      -5.6752      2.00000
      6      -5.5092      2.00000
      7      -1.8585      2.00000
      8       1.3823      2.00000
      9       1.3823      2.00000
     10       3.7849      0.00000
     11       7.1727      0.00000
     12       7.1727      0.00000
     13       8.5352      0.00000
     14       9.9478      0.00000
     15      11.2033      0.00000

 k-point    40 :       0.3900    0.3900    0.3900
  band No.  band energies     occupation 
      1      -8.6651      2.00000
      2      -5.8797      2.00000
      3      -5.8797      2.00000
      4      -5.6747      2.00000
      5      -5.6747      2.00000
      6      -5.4901      2.00000
      7      -1.9260      2.00000
      8       1.3689      2.00000
      9       1.3689      2.00000
     10       3.7761      0.00000
     11       7.1697      0.00000
     12       7.1697      0.00000
     13       8.6087      0.00000
     14       9.9759      0.00000
     15      11.3003      0.00000

 k-point    41 :       0.4000    0.4000    0.4000
  band No.  band energies     occupation 
      1      -8.6574      2.00000
      2      -5.8788      2.00000
      3      -5.8788      2.00000
      4      -5.6742      2.00000
      5      -5.6742      2.00000
      6      -5.4717      2.00000
      7      -1.9888      2.00000
      8       1.3565      2.00000
      9       1.3565      2.00000
     10       3.7679      0.00000
     11       7.1665      0.00000
     12       7.1665      0.00000
     13       8.6733      0.00000
     14      10.0127      0.00000
     15      11.3998      0.00000

 k-point    42 :       0.4100    0.4100    0.4100
  band No.  band energies     occupation 
      1      -8.6503      2.00000
      2      -5.8780      2.00000
      3      -5.8780      2.00000
      4      -5.6737      2.00000
      5      -5.6737      2.00000
      6      -5.4542      2.00000
      7      -2.0467      2.00000
      8       1.3452      2.00000
      9       1.3452      2.00000
     10       3.7602      0.00000
     11       7.1632      0.00000
     12       7.1632      0.00000
     13       8.7286      0.00000
     14      10.0575      0.00000
     15      11.5012      0.00000

 k-point    43 :       0.4200    0.4200    0.4200
  band No.  band energies     occupation 
      1      -8.6438      2.00000
      2      -5.8772      2.00000
      3      -5.8772      2.00000
      4      -5.6733      2.00000
      5      -5.6733      2.00000
      6      -5.4378      2.00000
      7      -2.0993      2.00000
      8       1.3350      2.00000
      9       1.3350      2.00000
     10       3.7532      0.00000
     11       7.1598      0.00000
     12       7.1598      0.00000
     13       8.7748      0.00000
     14      10.1090      0.00000
     15      11.6036      0.00000

 k-point    44 :       0.4300    0.4300    0.4300
  band No.  band energies     occupation 
      1      -8.6381      2.00000
      2      -5.8766      2.00000
      3      -5.8766      2.00000
      4      -5.6728      2.00000
      5      -5.6728      2.00000
      6      -5.4227      2.00000
      7      -2.1466      2.00000
      8       1.3260      2.00000
      9       1.3260      2.00000
     10       3.7469      0.00000
     11       7.1566      0.00000
     12       7.1566      0.00000
     13       8.8125      0.00000
     14      10.1651      0.00000
     15      11.7058      0.00000

 k-point    45 :       0.4400    0.4400    0.4400
  band No.  band energies     occupation 
      1      -8.6331      2.00000
      2      -5.8760      2.00000
      3      -5.8760      2.00000
      4      -5.6725      2.00000
      5      -5.6725      2.00000
      6      -5.4091      2.00000
      7      -2.1881      2.00000
      8       1.3182      2.00000
      9       1.3182      2.00000
     10       3.7414      0.00000
     11       7.1535      0.00000
     12       7.1535      0.00000
     13       8.8424      0.00000
     14      10.2234      0.00000
     15      11.8064      0.00000

 k-point    46 :       0.4500    0.4500    0.4500
  band No.  band energies     occupation 
      1      -8.6288      2.00000
      2      -5.8755      2.00000
      3      -5.8755      2.00000
      4      -5.6722      2.00000
      5      -5.6722      2.00000
      6      -5.3972      2.00000
      7      -2.2236      2.00000
      8       1.3115      2.00000
      9       1.3115      2.00000
     10       3.7366      0.00000
     11       7.1508      0.00000
     12       7.1508      0.00000
     13       8.8657      0.00000
     14      10.2807      0.00000
     15      11.9033      0.00000

 k-point    47 :       0.4600    0.4600    0.4600
  band No.  band energies     occupation 
      1      -8.6253      2.00000
      2      -5.8751      2.00000
      3      -5.8751      2.00000
      4      -5.6719      2.00000
      5      -5.6719      2.00000
      6      -5.3872      2.00000
      7      -2.2531      2.00000
      8       1.3060      2.00000
      9       1.3060      2.00000
     10       3.7327      0.00000
     11       7.1485      0.00000
     12       7.1485      0.00000
     13       8.8833      0.00000
     14      10.3340      0.00000
     15      11.9935      0.00000

 k-point    48 :       0.4700    0.4700    0.4700
  band No.  band energies     occupation 
      1      -8.6226      2.00000
      2      -5.8748      2.00000
      3      -5.8748      2.00000
      4      -5.6717      2.00000
      5      -5.6717      2.00000
      6      -5.3793      2.00000
      7      -2.2761      2.00000
      8       1.3017      2.00000
      9       1.3017      2.00000
     10       3.7296      0.00000
     11       7.1466      0.00000
     12       7.1466      0.00000
     13       8.8960      0.00000
     14      10.3798      0.00000
     15      12.0731      0.00000

 k-point    49 :       0.4800    0.4800    0.4800
  band No.  band energies     occupation 
      1      -8.6206      2.00000
      2      -5.8746      2.00000
      3      -5.8746      2.00000
      4      -5.6715      2.00000
      5      -5.6715      2.00000
      6      -5.3735      2.00000
      7      -2.2928      2.00000
      8       1.2987      2.00000
      9       1.2987      2.00000
     10       3.7274      0.00000
     11       7.1453      0.00000
     12       7.1453      0.00000
     13       8.9045      0.00000
     14      10.4153      0.00000
     15      12.1368      0.00000

 k-point    50 :       0.4900    0.4900    0.4900
  band No.  band energies     occupation 
      1      -8.6194      2.00000
      2      -5.8745      2.00000
      3      -5.8745      2.00000
      4      -5.6714      2.00000
      5      -5.6714      2.00000
      6      -5.3700      2.00000
      7      -2.3028      2.00000
      8       1.2968      2.00000
      9       1.2968      2.00000
     10       3.7261      0.00000
     11       7.1444      0.00000
     12       7.1444      0.00000
     13       8.9095      0.00000
     14      10.4377      0.00000
     15      12.1786      0.00000

 k-point    51 :       0.5000    0.5000    0.5000
  band No.  band energies     occupation 
      1      -8.6190      2.00000
      2      -5.8744      2.00000
      3      -5.8744      2.00000
      4      -5.6714      2.00000
      5      -5.6714      2.00000
      6      -5.3688      2.00000
      7      -2.3061      2.00000
      8       1.2962      2.00000
      9       1.2962      2.00000
     10       3.7256      0.00000
     11       7.1441      0.00000
     12       7.1441      0.00000
     13       8.9111      0.00000
     14      10.4453      0.00000
     15      12.1933      0.00000

 k-point    52 :       0.5000    0.4939    0.5061
  band No.  band energies     occupation 
      1      -8.6188      2.00000
      2      -5.8744      2.00000
      3      -5.8743      2.00000
      4      -5.6715      2.00000
      5      -5.6714      2.00000
      6      -5.3686      2.00000
      7      -2.3055      2.00000
      8       1.2899      2.00000
      9       1.2950      2.00000
     10       3.7324      0.00000
     11       7.1398      0.00000
     12       7.1469      0.00000
     13       8.9147      0.00000
     14      10.4450      0.00000
     15      12.1890      0.00000

 k-point    53 :       0.5000    0.4878    0.5122
  band No.  band energies     occupation 
      1      -8.6183      2.00000
      2      -5.8742      2.00000
      3      -5.8740      2.00000
      4      -5.6718      2.00000
      5      -5.6714      2.00000
      6      -5.3679      2.00000
      7      -2.3039      2.00000
      8       1.2712      2.00000
      9       1.2914      2.00000
     10       3.7524      0.00000
     11       7.1269      0.00000
     12       7.1551      0.00000
     13       8.9254      0.00000
     14      10.4444      0.00000
     15      12.1745      0.00000

 k-point    54 :       0.5000    0.4817    0.5183
  band No.  band energies     occupation 
      1      -8.6174      2.00000
      2      -5.8739      2.00000
      3      -5.8735      2.00000
      4      -5.6722      2.00000
      5      -5.6715      2.00000
      6      -5.3668      2.00000
      7      -2.3011      2.00000
      8       1.2408      2.00000
      9       1.2855      2.00000
     10       3.7849      0.00000
     11       7.1062      0.00000
     12       7.1688      0.00000
     13       8.9417      0.00000
     14      10.4440      0.00000
     15      12.1414      0.00000

 k-point    55 :       0.5000    0.4756    0.5244
  band No.  band energies     occupation 
      1      -8.6162      2.00000
      2      -5.8735      2.00000
      3      -5.8728      2.00000
      4      -5.6728      2.00000
      5      -5.6716      2.00000
      6      -5.3652      2.00000
      7      -2.2972      2.00000
      8       1.1999      2.00000
      9       1.2771      2.00000
     10       3.8288      0.00000
     11       7.0787      0.00000
     12       7.1880      0.00000
     13       8.9620      0.00000
     14      10.4449      0.00000
     15      12.0841      0.00000

 k-point    56 :       0.5000    0.4695    0.5305
  band No.  band energies     occupation 
      1      -8.6146      2.00000
      2      -5.8729      2.00000
      3      -5.8718      2.00000
      4      -5.6735      2.00000
      5      -5.6716      2.00000
      6      -5.3631      2.00000
      7      -2.2923      2.00000
      8       1.1497      2.00000
      9       1.2664      2.00000
     10       3.8828      0.00000
     11       7.0457      0.00000
     12       7.2126      0.00000
     13       8.9840      0.00000
     14      10.4484      0.00000
     15      12.0183      0.00000

 k-point    57 :       0.5000    0.4634    0.5366
  band No.  band energies     occupation 
      1      -8.6126      2.00000
      2      -5.8722      2.00000
      3      -5.8706      2.00000
      4      -5.6744      2.00000
      5      -5.6717      2.00000
      6      -5.3606      2.00000
      7      -2.2863      2.00000
      8       1.0916      2.00000
      9       1.2533      2.00000
     10       3.9453      0.00000
     11       7.0083      0.00000
     12       7.2426      0.00000
     13       9.0051      0.00000
     14      10.4558      0.00000
     15      11.9356      0.00000

 k-point    58 :       0.5000    0.4573    0.5427
  band No.  band energies     occupation 
      1      -8.6104      2.00000
      2      -5.8713      2.00000
      3      -5.8692      2.00000
      4      -5.6754      2.00000
      5      -5.6718      2.00000
      6      -5.3577      2.00000
      7      -2.2794      2.00000
      8       1.0270      2.00000
      9       1.2379      2.00000
     10       4.0150      0.00000
     11       6.9679      0.00000
     12       7.2779      0.00000
     13       9.0230      0.00000
     14      10.4681      0.00000
     15      11.8470      0.00000

 k-point    59 :       0.5000    0.4512    0.5488
  band No.  band energies     occupation 
      1      -8.6078      2.00000
      2      -5.8703      2.00000
      3      -5.8677      2.00000
      4      -5.6766      2.00000
      5      -5.6720      2.00000
      6      -5.3544      2.00000
      7      -2.2715      2.00000
      8       0.9573      2.00000
      9       1.2201      2.00000
     10       4.0904      0.00000
     11       6.9257      0.00000
     12       7.3182      0.00000
     13       9.0356      0.00000
     14      10.4858      0.00000
     15      11.7553      0.00000

 k-point    60 :       0.5000    0.4451    0.5549
  band No.  band energies     occupation 
      1      -8.6049      2.00000
      2      -5.8693      2.00000
      3      -5.8659      2.00000
      4      -5.6778      2.00000
      5      -5.6721      2.00000
      6      -5.3506      2.00000
      7      -2.2626      2.00000
      8       0.8837      2.00000
      9       1.2000      2.00000
     10       4.1702      0.00000
     11       6.8826      0.00000
     12       7.3635      0.00000
     13       9.0415      0.00000
     14      10.5079      0.00000
     15      11.6646      0.00000

 k-point    61 :       0.5000    0.4390    0.5610
  band No.  band energies     occupation 
      1      -8.6018      2.00000
      2      -5.8681      2.00000
      3      -5.8640      2.00000
      4      -5.6792      2.00000
      5      -5.6723      2.00000
      6      -5.3465      2.00000
      7      -2.2530      2.00000
      8       0.8073      2.00000
      9       1.1776      2.00000
     10       4.2534      0.00000
     11       6.8397      0.00000
     12       7.4133      0.00000
     13       9.0400      0.00000
     14      10.5317      0.00000
     15      11.5806      0.00000

 k-point    62 :       0.5000    0.4329    0.5671
  band No.  band energies     occupation 
      1      -8.5984      2.00000
      2      -5.8668      2.00000
      3      -5.8619      2.00000
      4      -5.6806      2.00000
      5      -5.6725      2.00000
      6      -5.3419      2.00000
      7      -2.2425      2.00000
      8       0.7290      2.00000
      9       1.1529      2.00000
     10       4.3389      0.00000
     11       6.7976      0.00000
     12       7.4672      0.00000
     13       9.0315      0.00000
     14      10.5522      0.00000
     15      11.5095      0.00000

 k-point    63 :       0.5000    0.4268    0.5732
  band No.  band energies     occupation 
      1      -8.5948      2.00000
      2      -5.8654      2.00000
      3      -5.8597      2.00000
      4      -5.6822      2.00000
      5      -5.6727      2.00000
      6      -5.3370      2.00000
      7      -2.2314      2.00000
      8       0.6496      2.00000
      9       1.1259      2.00000
     10       4.4258      0.00000
     11       6.7571      0.00000
     12       7.5244      0.00000
     13       9.0170      0.00000
     14      10.5619      0.00000
     15      11.4593      0.00000

 k-point    64 :       0.5000    0.4207    0.5793
  band No.  band energies     occupation 
      1      -8.5909      2.00000
      2      -5.8638      2.00000
      3      -5.8573      2.00000
      4      -5.6838      2.00000
      5      -5.6729      2.00000
      6      -5.3317      2.00000
      7      -2.2197      2.00000
      8       0.5701      2.00000
      9       1.0968      2.00000
     10       4.5134      0.00000
     11       6.7188      0.00000
     12       7.5839      0.00000
     13       8.9985      0.00000
     14      10.5527      0.00000
     15      11.4377      0.00000

 k-point    65 :       0.5000    0.4146    0.5854
  band No.  band energies     occupation 
      1      -8.5868      2.00000
      2      -5.8622      2.00000
      3      -5.8549      2.00000
      4      -5.6854      2.00000
      5      -5.6731      2.00000
      6      -5.3261      2.00000
      7      -2.2075      2.00000
      8       0.4909      2.00000
      9       1.0655      2.00000
     10       4.6010      0.00000
     11       6.6831      0.00000
     12       7.6445      0.00000
     13       8.9782      0.00000
     14      10.5193      0.00000
     15      11.4488      0.00000

 k-point    66 :       0.5000    0.4085    0.5915
  band No.  band energies     occupation 
      1      -8.5826      2.00000
      2      -5.8605      2.00000
      3      -5.8523      2.00000
      4      -5.6871      2.00000
      5      -5.6734      2.00000
      6      -5.3202      2.00000
      7      -2.1948      2.00000
      8       0.4127      2.00000
      9       1.0321      2.00000
     10       4.6881      0.00000
     11       6.6504      0.00000
     12       7.7040      0.00000
     13       8.9592      0.00000
     14      10.4622      0.00000
     15      11.4910      0.00000

 k-point    67 :       0.5000    0.4024    0.5976
  band No.  band energies     occupation 
      1      -8.5782      2.00000
      2      -5.8587      2.00000
      3      -5.8496      2.00000
      4      -5.6887      2.00000
      5      -5.6736      2.00000
      6      -5.3139      2.00000
      7      -2.1820      2.00000
      8       0.3362      2.00000
      9       0.9967      2.00000
     10       4.7743      0.00000
     11       6.6211      0.00000
     12       7.7602      0.00000
     13       8.9452      0.00000
     14      10.3861      0.00000
     15      11.5577      0.00000

 k-point    68 :       0.5000    0.3963    0.6037
  band No.  band energies     occupation 
      1      -8.5737      2.00000
      2      -5.8568      2.00000
      3      -5.8469      2.00000
      4      -5.6904      2.00000
      5      -5.6739      2.00000
      6      -5.3074      2.00000
      7      -2.1690      2.00000
      8       0.2617      2.00000
      9       0.9594      2.00000
     10       4.8591      0.00000
     11       6.5954      0.00000
     12       7.8097      0.00000
     13       8.9401      0.00000
     14      10.2966      0.00000
     15      11.6409      0.00000

 k-point    69 :       0.5000    0.3902    0.6098
  band No.  band energies     occupation 
      1      -8.5691      2.00000
      2      -5.8549      2.00000
      3      -5.8442      2.00000
      4      -5.6921      2.00000
      5      -5.6743      2.00000
      6      -5.3006      2.00000
      7      -2.1560      2.00000
      8       0.1898      2.00000
      9       0.9203      2.00000
     10       4.9423      0.00000
     11       6.5735      0.00000
     12       7.8492      0.00000
     13       8.9481      0.00000
     14      10.1984      0.00000
     15      11.7332      0.00000

 k-point    70 :       0.5000    0.3841    0.6159
  band No.  band energies     occupation 
      1      -8.5644      2.00000
      2      -5.8529      2.00000
      3      -5.8414      2.00000
      4      -5.6937      2.00000
      5      -5.6746      2.00000
      6      -5.2936      2.00000
      7      -2.1432      2.00000
      8       0.1209      2.00000
      9       0.8794      2.00000
     10       5.0236      0.00000
     11       6.5556      0.00000
     12       7.8757      0.00000
     13       8.9729      0.00000
     14      10.0947      0.00000
     15      11.8276      0.00000

 k-point    71 :       0.5000    0.3780    0.6220
  band No.  band energies     occupation 
      1      -8.5597      2.00000
      2      -5.8508      2.00000
      3      -5.8387      2.00000
      4      -5.6953      2.00000
      5      -5.6749      2.00000
      6      -5.2864      2.00000
      7      -2.1308      2.00000
      8       0.0554      2.00000
      9       0.8369      2.00000
     10       5.1028      0.00000
     11       6.5419      0.00000
     12       7.8871      0.00000
     13       9.0170      0.00000
     14       9.9877      0.00000
     15      11.9176      0.00000

 k-point    72 :       0.5000    0.3720    0.6280
  band No.  band energies     occupation 
      1      -8.5550      2.00000
      2      -5.8487      2.00000
      3      -5.8359      2.00000
      4      -5.6968      2.00000
      5      -5.6753      2.00000
      6      -5.2790      2.00000
      7      -2.1188      2.00000
      8      -0.0063      2.00000
      9       0.7929      2.00000
     10       5.1798      0.00000
     11       6.5322      0.00000
     12       7.8835      0.00000
     13       9.0807      0.00000
     14       9.8790      0.00000
     15      11.9985      0.00000

 k-point    73 :       0.5000    0.3659    0.6341
  band No.  band energies     occupation 
      1      -8.5503      2.00000
      2      -5.8466      2.00000
      3      -5.8332      2.00000
      4      -5.6983      2.00000
      5      -5.6756      2.00000
      6      -5.2715      2.00000
      7      -2.1076      2.00000
      8      -0.0637      2.00000
      9       0.7475      2.00000
     10       5.2545      0.00000
     11       6.5268      0.00000
     12       7.8663      0.00000
     13       9.1628      0.00000
     14       9.7696      0.00000
     15      12.0684      0.00000

 k-point    74 :       0.5000    0.3598    0.6402
  band No.  band energies     occupation 
      1      -8.5456      2.00000
      2      -5.8444      2.00000
      3      -5.8306      2.00000
      4      -5.6997      2.00000
      5      -5.6760      2.00000
      6      -5.2639      2.00000
      7      -2.0973      2.00000
      8      -0.1166      2.00000
      9       0.7009      2.00000
     10       5.3268      0.00000
     11       6.5254      0.00000
     12       7.8381      0.00000
     13       9.2605      0.00000
     14       9.6608      0.00000
     15      12.1281      0.00000

 k-point    75 :       0.5000    0.3537    0.6463
  band No.  band energies     occupation 
      1      -8.5410      2.00000
      2      -5.8423      2.00000
      3      -5.8281      2.00000
      4      -5.7010      2.00000
      5      -5.6764      2.00000
      6      -5.2562      2.00000
      7      -2.0879      2.00000
      8      -0.1646      2.00000
      9       0.6532      2.00000
     10       5.3966      0.00000
     11       6.5280      0.00000
     12       7.8015      0.00000
     13       9.3689      0.00000
     14       9.5554      0.00000
     15      12.1800      0.00000

 k-point    76 :       0.5000    0.3476    0.6524
  band No.  band energies     occupation 
      1      -8.5365      2.00000
      2      -5.8401      2.00000
      3      -5.8257      2.00000
      4      -5.7022      2.00000
      5      -5.6768      2.00000
      6      -5.2485      2.00000
      7      -2.0798      2.00000
      8      -0.2075      2.00000
      9       0.6046      2.00000
     10       5.4639      0.00000
     11       6.5344      0.00000
     12       7.7592      0.00000
     13       9.4225      0.00000
     14       9.5170      0.00000
     15      12.2265      0.00000

 k-point    77 :       0.5000    0.3415    0.6585
  band No.  band energies     occupation 
      1      -8.5321      2.00000
      2      -5.8379      2.00000
      3      -5.8234      2.00000
      4      -5.7032      2.00000
      5      -5.6771      2.00000
      6      -5.2408      2.00000
      7      -2.0729      2.00000
      8      -0.2449      2.00000
      9       0.5553      2.00000
     10       5.5287      0.00000
     11       6.5441      0.00000
     12       7.7134      0.00000
     13       9.3279      0.00000
     14       9.6370      0.00000
     15      12.2694      0.00000

 k-point    78 :       0.5000    0.3354    0.6646
  band No.  band energies     occupation 
      1      -8.5278      2.00000
      2      -5.8357      2.00000
      3      -5.8213      2.00000
      4      -5.7042      2.00000
      5      -5.6775      2.00000
      6      -5.2333      2.00000
      7      -2.0674      2.00000
      8      -0.2767      2.00000
      9       0.5053      2.00000
     10       5.5911      0.00000
     11       6.5568      0.00000
     12       7.6660      0.00000
     13       9.2242      0.00000
     14       9.7751      0.00000
     15      12.3102      0.00000

 k-point    79 :       0.5000    0.3293    0.6707
  band No.  band energies     occupation 
      1      -8.5238      2.00000
      2      -5.8336      2.00000
      3      -5.8193      2.00000
      4      -5.7051      2.00000
      5      -5.6779      2.00000
      6      -5.2258      2.00000
      7      -2.0633      2.00000
      8      -0.3029      2.00000
      9       0.4549      2.00000
     10       5.6511      0.00000
     11       6.5717      0.00000
     12       7.6186      0.00000
     13       9.1213      0.00000
     14       9.9201      0.00000
     15      12.3495      0.00000

 k-point    80 :       0.5000    0.3232    0.6768
  band No.  band energies     occupation 
      1      -8.5199      2.00000
      2      -5.8315      2.00000
      3      -5.8176      2.00000
      4      -5.7059      2.00000
      5      -5.6783      2.00000
      6      -5.2186      2.00000
      7      -2.0606      2.00000
      8      -0.3232      2.00000
      9       0.4043      2.00000
     10       5.7087      0.00000
     11       6.5881      0.00000
     12       7.5728      0.00000
     13       9.0202      0.00000
     14      10.0696      0.00000
     15      12.3883      0.00000

 k-point    81 :       0.5000    0.3171    0.6829
  band No.  band energies     occupation 
      1      -8.5162      2.00000
      2      -5.8295      2.00000
      3      -5.8160      2.00000
      4      -5.7066      2.00000
      5      -5.6786      2.00000
      6      -5.2117      2.00000
      7      -2.0592      2.00000
      8      -0.3377      2.00000
      9       0.3536      2.00000
     10       5.7641      0.00000
     11       6.6049      0.00000
     12       7.5301      0.00000
     13       8.9216      0.00000
     14      10.2220      0.00000
     15      12.4269      0.00000

 k-point    82 :       0.5000    0.3110    0.6890
  band No.  band energies     occupation 
      1      -8.5128      2.00000
      2      -5.8275      2.00000
      3      -5.8147      2.00000
      4      -5.7071      2.00000
      5      -5.6789      2.00000
      6      -5.2050      2.00000
      7      -2.0590      2.00000
      8      -0.3465      2.00000
      9       0.3032      2.00000
     10       5.8172      0.00000
     11       6.6208      0.00000
     12       7.4919      0.00000
     13       8.8259      0.00000
     14      10.3760      0.00000
     15      12.4658      0.00000

 k-point    83 :       0.5000    0.3049    0.6951
  band No.  band energies     occupation 
      1      -8.5097      2.00000
      2      -5.8256      2.00000
      3      -5.8135      2.00000
      4      -5.7076      2.00000
      5      -5.6793      2.00000
      6      -5.1988      2.00000
      7      -2.0599      2.00000
      8      -0.3498      2.00000
      9       0.2531      2.00000
     10       5.8681      0.00000
     11       6.6345      0.00000
     12       7.4597      0.00000
     13       8.7335      0.00000
     14      10.5297      0.00000
     15      12.5056      0.00000

 k-point    84 :       0.5000    0.2988    0.7012
  band No.  band energies     occupation 
      1      -8.5068      2.00000
      2      -5.8238      2.00000
      3      -5.8126      2.00000
      4      -5.7080      2.00000
      5      -5.6795      2.00000
      6      -5.1930      2.00000
      7      -2.0616      2.00000
      8      -0.3478      2.00000
      9       0.2036      2.00000
     10       5.9168      0.00000
     11       6.6446      0.00000
     12       7.4349      0.00000
     13       8.6452      0.00000
     14      10.6814      0.00000
     15      12.5475      0.00000

 k-point    85 :       0.5000    0.2927    0.7073
  band No.  band energies     occupation 
      1      -8.5042      2.00000
      2      -5.8221      2.00000
      3      -5.8119      2.00000
      4      -5.7084      2.00000
      5      -5.6798      2.00000
      6      -5.1877      2.00000
      7      -2.0638      2.00000
      8      -0.3407      2.00000
      9       0.1549      2.00000
     10       5.9630      0.00000
     11       6.6499      0.00000
     12       7.4183      0.00000
     13       8.5615      0.00000
     14      10.8288      0.00000
     15      12.5909      0.00000

 k-point    86 :       0.5000    0.2866    0.7134
  band No.  band energies     occupation 
      1      -8.5020      2.00000
      2      -5.8205      2.00000
      3      -5.8114      2.00000
      4      -5.7086      2.00000
      5      -5.6800      2.00000
      6      -5.1830      2.00000
      7      -2.0665      2.00000
      8      -0.3290      2.00000
      9       0.1074      2.00000
     10       6.0065      0.00000
     11       6.6499      0.00000
     12       7.4102      0.00000
     13       8.4833      0.00000
     14      10.9692      0.00000
     15      12.6384      0.00000

 k-point    87 :       0.5000    0.2805    0.7195
  band No.  band energies     occupation 
      1      -8.5000      2.00000
      2      -5.8191      2.00000
      3      -5.8111      2.00000
      4      -5.7088      2.00000
      5      -5.6803      2.00000
      6      -5.1789      2.00000
      7      -2.0692      2.00000
      8      -0.3131      2.00000
      9       0.0615      2.00000
     10       6.0467      0.00000
     11       6.6446      0.00000
     12       7.4100      0.00000
     13       8.4120      0.00000
     14      11.0991      0.00000
     15      12.6913      0.00000

 k-point    88 :       0.5000    0.2744    0.7256
  band No.  band energies     occupation 
      1      -8.4985      2.00000
      2      -5.8177      2.00000
      3      -5.8109      2.00000
      4      -5.7090      2.00000
      5      -5.6804      2.00000
      6      -5.1755      2.00000
      7      -2.0718      2.00000
      8      -0.2935      2.00000
      9       0.0175      2.00000
     10       6.0829      0.00000
     11       6.6354      0.00000
     12       7.4160      0.00000
     13       8.3490      0.00000
     14      11.2146      0.00000
     15      12.7494      0.00000

 k-point    89 :       0.5000    0.2683    0.7317
  band No.  band energies     occupation 
      1      -8.4972      2.00000
      2      -5.8166      2.00000
      3      -5.8109      2.00000
      4      -5.7091      2.00000
      5      -5.6806      2.00000
      6      -5.1728      2.00000
      7      -2.0740      2.00000
      8      -0.2713      2.00000
      9      -0.0236      2.00000
     10       6.1138      0.00000
     11       6.6241      0.00000
     12       7.4256      0.00000
     13       8.2963      0.00000
     14      11.3111      0.00000
     15      12.8153      0.00000

 k-point    90 :       0.5000    0.2622    0.7378
  band No.  band energies     occupation 
      1      -8.4963      2.00000
      2      -5.8157      2.00000
      3      -5.8111      2.00000
      4      -5.7092      2.00000
      5      -5.6807      2.00000
      6      -5.1709      2.00000
      7      -2.0758      2.00000
      8      -0.2479      2.00000
      9      -0.0604      2.00000
     10       6.1378      0.00000
     11       6.6132      0.00000
     12       7.4357      0.00000
     13       8.2561      0.00000
     14      11.3843      0.00000
     15      12.8862      0.00000

 k-point    91 :       0.5000    0.2561    0.7439
  band No.  band energies     occupation 
      1      -8.4958      2.00000
      2      -5.8150      2.00000
      3      -5.8112      2.00000
      4      -5.7092      2.00000
      5      -5.6807      2.00000
      6      -5.1697      2.00000
      7      -2.0769      2.00000
      8      -0.2273      2.00000
      9      -0.0891      2.00000
     10       6.1533      0.00000
     11       6.6053      0.00000
     12       7.4434      0.00000
     13       8.2307      0.00000
     14      11.4300      0.00000
     15      12.9553      0.00000

 k-point    92 :       0.5000    0.2500    0.7500
  band No.  band energies     occupation 
      1      -8.4956      2.00000
      2      -5.8148      2.00000
      3      -5.8113      2.00000
      4      -5.7093      2.00000
      5      -5.6807      2.00000
      6      -5.1693      2.00000
      7      -2.0773      2.00000
      8      -0.2180      2.00000
      9      -0.1010      2.00000
     10       6.1586      0.00000
     11       6.6024      0.00000
     12       7.4462      0.00000
     13       8.2220      0.00000
     14      11.4455      0.00000
     15      12.9848      0.00000

 k-point    93 :       0.5000    0.2414    0.7414
  band No.  band energies     occupation 
      1      -8.4956      2.00000
      2      -5.8147      2.00000
      3      -5.8113      2.00000
      4      -5.7096      2.00000
      5      -5.6805      2.00000
      6      -5.1695      2.00000
      7      -2.0777      2.00000
      8      -0.2167      2.00000
      9      -0.1001      2.00000
     10       6.1510      0.00000
     11       6.5801      0.00000
     12       7.4709      0.00000
     13       8.2310      0.00000
     14      11.4448      0.00000
     15      12.9857      0.00000

 k-point    94 :       0.5000    0.2328    0.7328
  band No.  band energies     occupation 
      1      -8.4956      2.00000
      2      -5.8144      2.00000
      3      -5.8112      2.00000
      4      -5.7104      2.00000
      5      -5.6798      2.00000
      6      -5.1702      2.00000
      7      -2.0788      2.00000
      8      -0.2130      2.00000
      9      -0.0975      2.00000
     10       6.1286      0.00000
     11       6.5199      0.00000
     12       7.5385      0.00000
     13       8.2576      0.00000
     14      11.4427      0.00000
     15      12.9893      0.00000

 k-point    95 :       0.5000    0.2241    0.7241
  band No.  band energies     occupation 
      1      -8.4955      2.00000
      2      -5.8138      2.00000
      3      -5.8110      2.00000
      4      -5.7118      2.00000
      5      -5.6787      2.00000
      6      -5.1713      2.00000
      7      -2.0807      2.00000
      8      -0.2068      2.00000
      9      -0.0932      2.00000
     10       6.0925      0.00000
     11       6.4347      0.00000
     12       7.6359      0.00000
     13       8.3006      0.00000
     14      11.4392      0.00000
     15      12.9866      0.00000

 k-point    96 :       0.5000    0.2155    0.7155
  band No.  band energies     occupation 
      1      -8.4955      2.00000
      2      -5.8131      2.00000
      3      -5.8107      2.00000
      4      -5.7135      2.00000
      5      -5.6774      2.00000
      6      -5.1728      2.00000
      7      -2.0834      2.00000
      8      -0.1983      2.00000
      9      -0.0872      2.00000
     10       6.0446      0.00000
     11       6.3353      0.00000
     12       7.7525      0.00000
     13       8.3581      0.00000
     14      11.4344      0.00000
     15      12.9810      0.00000

 k-point    97 :       0.5000    0.2069    0.7069
  band No.  band energies     occupation 
      1      -8.4955      2.00000
      2      -5.8122      2.00000
      3      -5.8104      2.00000
      4      -5.7156      2.00000
      5      -5.6759      2.00000
      6      -5.1747      2.00000
      7      -2.0867      2.00000
      8      -0.1875      2.00000
      9      -0.0796      2.00000
     10       5.9868      0.00000
     11       6.2285      0.00000
     12       7.8813      0.00000
     13       8.4282      0.00000
     14      11.4282      0.00000
     15      12.9775      0.00000

 k-point    98 :       0.5000    0.1983    0.6983
  band No.  band energies     occupation 
      1      -8.4954      2.00000
      2      -5.8110      2.00000
      3      -5.8101      2.00000
      4      -5.7179      2.00000
      5      -5.6742      2.00000
      6      -5.1771      2.00000
      7      -2.0906      2.00000
      8      -0.1745      2.00000
      9      -0.0704      2.00000
     10       5.9211      0.00000
     11       6.1183      0.00000
     12       8.0184      0.00000
     13       8.5089      0.00000
     14      11.4207      0.00000
     15      12.9952      0.00000

 k-point    99 :       0.5000    0.1897    0.6897
  band No.  band energies     occupation 
      1      -8.4954      2.00000
      2      -5.8098      2.00000
      3      -5.8097      2.00000
      4      -5.7204      2.00000
      5      -5.6725      2.00000
      6      -5.1798      2.00000
      7      -2.0951      2.00000
      8      -0.1594      2.00000
      9      -0.0598      2.00000
     10       5.8495      0.00000
     11       6.0072      0.00000
     12       8.1613      0.00000
     13       8.5982      0.00000
     14      11.4120      0.00000
     15      12.9672      0.00000

 k-point   100 :       0.5000    0.1810    0.6810
  band No.  band energies     occupation 
      1      -8.4953      2.00000
      2      -5.8092      2.00000
      3      -5.8083      2.00000
      4      -5.7230      2.00000
      5      -5.6708      2.00000
      6      -5.1828      2.00000
      7      -2.1001      2.00000
      8      -0.1425      2.00000
      9      -0.0477      2.00000
     10       5.7735      0.00000
     11       5.8966      0.00000
     12       8.3085      0.00000
     13       8.6945      0.00000
     14      11.4021      0.00000
     15      12.9615      0.00000

 k-point   101 :       0.5000    0.1724    0.6724
  band No.  band energies     occupation 
      1      -8.4953      2.00000
      2      -5.8086      2.00000
      3      -5.8067      2.00000
      4      -5.7257      2.00000
      5      -5.6690      2.00000
      6      -5.1862      2.00000
      7      -2.1055      2.00000
      8      -0.1240      2.00000
      9      -0.0344      2.00000
     10       5.6946      0.00000
     11       5.7876      0.00000
     12       8.4589      0.00000
     13       8.7962      0.00000
     14      11.3910      0.00000
     15      12.9558      0.00000

 k-point   102 :       0.5000    0.1638    0.6638
  band No.  band energies     occupation 
      1      -8.4952      2.00000
      2      -5.8080      2.00000
      3      -5.8049      2.00000
      4      -5.7285      2.00000
      5      -5.6673      2.00000
      6      -5.1898      2.00000
      7      -2.1112      2.00000
      8      -0.1039      2.00000
      9      -0.0200      2.00000
     10       5.6141      0.00000
     11       5.6808      0.00000
     12       8.6118      0.00000
     13       8.9021      0.00000
     14      11.3787      0.00000
     15      12.9539      0.00000

 k-point   103 :       0.5000    0.1552    0.6552
  band No.  band energies     occupation 
      1      -8.4951      2.00000
      2      -5.8073      2.00000
      3      -5.8031      2.00000
      4      -5.7313      2.00000
      5      -5.6657      2.00000
      6      -5.1937      2.00000
      7      -2.1172      2.00000
      8      -0.0825      2.00000
      9      -0.0045      2.00000
     10       5.5329      0.00000
     11       5.5769      0.00000
     12       8.7666      0.00000
     13       9.0110      0.00000
     14      11.3654      0.00000
     15      12.9421      0.00000

 k-point   104 :       0.5000    0.1466    0.6466
  band No.  band energies     occupation 
      1      -8.4951      2.00000
      2      -5.8065      2.00000
      3      -5.8011      2.00000
      4      -5.7342      2.00000
      5      -5.6641      2.00000
      6      -5.1978      2.00000
      7      -2.1233      2.00000
      8      -0.0601      2.00000
      9       0.0118      2.00000
     10       5.4520      0.00000
     11       5.4762      0.00000
     12       8.9228      0.00000
     13       9.1221      0.00000
     14      11.3509      0.00000
     15      12.9349      0.00000

 k-point   105 :       0.5000    0.1379    0.6379
  band No.  band energies     occupation 
      1      -8.4950      2.00000
      2      -5.8057      2.00000
      3      -5.7990      2.00000
      4      -5.7371      2.00000
      5      -5.6625      2.00000
      6      -5.2019      2.00000
      7      -2.1296      2.00000
      8      -0.0369      2.00000
      9       0.0288      2.00000
     10       5.3721      0.00000
     11       5.3792      0.00000
     12       9.0798      0.00000
     13       9.2345      0.00000
     14      11.3354      0.00000
     15      12.9256      0.00000

 k-point   106 :       0.5000    0.1293    0.6293
  band No.  band energies     occupation 
      1      -8.4949      2.00000
      2      -5.8048      2.00000
      3      -5.7969      2.00000
      4      -5.7400      2.00000
      5      -5.6611      2.00000
      6      -5.2062      2.00000
      7      -2.1358      2.00000
      8      -0.0131      2.00000
      9       0.0463      2.00000
     10       5.2861      0.00000
     11       5.2939      0.00000
     12       9.2372      0.00000
     13       9.3474      0.00000
     14      11.3187      0.00000
     15      12.9166      0.00000

 k-point   107 :       0.5000    0.1207    0.6207
  band No.  band energies     occupation 
      1      -8.4948      2.00000
      2      -5.8038      2.00000
      3      -5.7947      2.00000
      4      -5.7429      2.00000
      5      -5.6597      2.00000
      6      -5.2106      2.00000
      7      -2.1420      2.00000
      8       0.0111      2.00000
      9       0.0642      2.00000
     10       5.1973      0.00000
     11       5.2179      0.00000
     12       9.3944      0.00000
     13       9.4601      0.00000
     14      11.3008      0.00000
     15      12.9067      0.00000

 k-point   108 :       0.5000    0.1121    0.6121
  band No.  band energies     occupation 
      1      -8.4948      2.00000
      2      -5.8027      2.00000
      3      -5.7925      2.00000
      4      -5.7458      2.00000
      5      -5.6584      2.00000
      6      -5.2149      2.00000
      7      -2.1481      2.00000
      8       0.0352      2.00000
      9       0.0821      2.00000
     10       5.1130      0.00000
     11       5.1448      0.00000
     12       9.5508      0.00000
     13       9.5719      0.00000
     14      11.2818      0.00000
     15      12.8965      0.00000

 k-point   109 :       0.5000    0.1034    0.6034
  band No.  band energies     occupation 
      1      -8.4947      2.00000
      2      -5.8016      2.00000
      3      -5.7903      2.00000
      4      -5.7486      2.00000
      5      -5.6572      2.00000
      6      -5.2192      2.00000
      7      -2.1540      2.00000
      8       0.0591      2.00000
      9       0.1000      2.00000
     10       5.0336      0.00000
     11       5.0750      0.00000
     12       9.6822      0.00000
     13       9.7059      0.00000
     14      11.2614      0.00000
     15      12.8858      0.00000

 k-point   110 :       0.5000    0.0948    0.5948
  band No.  band energies     occupation 
      1      -8.4946      2.00000
      2      -5.8005      2.00000
      3      -5.7882      2.00000
      4      -5.7515      2.00000
      5      -5.6561      2.00000
      6      -5.2234      2.00000
      7      -2.1597      2.00000
      8       0.0825      2.00000
      9       0.1176      2.00000
     10       4.9594      0.00000
     11       5.0089      0.00000
     12       9.7904      0.00000
     13       9.8587      0.00000
     14      11.2396      0.00000
     15      12.8734      0.00000

 k-point   111 :       0.5000    0.0862    0.5862
  band No.  band energies     occupation 
      1      -8.4946      2.00000
      2      -5.7992      2.00000
      3      -5.7861      2.00000
      4      -5.7543      2.00000
      5      -5.6550      2.00000
      6      -5.2275      2.00000
      7      -2.1650      2.00000
      8       0.1051      2.00000
      9       0.1346      2.00000
     10       4.8905      0.00000
     11       4.9471      0.00000
     12       9.8959      0.00000
     13      10.0085      0.00000
     14      11.2163      0.00000
     15      12.8610      0.00000

 k-point   112 :       0.5000    0.0776    0.5776
  band No.  band energies     occupation 
      1      -8.4945      2.00000
      2      -5.7979      2.00000
      3      -5.7841      2.00000
      4      -5.7570      2.00000
      5      -5.6541      2.00000
      6      -5.2313      2.00000
      7      -2.1700      2.00000
      8       0.1266      2.00000
      9       0.1509      2.00000
     10       4.8272      0.00000
     11       4.8898      0.00000
     12       9.9982      0.00000
     13      10.1540      0.00000
     14      11.1914      0.00000
     15      12.8481      0.00000

 k-point   113 :       0.5000    0.0690    0.5690
  band No.  band energies     occupation 
      1      -8.4944      2.00000
      2      -5.7965      2.00000
      3      -5.7823      2.00000
      4      -5.7596      2.00000
      5      -5.6533      2.00000
      6      -5.2348      2.00000
      7      -2.1745      2.00000
      8       0.1467      2.00000
      9       0.1662      2.00000
     10       4.7698      0.00000
     11       4.8374      0.00000
     12      10.0965      0.00000
     13      10.2939      0.00000
     14      11.1648      0.00000
     15      12.8345      0.00000

 k-point   114 :       0.5000    0.0603    0.5603
  band No.  band energies     occupation 
      1      -8.4944      2.00000
      2      -5.7951      2.00000
      3      -5.7805      2.00000
      4      -5.7622      2.00000
      5      -5.6525      2.00000
      6      -5.2381      2.00000
      7      -2.1787      2.00000
      8       0.1652      2.00000
      9       0.1803      2.00000
     10       4.7185      0.00000
     11       4.7904      0.00000
     12      10.1903      0.00000
     13      10.4267      0.00000
     14      11.1363      0.00000
     15      12.8208      0.00000

 k-point   115 :       0.5000    0.0517    0.5517
  band No.  band energies     occupation 
      1      -8.4943      2.00000
      2      -5.7936      2.00000
      3      -5.7790      2.00000
      4      -5.7647      2.00000
      5      -5.6519      2.00000
      6      -5.2410      2.00000
      7      -2.1823      2.00000
      8       0.1818      2.00000
      9       0.1931      2.00000
     10       4.6735      0.00000
     11       4.7489      0.00000
     12      10.2787      0.00000
     13      10.5502      0.00000
     14      11.1062      0.00000
     15      12.8069      0.00000

 k-point   116 :       0.5000    0.0431    0.5431
  band No.  band energies     occupation 
      1      -8.4943      2.00000
      2      -5.7921      2.00000
      3      -5.7777      2.00000
      4      -5.7670      2.00000
      5      -5.6514      2.00000
      6      -5.2436      2.00000
      7      -2.1854      2.00000
      8       0.1963      2.00000
      9       0.2042      2.00000
     10       4.6351      0.00000
     11       4.7133      0.00000
     12      10.3611      0.00000
     13      10.6621      0.00000
     14      11.0745      0.00000
     15      12.7936      0.00000

 k-point   117 :       0.5000    0.0345    0.5345
  band No.  band energies     occupation 
      1      -8.4942      2.00000
      2      -5.7906      2.00000
      3      -5.7765      2.00000
      4      -5.7692      2.00000
      5      -5.6509      2.00000
      6      -5.2457      2.00000
      7      -2.1880      2.00000
      8       0.2084      2.00000
      9       0.2135      2.00000
     10       4.6034      0.00000
     11       4.6838      0.00000
     12      10.4360      0.00000
     13      10.7598      0.00000
     14      11.0420      0.00000
     15      12.7808      0.00000

 k-point   118 :       0.5000    0.0259    0.5259
  band No.  band energies     occupation 
      1      -8.4942      2.00000
      2      -5.7892      2.00000
      3      -5.7756      2.00000
      4      -5.7712      2.00000
      5      -5.6506      2.00000
      6      -5.2474      2.00000
      7      -2.1901      2.00000
      8       0.2181      2.00000
      9       0.2210      2.00000
     10       4.5786      0.00000
     11       4.6607      0.00000
     12      10.5018      0.00000
     13      10.8403      0.00000
     14      11.0098      0.00000
     15      12.7697      0.00000

 k-point   119 :       0.5000    0.0172    0.5172
  band No.  band energies     occupation 
      1      -8.4942      2.00000
      2      -5.7879      2.00000
      3      -5.7749      2.00000
      4      -5.7728      2.00000
      5      -5.6503      2.00000
      6      -5.2486      2.00000
      7      -2.1915      2.00000
      8       0.2251      2.00000
      9       0.2264      2.00000
     10       4.5608      0.00000
     11       4.6440      0.00000
     12      10.5553      0.00000
     13      10.9005      0.00000
     14      10.9805      0.00000
     15      12.7609      0.00000

 k-point   120 :       0.5000    0.0086    0.5086
  band No.  band energies     occupation 
      1      -8.4942      2.00000
      2      -5.7870      2.00000
      3      -5.7745      2.00000
      4      -5.7739      2.00000
      5      -5.6501      2.00000
      6      -5.2494      2.00000
      7      -2.1924      2.00000
      8       0.2294      2.00000
      9       0.2297      2.00000
     10       4.5500      0.00000
     11       4.6340      0.00000
     12      10.5917      0.00000
     13      10.9379      0.00000
     14      10.9588      0.00000
     15      12.7552      0.00000

 k-point   121 :       0.5000    0.0000    0.5000
  band No.  band energies     occupation 
      1      -8.4942      2.00000
      2      -5.7867      2.00000
      3      -5.7744      2.00000
      4      -5.7744      2.00000
      5      -5.6501      2.00000
      6      -5.2496      2.00000
      7      -2.1927      2.00000
      8       0.2308      2.00000
      9       0.2308      2.00000
     10       4.5464      0.00000
     11       4.6306      0.00000
     12      10.6049      0.00000
     13      10.9506      0.00000
     14      10.9506      0.00000
     15      12.7532      0.00000

 k-point   122 :       0.4914    0.0000    0.4914
  band No.  band energies     occupation 
      1      -8.4946      2.00000
      2      -5.7866      2.00000
      3      -5.7745      2.00000
      4      -5.7745      2.00000
      5      -5.6501      2.00000
      6      -5.2507      2.00000
      7      -2.1902      2.00000
      8       0.2318      2.00000
      9       0.2318      2.00000
     10       4.5454      0.00000
     11       4.6335      0.00000
     12      10.5983      0.00000
     13      10.9430      0.00000
     14      10.9430      0.00000
     15      12.7511      0.00000

 k-point   123 :       0.4828    0.0000    0.4828
  band No.  band energies     occupation 
      1      -8.4957      2.00000
      2      -5.7865      2.00000
      3      -5.7749      2.00000
      4      -5.7749      2.00000
      5      -5.6502      2.00000
      6      -5.2538      2.00000
      7      -2.1828      2.00000
      8       0.2348      2.00000
      9       0.2348      2.00000
     10       4.5426      0.00000
     11       4.6418      0.00000
     12      10.5786      0.00000
     13      10.9205      0.00000
     14      10.9206      0.00000
     15      12.7445      0.00000

 k-point   124 :       0.4741    0.0000    0.4741
  band No.  band energies     occupation 
      1      -8.4975      2.00000
      2      -5.7863      2.00000
      3      -5.7756      2.00000
      4      -5.7756      2.00000
      5      -5.6503      2.00000
      6      -5.2590      2.00000
      7      -2.1704      2.00000
      8       0.2398      2.00000
      9       0.2398      2.00000
     10       4.5393      0.00000
     11       4.6543      0.00000
     12      10.5464      0.00000
     13      10.8842      0.00000
     14      10.8842      0.00000
     15      12.7338      0.00000

 k-point   125 :       0.4655    0.0000    0.4655
  band No.  band energies     occupation 
      1      -8.5001      2.00000
      2      -5.7859      2.00000
      3      -5.7765      2.00000
      4      -5.7765      2.00000
      5      -5.6504      2.00000
      6      -5.2661      2.00000
      7      -2.1531      2.00000
      8       0.2468      2.00000
      9       0.2468      2.00000
     10       4.5362      0.00000
     11       4.6702      0.00000
     12      10.5025      0.00000
     13      10.8351      0.00000
     14      10.8351      0.00000
     15      12.7191      0.00000

 k-point   126 :       0.4569    0.0000    0.4569
  band No.  band energies     occupation 
      1      -8.5035      2.00000
      2      -5.7855      2.00000
      3      -5.7777      2.00000
      4      -5.7777      2.00000
      5      -5.6507      2.00000
      6      -5.2752      2.00000
      7      -2.1312      2.00000
      8       0.2558      2.00000
      9       0.2558      2.00000
     10       4.5341      0.00000
     11       4.6887      0.00000
     12      10.4480      0.00000
     13      10.7750      0.00000
     14      10.7750      0.00000
     15      12.7006      0.00000

 k-point   127 :       0.4483    0.0000    0.4483
  band No.  band energies     occupation 
      1      -8.5075      2.00000
      2      -5.7850      2.00000
      3      -5.7792      2.00000
      4      -5.7792      2.00000
      5      -5.6509      2.00000
      6      -5.2860      2.00000
      7      -2.1046      2.00000
      8       0.2667      2.00000
      9       0.2667      2.00000
     10       4.5333      0.00000
     11       4.7094      0.00000
     12      10.3842      0.00000
     13      10.7054      0.00000
     14      10.7054      0.00000
     15      12.6785      0.00000

 k-point   128 :       0.4397    0.0000    0.4397
  band No.  band energies     occupation 
      1      -8.5123      2.00000
      2      -5.7844      2.00000
      3      -5.7809      2.00000
      4      -5.7808      2.00000
      5      -5.6512      2.00000
      6      -5.2984      2.00000
      7      -2.0735      2.00000
      8       0.2796      2.00000
      9       0.2796      2.00000
     10       4.5341      0.00000
     11       4.7319      0.00000
     12      10.3122      0.00000
     13      10.6278      0.00000
     14      10.6278      0.00000
     15      12.6533      0.00000

 k-point   129 :       0.4310    0.0000    0.4310
  band No.  band energies     occupation 
      1      -8.5178      2.00000
      2      -5.7836      2.00000
      3      -5.7828      2.00000
      4      -5.7828      2.00000
      5      -5.6516      2.00000
      6      -5.3122      2.00000
      7      -2.0381      2.00000
      8       0.2945      2.00000
      9       0.2945      2.00000
     10       4.5366      0.00000
     11       4.7561      0.00000
     12      10.2335      0.00000
     13      10.5437      0.00000
     14      10.5437      0.00000
     15      12.6251      0.00000

 k-point   130 :       0.4224    0.0000    0.4224
  band No.  band energies     occupation 
      1      -8.5239      2.00000
      2      -5.7850      2.00000
      3      -5.7850      2.00000
      4      -5.7829      2.00000
      5      -5.6519      2.00000
      6      -5.3274      2.00000
      7      -1.9987      2.00000
      8       0.3112      2.00000
      9       0.3112      2.00000
     10       4.5408      0.00000
     11       4.7817      0.00000
     12      10.1491      0.00000
     13      10.4542      0.00000
     14      10.4542      0.00000
     15      12.5944      0.00000

 k-point   131 :       0.4138    0.0000    0.4138
  band No.  band energies     occupation 
      1      -8.5308      2.00000
      2      -5.7873      2.00000
      3      -5.7873      2.00000
      4      -5.7821      2.00000
      5      -5.6523      2.00000
      6      -5.3437      2.00000
      7      -1.9553      2.00000
      8       0.3299      2.00000
      9       0.3299      2.00000
     10       4.5469      0.00000
     11       4.8085      0.00000
     12      10.0602      0.00000
     13      10.3604      0.00000
     14      10.3604      0.00000
     15      12.5615      0.00000

 k-point   132 :       0.4052    0.0000    0.4052
  band No.  band energies     occupation 
      1      -8.5383      2.00000
      2      -5.7899      2.00000
      3      -5.7899      2.00000
      4      -5.7812      2.00000
      5      -5.6528      2.00000
      6      -5.3610      2.00000
      7      -1.9081      2.00000
      8       0.3504      2.00000
      9       0.3504      2.00000
     10       4.5548      0.00000
     11       4.8364      0.00000
     12       9.9679      0.00000
     13      10.2632      0.00000
     14      10.2632      0.00000
     15      12.5267      0.00000

 k-point   133 :       0.3966    0.0000    0.3966
  band No.  band energies     occupation 
      1      -8.5464      2.00000
      2      -5.7928      2.00000
      3      -5.7928      2.00000
      4      -5.7803      2.00000
      5      -5.6533      2.00000
      6      -5.3791      2.00000
      7      -1.8574      2.00000
      8       0.3728      2.00000
      9       0.3728      2.00000
     10       4.5646      0.00000
     11       4.8650      0.00000
     12       9.8732      0.00000
     13      10.1632      0.00000
     14      10.1632      0.00000
     15      12.4902      0.00000

 k-point   134 :       0.3879    0.0000    0.3879
  band No.  band energies     occupation 
      1      -8.5552      2.00000
      2      -5.7958      2.00000
      3      -5.7958      2.00000
      4      -5.7794      2.00000
      5      -5.6538      2.00000
      6      -5.3978      2.00000
      7      -1.8034      2.00000
      8       0.3969      2.00000
      9       0.3969      2.00000
     10       4.5762      0.00000
     11       4.8942      0.00000
     12       9.7770      0.00000
     13      10.0612      0.00000
     14      10.0612      0.00000
     15      12.4525      0.00000

 k-point   135 :       0.3793    0.0000    0.3793
  band No.  band energies     occupation 
      1      -8.5646      2.00000
      2      -5.7990      2.00000
      3      -5.7990      2.00000
      4      -5.7784      2.00000
      5      -5.6543      2.00000
      6      -5.4170      2.00000
      7      -1.7462      2.00000
      8       0.4229      2.00000
      9       0.4229      2.00000
     10       4.5898      0.00000
     11       4.9238      0.00000
     12       9.6802      0.00000
     13       9.9576      0.00000
     14       9.9576      0.00000
     15      12.4137      0.00000

 k-point   136 :       0.3707    0.0000    0.3707
  band No.  band energies     occupation 
      1      -8.5745      2.00000
      2      -5.8024      2.00000
      3      -5.8024      2.00000
      4      -5.7775      2.00000
      5      -5.6549      2.00000
      6      -5.4364      2.00000
      7      -1.6860      2.00000
      8       0.4506      2.00000
      9       0.4506      2.00000
     10       4.6051      0.00000
     11       4.9534      0.00000
     12       9.5837      0.00000
     13       9.8527      0.00000
     14       9.8527      0.00000
     15      12.3741      0.00000

 k-point   137 :       0.3621    0.0000    0.3621
  band No.  band energies     occupation 
      1      -8.5850      2.00000
      2      -5.8059      2.00000
      3      -5.8059      2.00000
      4      -5.7766      2.00000
      5      -5.6555      2.00000
      6      -5.4561      2.00000
      7      -1.6230      2.00000
      8       0.4799      2.00000
      9       0.4799      2.00000
     10       4.6222      0.00000
     11       4.9827      0.00000
     12       9.4882      0.00000
     13       9.7471      0.00000
     14       9.7471      0.00000
     15      12.3339      0.00000

 k-point   138 :       0.3534    0.0000    0.3534
  band No.  band energies     occupation 
      1      -8.5960      2.00000
      2      -5.8096      2.00000
      3      -5.8096      2.00000
      4      -5.7758      2.00000
      5      -5.6562      2.00000
      6      -5.4757      2.00000
      7      -1.5574      2.00000
      8       0.5109      2.00000
      9       0.5109      2.00000
     10       4.6410      0.00000
     11       5.0115      0.00000
     12       9.3945      0.00000
     13       9.6408      0.00000
     14       9.6408      0.00000
     15      12.2933      0.00000

 k-point   139 :       0.3448    0.0000    0.3448
  band No.  band energies     occupation 
      1      -8.6075      2.00000
      2      -5.8134      2.00000
      3      -5.8134      2.00000
      4      -5.7750      2.00000
      5      -5.6568      2.00000
      6      -5.4952      2.00000
      7      -1.4893      2.00000
      8       0.5436      2.00000
      9       0.5436      2.00000
     10       4.6615      0.00000
     11       5.0394      0.00000
     12       9.3035      0.00000
     13       9.5343      0.00000
     14       9.5343      0.00000
     15      12.2526      0.00000

 k-point   140 :       0.3362    0.0000    0.3362
  band No.  band energies     occupation 
      1      -8.6194      2.00000
      2      -5.8174      2.00000
      3      -5.8174      2.00000
      4      -5.7744      2.00000
      5      -5.6575      2.00000
      6      -5.5145      2.00000
      7      -1.4188      2.00000
      8       0.5778      2.00000
      9       0.5778      2.00000
     10       4.6834      0.00000
     11       5.0661      0.00000
     12       9.2158      0.00000
     13       9.4276      0.00000
     14       9.4276      0.00000
     15      12.2118      0.00000

 k-point   141 :       0.3276    0.0000    0.3276
  band No.  band energies     occupation 
      1      -8.6318      2.00000
      2      -5.8214      2.00000
      3      -5.8214      2.00000
      4      -5.7739      2.00000
      5      -5.6583      2.00000
      6      -5.5333      2.00000
      7      -1.3462      2.00000
      8       0.6135      2.00000
      9       0.6135      2.00000
     10       4.7066      0.00000
     11       5.0911      0.00000
     12       9.1324      0.00000
     13       9.3210      0.00000
     14       9.3210      0.00000
     15      12.1711      0.00000

 k-point   142 :       0.3190    0.0000    0.3190
  band No.  band energies     occupation 
      1      -8.6445      2.00000
      2      -5.8255      2.00000
      3      -5.8255      2.00000
      4      -5.7736      2.00000
      5      -5.6590      2.00000
      6      -5.5516      2.00000
      7      -1.2715      2.00000
      8       0.6506      2.00000
      9       0.6506      2.00000
     10       4.7309      0.00000
     11       5.1141      0.00000
     12       9.0539      0.00000
     13       9.2146      0.00000
     14       9.2146      0.00000
     15      12.1306      0.00000

 k-point   143 :       0.3103    0.0000    0.3103
  band No.  band energies     occupation 
      1      -8.6576      2.00000
      2      -5.8297      2.00000
      3      -5.8297      2.00000
      4      -5.7736      2.00000
      5      -5.6598      2.00000
      6      -5.5692      2.00000
      7      -1.1950      2.00000
      8       0.6891      2.00000
      9       0.6891      2.00000
     10       4.7559      0.00000
     11       5.1350      0.00000
     12       8.9813      0.00000
     13       9.1086      0.00000
     14       9.1086      0.00000
     15      12.0905      0.00000

 k-point   144 :       0.3017    0.0000    0.3017
  band No.  band energies     occupation 
      1      -8.6710      2.00000
      2      -5.8340      2.00000
      3      -5.8340      2.00000
      4      -5.7740      2.00000
      5      -5.6605      2.00000
      6      -5.5860      2.00000
      7      -1.1166      2.00000
      8       0.7290      2.00000
      9       0.7290      2.00000
     10       4.7812      0.00000
     11       5.1534      0.00000
     12       8.9153      0.00000
     13       9.0031      0.00000
     14       9.0031      0.00000
     15      12.0508      0.00000

 k-point   145 :       0.2931    0.0000    0.2931
  band No.  band energies     occupation 
      1      -8.6847      2.00000
      2      -5.8383      2.00000
      3      -5.8383      2.00000
      4      -5.7748      2.00000
      5      -5.6613      2.00000
      6      -5.6019      2.00000
      7      -1.0365      2.00000
      8       0.7701      2.00000
      9       0.7701      2.00000
     10       4.8061      0.00000
     11       5.1695      0.00000
     12       8.8568      0.00000
     13       8.8982      0.00000
     14       8.8982      0.00000
     15      12.0117      0.00000

 k-point   146 :       0.2845    0.0000    0.2845
  band No.  band energies     occupation 
      1      -8.6986      2.00000
      2      -5.8427      2.00000
      3      -5.8427      2.00000
      4      -5.7762      2.00000
      5      -5.6621      2.00000
      6      -5.6167      2.00000
      7      -0.9548      2.00000
      8       0.8125      2.00000
      9       0.8125      2.00000
     10       4.8296      0.00000
     11       5.1837      0.00000
     12       8.7939      0.00000
     13       8.7939      0.00000
     14       8.8064      0.00000
     15      11.9733      0.00000

 k-point   147 :       0.2759    0.0000    0.2759
  band No.  band energies     occupation 
      1      -8.7127      2.00000
      2      -5.8471      2.00000
      3      -5.8471      2.00000
      4      -5.7783      2.00000
      5      -5.6629      2.00000
      6      -5.6302      2.00000
      7      -0.8715      2.00000
      8       0.8559      2.00000
      9       0.8559      2.00000
     10       4.8502      0.00000
     11       5.1966      0.00000
     12       8.6905      0.00000
     13       8.6905      0.00000
     14       8.7648      0.00000
     15      11.9355      0.00000

 k-point   148 :       0.2672    0.0000    0.2672
  band No.  band energies     occupation 
      1      -8.7269      2.00000
      2      -5.8515      2.00000
      3      -5.8515      2.00000
      4      -5.7812      2.00000
      5      -5.6637      2.00000
      6      -5.6423      2.00000
      7      -0.7869      2.00000
      8       0.9004      2.00000
      9       0.9004      2.00000
     10       4.8662      0.00000
     11       5.2097      0.00000
     12       8.5880      0.00000
     13       8.5880      0.00000
     14       8.7327      0.00000
     15      11.8986      0.00000

 k-point   149 :       0.2586    0.0000    0.2586
  band No.  band energies     occupation 
      1      -8.7412      2.00000
      2      -5.8559      2.00000
      3      -5.8559      2.00000
      4      -5.7850      2.00000
      5      -5.6645      2.00000
      6      -5.6529      2.00000
      7      -0.7009      2.00000
      8       0.9458      2.00000
      9       0.9458      2.00000
     10       4.8754      0.00000
     11       5.2247      0.00000
     12       8.4865      0.00000
     13       8.4865      0.00000
     14       8.7106      0.00000
     15      11.8624      0.00000

 k-point   150 :       0.2500    0.0000    0.2500
  band No.  band energies     occupation 
      1      -8.7556      2.00000
      2      -5.8603      2.00000
      3      -5.8603      2.00000
      4      -5.7897      2.00000
      5      -5.6653      2.00000
      6      -5.6619      2.00000
      7      -0.6137      2.00000
      8       0.9921      2.00000
      9       0.9921      2.00000
     10       4.8755      0.00000
     11       5.2435      0.00000
     12       8.3860      0.00000
     13       8.3860      0.00000
     14       8.6989      0.00000
     15      11.8271      0.00000

 k-point   151 :       0.2414    0.0000    0.2414
  band No.  band energies     occupation 
      1      -8.7699      2.00000
      2      -5.8647      2.00000
      3      -5.8647      2.00000
      4      -5.7955      2.00000
      5      -5.6693      2.00000
      6      -5.6662      2.00000
      7      -0.5252      2.00000
      8       1.0392      2.00000
      9       1.0392      2.00000
     10       4.8649      0.00000
     11       5.2676      0.00000
     12       8.2867      0.00000
     13       8.2867      0.00000
     14       8.6977      0.00000
     15      11.7931      0.00000

 k-point   152 :       0.2328    0.0000    0.2328
  band No.  band energies     occupation 
      1      -8.7843      2.00000
      2      -5.8690      2.00000
      3      -5.8690      2.00000
      4      -5.8020      2.00000
      5      -5.6752      2.00000
      6      -5.6670      2.00000
      7      -0.4357      2.00000
      8       1.0869      2.00000
      9       1.0869      2.00000
     10       4.8429      0.00000
     11       5.2974      0.00000
     12       8.1887      0.00000
     13       8.1887      0.00000
     14       8.7071      0.00000
     15      11.7619      0.00000

 k-point   153 :       0.2241    0.0000    0.2241
  band No.  band energies     occupation 
      1      -8.7986      2.00000
      2      -5.8733      2.00000
      3      -5.8733      2.00000
      4      -5.8093      2.00000
      5      -5.6798      2.00000
      6      -5.6678      2.00000
      7      -0.3450      2.00000
      8       1.1352      2.00000
      9       1.1352      2.00000
     10       4.8100      0.00000
     11       5.3329      0.00000
     12       8.0921      0.00000
     13       8.0921      0.00000
     14       8.7271      0.00000
     15      11.7274      0.00000

 k-point   154 :       0.2155    0.0000    0.2155
  band No.  band energies     occupation 
      1      -8.8127      2.00000
      2      -5.8775      2.00000
      3      -5.8775      2.00000
      4      -5.8171      2.00000
      5      -5.6832      2.00000
      6      -5.6686      2.00000
      7      -0.2533      2.00000
      8       1.1839      2.00000
      9       1.1839      2.00000
     10       4.7669      0.00000
     11       5.3732      0.00000
     12       7.9969      0.00000
     13       7.9969      0.00000
     14       8.7575      0.00000
     15      11.6959      0.00000

 k-point   155 :       0.2069    0.0000    0.2069
  band No.  band energies     occupation 
      1      -8.8267      2.00000
      2      -5.8817      2.00000
      3      -5.8817      2.00000
      4      -5.8252      2.00000
      5      -5.6856      2.00000
      6      -5.6695      2.00000
      7      -0.1606      2.00000
      8       1.2330      2.00000
      9       1.2330      2.00000
     10       4.7146      0.00000
     11       5.4176      0.00000
     12       7.9034      0.00000
     13       7.9034      0.00000
     14       8.7979      0.00000
     15      11.6806      0.00000

 k-point   156 :       0.1983    0.0000    0.1983
  band No.  band energies     occupation 
      1      -8.8404      2.00000
      2      -5.8857      2.00000
      3      -5.8857      2.00000
      4      -5.8335      2.00000
      5      -5.6873      2.00000
      6      -5.6702      2.00000
      7      -0.0670      2.00000
      8       1.2822      2.00000
      9       1.2822      2.00000
     10       4.6542      0.00000
     11       5.4656      0.00000
     12       7.8115      0.00000
     13       7.8115      0.00000
     14       8.8478      0.00000
     15      11.5391      0.00000

 k-point   157 :       0.1897    0.0000    0.1897
  band No.  band energies     occupation 
      1      -8.8539      2.00000
      2      -5.8897      2.00000
      3      -5.8897      2.00000
      4      -5.8418      2.00000
      5      -5.6884      2.00000
      6      -5.6710      2.00000
      7       0.0274      2.00000
      8       1.3315      2.00000
      9       1.3315      2.00000
     10       4.5866      0.00000
     11       5.5164      0.00000
     12       7.7215      0.00000
     13       7.7215      0.00000
     14       8.9069      0.00000
     15      11.3933      0.00000

 k-point   158 :       0.1810    0.0000    0.1810
  band No.  band energies     occupation 
      1      -8.8671      2.00000
      2      -5.8935      2.00000
      3      -5.8935      2.00000
      4      -5.8500      2.00000
      5      -5.6890      2.00000
      6      -5.6718      2.00000
      7       0.1228      2.00000
      8       1.3807      2.00000
      9       1.3807      2.00000
     10       4.5127      0.00000
     11       5.5697      0.00000
     12       7.6335      0.00000
     13       7.6335      0.00000
     14       8.9745      0.00000
     15      11.2498      0.00000

 k-point   159 :       0.1724    0.0000    0.1724
  band No.  band energies     occupation 
      1      -8.8800      2.00000
      2      -5.8973      2.00000
      3      -5.8973      2.00000
      4      -5.8580      2.00000
      5      -5.6893      2.00000
      6      -5.6725      2.00000
      7       0.2190      2.00000
      8       1.4297      2.00000
      9       1.4297      2.00000
     10       4.4332      0.00000
     11       5.6251      0.00000
     12       7.5475      0.00000
     13       7.5475      0.00000
     14       9.0501      0.00000
     15      11.1087      0.00000

 k-point   160 :       0.1638    0.0000    0.1638
  band No.  band energies     occupation 
      1      -8.8925      2.00000
      2      -5.9009      2.00000
      3      -5.9009      2.00000
      4      -5.8656      2.00000
      5      -5.6892      2.00000
      6      -5.6733      2.00000
      7       0.3159      2.00000
      8       1.4783      2.00000
      9       1.4783      2.00000
     10       4.3490      0.00000
     11       5.6822      0.00000
     12       7.4639      0.00000
     13       7.4639      0.00000
     14       9.1331      0.00000
     15      10.9704      0.00000

 k-point   161 :       0.1552    0.0000    0.1552
  band No.  band energies     occupation 
      1      -8.9046      2.00000
      2      -5.9044      2.00000
      3      -5.9044      2.00000
      4      -5.8730      2.00000
      5      -5.6890      2.00000
      6      -5.6739      2.00000
      7       0.4136      2.00000
      8       1.5263      2.00000
      9       1.5263      2.00000
     10       4.2605      0.00000
     11       5.7408      0.00000
     12       7.3826      0.00000
     13       7.3826      0.00000
     14       9.2227      0.00000
     15      10.8352      0.00000

 k-point   162 :       0.1466    0.0000    0.1466
  band No.  band energies     occupation 
      1      -8.9163      2.00000
      2      -5.9077      2.00000
      3      -5.9077      2.00000
      4      -5.8800      2.00000
      5      -5.6886      2.00000
      6      -5.6746      2.00000
      7       0.5119      2.00000
      8       1.5736      2.00000
      9       1.5736      2.00000
     10       4.1684      0.00000
     11       5.8005      0.00000
     12       7.3040      0.00000
     13       7.3040      0.00000
     14       9.3182      0.00000
     15      10.7036      0.00000

 k-point   163 :       0.1379    0.0000    0.1379
  band No.  band energies     occupation 
      1      -8.9275      2.00000
      2      -5.9109      2.00000
      3      -5.9109      2.00000
      4      -5.8866      2.00000
      5      -5.6880      2.00000
      6      -5.6753      2.00000
      7       0.6109      2.00000
      8       1.6199      2.00000
      9       1.6199      2.00000
     10       4.0732      0.00000
     11       5.8611      0.00000
     12       7.2282      0.00000
     13       7.2282      0.00000
     14       9.4187      0.00000
     15      10.5764      0.00000

 k-point   164 :       0.1293    0.0000    0.1293
  band No.  band energies     occupation 
      1      -8.9381      2.00000
      2      -5.9139      2.00000
      3      -5.9139      2.00000
      4      -5.8928      2.00000
      5      -5.6874      2.00000
      6      -5.6759      2.00000
      7       0.7106      2.00000
      8       1.6650      2.00000
      9       1.6650      2.00000
     10       3.9755      0.00000
     11       5.9222      0.00000
     12       7.1553      0.00000
     13       7.1553      0.00000
     14       9.5229      0.00000
     15      10.4547      0.00000

 k-point   165 :       0.1207    0.0000    0.1207
  band No.  band energies     occupation 
      1      -8.9483      2.00000
      2      -5.9168      2.00000
      3      -5.9168      2.00000
      4      -5.8986      2.00000
      5      -5.6868      2.00000
      6      -5.6764      2.00000
      7       0.8107      2.00000
      8       1.7088      2.00000
      9       1.7088      2.00000
     10       3.8755      0.00000
     11       5.9836      0.00000
     12       7.0856      0.00000
     13       7.0856      0.00000
     14       9.6284      0.00000
     15      10.3406      0.00000

 k-point   166 :       0.1121    0.0000    0.1121
  band No.  band energies     occupation 
      1      -8.9578      2.00000
      2      -5.9195      2.00000
      3      -5.9195      2.00000
      4      -5.9040      2.00000
      5      -5.6862      2.00000
      6      -5.6770      2.00000
      7       0.9114      2.00000
      8       1.7509      2.00000
      9       1.7509      2.00000
     10       3.7739      0.00000
     11       6.0447      0.00000
     12       7.0194      0.00000
     13       7.0194      0.00000
     14       9.7298      0.00000
     15      10.2394      0.00000

 k-point   167 :       0.1034    0.0000    0.1034
  band No.  band energies     occupation 
      1      -8.9668      2.00000
      2      -5.9220      2.00000
      3      -5.9220      2.00000
      4      -5.9089      2.00000
      5      -5.6855      2.00000
      6      -5.6775      2.00000
      7       1.0125      2.00000
      8       1.7913      2.00000
      9       1.7913      2.00000
     10       3.6708      0.00000
     11       6.1054      0.00000
     12       6.9567      0.00000
     13       6.9567      0.00000
     14       9.8116      0.00000
     15      10.1668      0.00000

 k-point   168 :       0.0948    0.0000    0.0948
  band No.  band energies     occupation 
      1      -8.9751      2.00000
      2      -5.9243      2.00000
      3      -5.9243      2.00000
      4      -5.9135      2.00000
      5      -5.6848      2.00000
      6      -5.6780      2.00000
      7       1.1139      2.00000
      8       1.8296      2.00000
      9       1.8296      2.00000
     10       3.5667      0.00000
     11       6.1650      0.00000
     12       6.8979      0.00000
     13       6.8979      0.00000
     14       9.8356      0.00000
     15      10.1607      0.00000

 k-point   169 :       0.0862    0.0000    0.0862
  band No.  band energies     occupation 
      1      -8.9828      2.00000
      2      -5.9264      2.00000
      3      -5.9264      2.00000
      4      -5.9176      2.00000
      5      -5.6842      2.00000
      6      -5.6784      2.00000
      7       1.2156      2.00000
      8       1.8656      2.00000
      9       1.8656      2.00000
     10       3.4620      0.00000
     11       6.2230      0.00000
     12       6.8432      0.00000
     13       6.8432      0.00000
     14       9.7906      0.00000
     15      10.2324      0.00000

 k-point   170 :       0.0776    0.0000    0.0776
  band No.  band energies     occupation 
      1      -8.9898      2.00000
      2      -5.9284      2.00000
      3      -5.9284      2.00000
      4      -5.9213      2.00000
      5      -5.6835      2.00000
      6      -5.6788      2.00000
      7       1.3172      2.00000
      8       1.8991      2.00000
      9       1.8991      2.00000
     10       3.3569      0.00000
     11       6.2790      0.00000
     12       6.7928      0.00000
     13       6.7928      0.00000
     14       9.7172      0.00000
     15      10.3412      0.00000

 k-point   171 :       0.0690    0.0000    0.0690
  band No.  band energies     occupation 
      1      -8.9962      2.00000
      2      -5.9301      2.00000
      3      -5.9301      2.00000
      4      -5.9246      2.00000
      5      -5.6830      2.00000
      6      -5.6792      2.00000
      7       1.4186      2.00000
      8       1.9299      2.00000
      9       1.9299      2.00000
     10       3.2520      0.00000
     11       6.3322      0.00000
     12       6.7469      0.00000
     13       6.7469      0.00000
     14       9.6386      0.00000
     15      10.4639      0.00000

 k-point   172 :       0.0603    0.0000    0.0603
  band No.  band energies     occupation 
      1      -9.0018      2.00000
      2      -5.9317      2.00000
      3      -5.9317      2.00000
      4      -5.9275      2.00000
      5      -5.6824      2.00000
      6      -5.6795      2.00000
      7       1.5195      2.00000
      8       1.9576      2.00000
      9       1.9576      2.00000
     10       3.1478      0.00000
     11       6.3819      0.00000
     12       6.7059      0.00000
     13       6.7059      0.00000
     14       9.5629      0.00000
     15      10.5922      0.00000

 k-point   173 :       0.0517    0.0000    0.0517
  band No.  band energies     occupation 
      1      -9.0067      2.00000
      2      -5.9330      2.00000
      3      -5.9330      2.00000
      4      -5.9300      2.00000
      5      -5.6819      2.00000
      6      -5.6798      2.00000
      7       1.6193      2.00000
      8       1.9822      2.00000
      9       1.9822      2.00000
     10       3.0448      0.00000
     11       6.4273      0.00000
     12       6.6697      0.00000
     13       6.6697      0.00000
     14       9.4933      0.00000
     15      10.7224      0.00000

 k-point   174 :       0.0431    0.0000    0.0431
  band No.  band energies     occupation 
      1      -9.0109      2.00000
      2      -5.9342      2.00000
      3      -5.9342      2.00000
      4      -5.9321      2.00000
      5      -5.6815      2.00000
      6      -5.6800      2.00000
      7       1.7171      2.00000
      8       2.0034      2.00000
      9       2.0034      2.00000
     10       2.9442      0.00000
     11       6.4677      0.00000
     12       6.6388      0.00000
     13       6.6388      0.00000
     14       9.4317      0.00000
     15      10.8520      0.00000

 k-point   175 :       0.0345    0.0000    0.0345
  band No.  band energies     occupation 
      1      -9.0143      2.00000
      2      -5.9352      2.00000
      3      -5.9352      2.00000
      4      -5.9338      2.00000
      5      -5.6812      2.00000
      6      -5.6802      2.00000
      7       1.8114      2.00000
      8       2.0209      2.00000
      9       2.0209      2.00000
     10       2.8474      0.00000
     11       6.5022      0.00000
     12       6.6132      0.00000
     13       6.6132      0.00000
     14       9.3795      0.00000
     15      10.9779      0.00000

 k-point   176 :       0.0259    0.0000    0.0259
  band No.  band energies     occupation 
      1      -9.0170      2.00000
      2      -5.9359      2.00000
      3      -5.9359      2.00000
      4      -5.9351      2.00000
      5      -5.6809      2.00000
      6      -5.6804      2.00000
      7       1.8995      2.00000
      8       2.0348      2.00000
      9       2.0348      2.00000
     10       2.7574      0.00000
     11       6.5300      0.00000
     12       6.5932      0.00000
     13       6.5932      0.00000
     14       9.3377      0.00000
     15      11.0971      0.00000

 k-point   177 :       0.0172    0.0000    0.0172
  band No.  band energies     occupation 
      1      -9.0189      2.00000
      2      -5.9364      2.00000
      3      -5.9364      2.00000
      4      -5.9361      2.00000
      5      -5.6807      2.00000
      6      -5.6805      2.00000
      7       1.9761      2.00000
      8       2.0448      2.00000
      9       2.0448      2.00000
     10       2.6793      0.00000
     11       6.5504      0.00000
     12       6.5788      0.00000
     13       6.5788      0.00000
     14       9.3072      0.00000
     15      11.2042      0.00000

 k-point   178 :       0.0086    0.0000    0.0086
  band No.  band energies     occupation 
      1      -9.0201      2.00000
      2      -5.9367      2.00000
      3      -5.9367      2.00000
      4      -5.9366      2.00000
      5      -5.6806      2.00000
      6      -5.6806      2.00000
      7       2.0317      2.00000
      8       2.0508      2.00000
      9       2.0508      2.00000
     10       2.6228      0.00000
     11       6.5630      0.00000
     12       6.5701      0.00000
     13       6.5701      0.00000
     14       9.2886      0.00000
     15      11.2979      0.00000

 k-point   179 :       0.0000    0.0000    0.0000
  band No.  band energies     occupation 
      1      -9.0204      2.00000
      2      -5.9368      2.00000
      3      -5.9368      2.00000
      4      -5.9368      2.00000
      5      -5.6806      2.00000
      6      -5.6806      2.00000
      7       2.0528      2.00000
      8       2.0528      2.00000
      9       2.0528      2.00000
     10       2.6014      0.00000
     11       6.5672      0.00000
     12       6.5672      0.00000
     13       6.5672      0.00000
     14       9.2824      0.00000
     15      11.3012      0.00000


--------------------------------------------------------------------------------------------------------


 soft charge-density along one line, spin component           1
         0         1         2         3         4         5         6         7         8         9
 total charge-density along one line

 pseudopotential strength for first ion, spin component:           1
-17.814  -0.000   0.000  -0.000   0.000 -17.860  -0.000   0.000
 -0.000 -17.814  -0.000  -0.000   0.000  -0.000 -17.860  -0.000
  0.000  -0.000 -17.816  -0.000  -0.000   0.000  -0.000 -17.862
 -0.000  -0.000  -0.000 -17.814  -0.000  -0.000  -0.000  -0.000
  0.000   0.000  -0.000  -0.000 -17.816   0.000   0.000  -0.000
-17.860  -0.000   0.000  -0.000   0.000 -17.886  -0.000   0.000
 -0.000 -17.860  -0.000  -0.000   0.000  -0.000 -17.886  -0.000
  0.000  -0.000 -17.862  -0.000  -0.000   0.000  -0.000 -17.888
 -0.000  -0.000  -0.000 -17.860  -0.000  -0.000  -0.000  -0.000
  0.000   0.000  -0.000  -0.000 -17.862   0.000   0.000  -0.000
  0.000   0.000  -0.000   0.000  -0.000   0.000   0.000  -0.000
  0.000   0.000  -0.000   0.000  -0.000   0.000   0.000  -0.000
 -0.000  -0.000  -0.000  -0.003  -0.000  -0.000  -0.000  -0.000
 -0.003  -0.000   0.000  -0.000   0.000  -0.002  -0.000   0.000
 -0.000  -0.003  -0.000  -0.000   0.000  -0.000  -0.002  -0.000
 -0.000  -0.000  -0.000  -0.002  -0.000  -0.000  -0.000  -0.000
 -0.002  -0.000   0.000  -0.000   0.000  -0.002  -0.000   0.000
 -0.000  -0.002  -0.000  -0.000   0.000  -0.000  -0.002  -0.000
 total augmentation occupancy for first ion, spin component:           1
  2.000   0.000   0.000   0.000   0.000   0.000   0.000   0.000   0.000   0.000   0.000   0.000   0.000   0.000   0.000   0.000
  0.000   2.000   0.000   0.000   0.000   0.000   0.000   0.000   0.000   0.000   0.000   0.000   0.000   0.000   0.000   0.000
  0.000   0.000   2.000   0.000   0.000   0.000   0.000   0.000   0.000   0.000   0.000   0.000   0.000   0.000   0.000   0.000
  0.000   0.000   0.000   2.000   0.000   0.000   0.000   0.000   0.000   0.000   0.000   0.000   0.000   0.000   0.000   0.000
  0.000   0.000   0.000   0.000   2.000   0.000   0.000   0.000   0.000   0.000   0.000   0.000   0.000   0.000   0.000   0.000
  0.000   0.000   0.000   0.000   0.000   0.000   0.000   0.000   0.000   0.000   0.000   0.000   0.000   0.000   0.000   0.000
  0.000   0.000   0.000   0.000   0.000   0.000   0.000   0.000   0.000   0.000   0.000   0.000   0.000   0.000   0.000   0.000
  0.000   0.000   0.000   0.000   0.000   0.000   0.000   0.000   0.000   0.000   0.000   0.000   0.000   0.000   0.000   0.000
  0.000   0.000   0.000   0.000   0.000   0.000   0.000   0.000   0.000   0.000   0.000   0.000   0.000   0.000   0.000   0.000
  0.000   0.000   0.000   0.000   0.000   0.000   0.000   0.000   0.000   0.000   0.000   0.000   0.000   0.000   0.000   0.000
  0.000   0.000   0.000   0.000   0.000   0.000   0.000   0.000   0.000   0.000   2.000   0.000   0.000   0.000   0.000   0.000
  0.000   0.000   0.000   0.000   0.000   0.000   0.000   0.000   0.000   0.000   0.000   0.000   0.000   0.000   0.000   0.000
  0.000   0.000   0.000   0.000   0.000   0.000   0.000   0.000   0.000   0.000   0.000   0.000   0.000   0.000   0.000   0.000
  0.000   0.000   0.000   0.000   0.000   0.000   0.000   0.000   0.000   0.000   0.000   0.000   0.000   0.000   0.000   0.000
  0.000   0.000   0.000   0.000   0.000   0.000   0.000   0.000   0.000   0.000   0.000   0.000   0.000   0.000   0.000   0.000
  0.000   0.000   0.000   0.000   0.000   0.000   0.000   0.000   0.000   0.000   0.000   0.000   0.000   0.000   0.000   0.000
  0.000   0.000   0.000   0.000   0.000   0.000   0.000   0.000   0.000   0.000   0.000   0.000   0.000   0.000   0.000   0.000
  0.000   0.000   0.000   0.000   0.000   0.000   0.000   0.000   0.000   0.000   0.000   0.000   0.000   0.000   0.000   0.000


------------------------ aborting loop because EDIFF is reached ----------------------------------------



 optimized coefficients for linear combined projectors, energy window     -10.12     14.10
 species Cd NT=   1 L=   2     0.976     0.978
 species Cd NT=   1 L=   0     0.625     0.930
 species Cd NT=   1 L=   1     0.862     0.907
 species Te NT=   2 L=   0     0.840     0.933
 species Te NT=   2 L=   1     0.671     0.924
 species Te NT=   2 L=   2     0.789



 total charge

# of ion       s       p       d       tot
------------------------------------------
    1        0.426   0.283   9.546  10.254
    2        1.332   2.183   0.018   3.532
--------------------------------------------------
tot          1.758   2.465   9.563  13.787

    CHARGE:  cpu time      0.0203: real time      0.0211
    FORLOC:  cpu time      0.0015: real time      0.0015
    FORNL :  cpu time      0.0280: real time      0.0280
    STRESS:  cpu time      0.7022: real time      0.7025
    FORCOR:  cpu time      0.0152: real time      0.0152
    FORHAR:  cpu time      0.0039: real time      0.0039
    OFIELD:  cpu time      0.0000: real time      0.0000

  FORCE on cell =-STRESS in cart. coord.  units (eV):
  Direction    XX          YY          ZZ          XY          YZ          ZX
  --------------------------------------------------------------------------------------
  Alpha Z    48.85038    48.85038    48.85038
  Ewald    -345.19143  -345.19143  -345.19143    -0.00000    -0.00000     0.00000
  Hartree   167.99490   167.99490   167.99490     0.00000     0.00000     0.00000
  E(xc)     -86.62036   -86.62036   -86.62036    -0.00000    -0.00000    -0.00000
  Local     -23.36820   -23.36820   -23.36820     0.00003     0.00003     0.00003
  n-local    29.38622    23.85631    28.44226    -1.96971    -1.57644    -1.96971
  augment     4.43626     4.43626     4.43626    -0.00002    -0.00002    -0.00002
  Kinetic   207.24108   203.00708   207.39595    -1.97046    -1.68448    -1.97046
  Fock        0.00000     0.00000     0.00000     0.00000     0.00000     0.00000
  -------------------------------------------------------------------------------------
  Total      -0.78881    -0.78881    -0.78881     0.00000    -0.00000     0.00000
  in kB     -18.06678   -18.06678   -18.06678     0.00000    -0.00000     0.00000
  external pressure =      -18.07 kB  Pullay stress =        0.00 kB


 VOLUME and BASIS-vectors are now :
 -----------------------------------------------------------------------------
  energy-cutoff  :      450.00
  volume of cell :       69.95
      direct lattice vectors                 reciprocal lattice vectors
     0.000000000  3.270326000  3.270326000    -0.152889957  0.152889957  0.152889957
     3.270326000  0.000000000  3.270326000     0.152889957 -0.152889957  0.152889957
     3.270326000  3.270326000  0.000000000     0.152889957  0.152889957 -0.152889957

  length of vectors
     4.624939383  4.624939383  4.624939383     0.264813173  0.264813173  0.264813173


 FORCES acting on ions
    electron-ion (+dipol)            ewald-force                    non-local-force                 convergence-correction
 -----------------------------------------------------------------------------------------------
   -.866E-06 -.866E-06 -.858E-06   0.226E-13 -.307E-13 0.270E-13   0.175E-16 0.470E-16 -.536E-16   0.713E-06 -.251E-06 0.122E-06
   -.121E-06 -.121E-06 -.240E-06   -.224E-13 0.309E-13 -.281E-13   0.144E-17 -.471E-16 0.402E-17   -.206E-06 0.950E-07 -.364E-07
 -----------------------------------------------------------------------------------------------
   -.986E-06 -.986E-06 -.110E-05   0.228E-15 0.159E-15 -.103E-14   0.189E-16 -.162E-18 -.496E-16   0.507E-06 -.156E-06 0.858E-07


 POSITION                                       TOTAL-FORCE (eV/Angst)
 -----------------------------------------------------------------------------------
      0.00000      0.00000      0.00000        -0.000000      0.000000      0.000000
      1.63516      1.63516      1.63516         0.000000     -0.000000     -0.000000
 -----------------------------------------------------------------------------------
    total drift:                               -0.000000     -0.000001     -0.000001


--------------------------------------------------------------------------------------------------------



  FREE ENERGIE OF THE ION-ELECTRON SYSTEM (eV)
  ---------------------------------------------------
  free  energy   TOTEN  =        -3.65430255 eV

  energy  without entropy=       -3.65430255  energy(sigma->0) =       -3.65430255



--------------------------------------------------------------------------------------------------------


    POTLOK:  cpu time      0.2020: real time      0.2022


--------------------------------------------------------------------------------------------------------


 stress matrix after NEB project (eV)
     -0.78881     -0.00000      0.00000
      0.00000     -0.78881     -0.00000
      0.00000     -0.00000     -0.78881
  FORCES: max atom, RMS     0.000000    0.000000
  FORCE total and by dimension    0.000000    0.000000
  Stress total and by dimension    1.366262    0.788812
 writing wavefunctions
     LOOP+:  cpu time      9.3692: real time     16.6464
    4ORBIT:  cpu time      0.0000: real time      0.0000

 optimized coefficients for linear combined projectors, energy window     -10.12     14.10
 species Cd NT=   1 L=   2     0.976     0.978
 species Cd NT=   1 L=   0     0.625     0.930
 species Cd NT=   1 L=   1     0.862     0.907
 species Te NT=   2 L=   0     0.840     0.933
 species Te NT=   2 L=   1     0.671     0.924
 species Te NT=   2 L=   2     0.789



 total charge

# of ion       s       p       d       tot
------------------------------------------
    1        0.426   0.283   9.546  10.254
    2        1.332   2.183   0.018   3.532
--------------------------------------------------
tot          1.758   2.465   9.563  13.787


 total amount of memory used by VASP MPI-rank0    58381. kBytes
=======================================================================

   base      :      30000. kBytes
   nonl-proj :      19808. kBytes
   fftplans  :       1064. kBytes
   grid      :       1738. kBytes
   one-center:         15. kBytes
   wavefun   :       5756. kBytes

  
  
 General timing and accounting informations for this job:
 ========================================================
  
                  Total CPU time used (sec):       35.425
                            User time (sec):       32.337
                          System time (sec):        3.088
                         Elapsed time (sec):       74.460
  
                   Maximum memory used (kb):      135936.
                   Average memory used (kb):          N/A
  
                          Minor page faults:        20778
                          Major page faults:          446
                 Voluntary context switches:         3587
